Name: 8-Prenylnaringenin
SYNON: $:00in-source
DB#: MetaboBASE0001
InChIKey: LPEPZZAVFJPLNZ-SFHVURJKSA-N
Precursor_type: [M-H]-
Spectrum_type: MS2
PrecursorMZ: 339.1
Instrument_type: LC-ESI-TOF
Instrument: impact HD
Ion_mode: N
Collision_energy: 40
InChIKey: LPEPZZAVFJPLNZ-SFHVURJKSA-N
Formula: C20H20O5
MW: 340
ExactMass: 340.13107374
Comments: "license=License CC-BY-NC-SA 4.0 International" "author=Plant Biology, The Noble Foundation, Ardmore, OK, US/Dennis Fine, Daniel Wherritt, and Lloyd Sumner" "instrument type=LC-ESI-TOF" "instrument=impact HD" "ionization=ESI" "ionization mode=negative" "ms level=MS2" "precursor m/z=339.1" "isolation width=5" "collision gas=Nitrogen" "collision energy=40" "peak width=0.017" "date=2013-11-16 00:25:35+01:00" "column=Waters Acquity BEH C18 1.7um x 2.1 x 150 mm" "retention time=952.8" "raw data file=C:\Data\Confirmed Standards\Confirmed stds MSMS 14Nov13\8-Prenylnaringenin MSMS v47.d" "precursor type=[M-H]-" "mass accuracy=70.17912120307754" "mass error=-0.023797739999963596" "cas number=53846-50-7" "SMILES=CC(=CCc1c(cc(c2c1O[C@@H](CC2=O)c3ccc(cc3)O)O)O)C" "InChI=InChI=1S/C20H20O5/c1-11(2)3-8-14-15(22)9-16(23)19-17(24)10-18(25-20(14)19)12-4-6-13(21)7-5-12/h3-7,9,18,21-23H,8,10H2,1-2H3/t18-/m0/s1" "InChIKey=LPEPZZAVFJPLNZ-SFHVURJKSA-N" "molecular formula=C20H20O5" "total exact mass=340.13107374" "SMILES=CC(=CCC1=C(C=C(C2=C1OC(CC2=O)C3=CC=C(C=C3)O)O)O)C"
Num Peaks: 16
 109 4.204204; 
 117 2.802803; 
 119 100.000000; 
 120 5.805806; 
 129 2.102102; 
 131 5.005005; 
 133 24.624625; 
 134 3.803804; 
 136 2.802803; 
 147 2.002002; 
 148 2.502503; 
 151 6.906907; 
 175 3.803804; 
 176 7.507508; 
 219 9.209209; 
 233 2.202202; 


Name: 8-Prenylnaringenin
SYNON: $:00in-source
DB#: MetaboBASE0002
InChIKey: LPEPZZAVFJPLNZ-SFHVURJKSA-N
Precursor_type: [M-H]-
Spectrum_type: MS2
PrecursorMZ: 339.1281
Instrument_type: LC-ESI-TOF
Instrument: impact HD
Ion_mode: N
Collision_energy: 20
InChIKey: LPEPZZAVFJPLNZ-SFHVURJKSA-N
Formula: C20H20O5
MW: 340
ExactMass: 340.13107374000003
Comments: "license=License CC-BY-NC-SA 4.0 International" "author=Plant Biology, The Noble Foundation, Ardmore, OK, US/Dennis Fine, Daniel Wherritt, and Lloyd Sumner" "instrument type=LC-ESI-TOF" "instrument=impact HD" "ionization=ESI" "ionization mode=negative" "ms level=MS2" "precursor m/z=339.1281" "isolation width=5" "collision gas=Nitrogen" "collision energy=20" "peak width=0.013" "date=2013-11-16 00:25:35+01:00" "column=Waters Acquity BEH C18 1.7um x 2.1 x 150 mm" "retention time=952.8" "raw data file=C:\Data\Confirmed Standards\Confirmed stds MSMS 14Nov13\8-Prenylnaringenin MSMS v47.d" "precursor type=[M-H]-" "mass accuracy=12.686238621849581" "mass error=0.004302259999974467" "cas number=53846-50-7" "SMILES=CC(=CCc1c(cc(c2c1O[C@@H](CC2=O)c3ccc(cc3)O)O)O)C" "InChI=InChI=1S/C20H20O5/c1-11(2)3-8-14-15(22)9-16(23)19-17(24)10-18(25-20(14)19)12-4-6-13(21)7-5-12/h3-7,9,18,21-23H,8,10H2,1-2H3/t18-/m0/s1" "InChIKey=LPEPZZAVFJPLNZ-SFHVURJKSA-N" "molecular formula=C20H20O5" "total exact mass=340.13107374000003" "SMILES=CC(=CCC1=C(C=C(C2=C1OC(CC2=O)C3=CC=C(C=C3)O)O)O)C"
Num Peaks: 8
 119 9.409409; 
 219 28.428428; 
 220 3.603604; 
 233 3.003003; 
 245 4.504505; 
 339 100.000000; 
 340 14.414414; 
 341 2.502503; 


Name: 8-Prenylnaringenin
SYNON: $:00in-source
DB#: MetaboBASE0003
InChIKey: LPEPZZAVFJPLNZ-SFHVURJKSA-N
Precursor_type: [M-H]-
Spectrum_type: MS2
PrecursorMZ: 339.1283
Instrument_type: LC-ESI-TOF
Instrument: impact HD
Ion_mode: N
Collision_energy: 10
InChIKey: LPEPZZAVFJPLNZ-SFHVURJKSA-N
Formula: C20H20O5
MW: 340
ExactMass: 340.13107374
Comments: "license=License CC-BY-NC-SA 4.0 International" "author=Plant Biology, The Noble Foundation, Ardmore, OK, US/Dennis Fine, Daniel Wherritt, and Lloyd Sumner" "instrument type=LC-ESI-TOF" "instrument=impact HD" "ionization=ESI" "ionization mode=negative" "ms level=MS2" "precursor m/z=339.1283" "isolation width=5" "collision gas=Nitrogen" "collision energy=10" "peak width=0.0094" "date=2013-11-16 00:25:35+01:00" "column=Waters Acquity BEH C18 1.7um x 2.1 x 150 mm" "retention time=952.8" "raw data file=C:\Data\Confirmed Standards\Confirmed stds MSMS 14Nov13\8-Prenylnaringenin MSMS v47.d" "precursor type=[M-H]-" "mass accuracy=13.275978442489022" "mass error=0.00450226000003795" "cas number=53846-50-7" "SMILES=CC(=CCc1c(cc(c2c1O[C@@H](CC2=O)c3ccc(cc3)O)O)O)C" "InChI=InChI=1S/C20H20O5/c1-11(2)3-8-14-15(22)9-16(23)19-17(24)10-18(25-20(14)19)12-4-6-13(21)7-5-12/h3-7,9,18,21-23H,8,10H2,1-2H3/t18-/m0/s1" "InChIKey=LPEPZZAVFJPLNZ-SFHVURJKSA-N" "molecular formula=C20H20O5" "total exact mass=340.13107374" "SMILES=CC(=CCC1=C(C=C(C2=C1OC(CC2=O)C3=CC=C(C=C3)O)O)O)C"
Num Peaks: 2
 339 100.000000; 
 340 11.811812; 


Name: 8-Prenylnaringenin
SYNON: $:00in-source
DB#: MetaboBASE0004
InChIKey: LPEPZZAVFJPLNZ-SFHVURJKSA-N
Precursor_type: [M-H]-
Spectrum_type: MS2
PrecursorMZ: 339.1277
Instrument_type: LC-ESI-TOF
Instrument: impact HD
Ion_mode: N
Collision_energy: 30
InChIKey: LPEPZZAVFJPLNZ-SFHVURJKSA-N
Formula: C20H20O5
MW: 340
ExactMass: 340.13107374
Comments: "license=License CC-BY-NC-SA 4.0 International" "author=Plant Biology, The Noble Foundation, Ardmore, OK, US/Dennis Fine, Daniel Wherritt, and Lloyd Sumner" "instrument type=LC-ESI-TOF" "instrument=impact HD" "ionization=ESI" "ionization mode=negative" "ms level=MS2" "precursor m/z=339.1277" "isolation width=5" "collision gas=Nitrogen" "collision energy=30" "peak width=0.016" "date=2013-11-16 00:25:35+01:00" "column=Waters Acquity BEH C18 1.7um x 2.1 x 150 mm" "retention time=952.8" "raw data file=C:\Data\Confirmed Standards\Confirmed stds MSMS 14Nov13\8-Prenylnaringenin MSMS v47.d" "precursor type=[M-H]-" "mass accuracy=11.506756894285049" "mass error=0.003902260000018032" "cas number=53846-50-7" "SMILES=CC(=CCc1c(cc(c2c1O[C@@H](CC2=O)c3ccc(cc3)O)O)O)C" "InChI=InChI=1S/C20H20O5/c1-11(2)3-8-14-15(22)9-16(23)19-17(24)10-18(25-20(14)19)12-4-6-13(21)7-5-12/h3-7,9,18,21-23H,8,10H2,1-2H3/t18-/m0/s1" "InChIKey=LPEPZZAVFJPLNZ-SFHVURJKSA-N" "molecular formula=C20H20O5" "total exact mass=340.13107374" "SMILES=CC(=CCC1=C(C=C(C2=C1OC(CC2=O)C3=CC=C(C=C3)O)O)O)C"
Num Peaks: 18
 119 100.000000; 
 120 7.307307; 
 131 4.304304; 
 133 24.724725; 
 134 2.902903; 
 137 2.502503; 
 145 2.302302; 
 151 12.012012; 
 164 2.402402; 
 175 9.209209; 
 176 9.609610; 
 177 2.302302; 
 191 2.902903; 
 219 52.352352; 
 220 5.605606; 
 233 6.506507; 
 245 4.704705; 
 339 6.906907; 


Name: 1,8,9-Anthracenetriol
SYNON: $:00in-source
DB#: MetaboBASE0005
InChIKey: YUTJCNNFTOIOGT-UHFFFAOYSA-N
Spectrum_type: MS2
PrecursorMZ: 449.1028
Instrument_type: LC-ESI-TOF
Instrument: impact HD
Ion_mode: N
Collision_energy: 10
InChIKey: YUTJCNNFTOIOGT-UHFFFAOYSA-N
Formula: C14H10O3
MW: 226
ExactMass: 226.06299417999998
Comments: "license=License CC-BY-NC-SA 4.0 International" "author=Plant Biology, The Noble Foundation, Ardmore, OK, US/Dennis Fine, Daniel Wherritt, and Lloyd Sumner" "instrument type=LC-ESI-TOF" "instrument=impact HD" "ionization=ESI" "ionization mode=negative" "ms level=MS2" "precursor m/z=449.1028" "isolation width=5" "collision gas=Nitrogen" "collision energy=10" "peak width=0.017" "date=2014-07-26 01:11:21+02:00" "column=Waters Acquity BEH C18 1.7um x 2.1 x 150 mm" "retention time=819" "raw data file=C:\Data\Confirmed standards 24_July_2014\MSMS\1,8,9-Anthracenetriol vial 28_1-A,4_01_484.d" "cas number=480-22-8" "SMILES=c1cc2cc3cccc(c3c(c2c(c1)O)O)O" "InChI=InChI=1S/C14H10O3/c15-10-5-1-3-8-7-9-4-2-6-11(16)13(9)14(17)12(8)10/h1-7,15-17H" "InChIKey=YUTJCNNFTOIOGT-UHFFFAOYSA-N" "molecular formula=C14H10O3" "total exact mass=226.06299417999998" "SMILES=C1=CC2=CC3=C(C(=CC=C3)O)C(=C2C(=C1)O)O"
Num Peaks: 5
 224 2.802803; 
 242 1.701702; 
 449 100.000000; 
 450 29.829830; 
 451 2.402402; 


Name: 1,8,9-Anthracenetriol
SYNON: $:00in-source
DB#: MetaboBASE0006
InChIKey: YUTJCNNFTOIOGT-UHFFFAOYSA-N
Spectrum_type: MS2
PrecursorMZ: 449.1017
Instrument_type: LC-ESI-TOF
Instrument: impact HD
Ion_mode: N
Collision_energy: 30
InChIKey: YUTJCNNFTOIOGT-UHFFFAOYSA-N
Formula: C14H10O3
MW: 226
ExactMass: 226.06299417999998
Comments: "license=License CC-BY-NC-SA 4.0 International" "author=Plant Biology, The Noble Foundation, Ardmore, OK, US/Dennis Fine, Daniel Wherritt, and Lloyd Sumner" "instrument type=LC-ESI-TOF" "instrument=impact HD" "ionization=ESI" "ionization mode=negative" "ms level=MS2" "precursor m/z=449.1017" "isolation width=5" "collision gas=Nitrogen" "collision energy=30" "peak width=0.016" "date=2014-07-26 01:11:21+02:00" "column=Waters Acquity BEH C18 1.7um x 2.1 x 150 mm" "retention time=819" "raw data file=C:\Data\Confirmed standards 24_July_2014\MSMS\1,8,9-Anthracenetriol vial 28_1-A,4_01_484.d" "cas number=480-22-8" "SMILES=c1cc2cc3cccc(c3c(c2c(c1)O)O)O" "InChI=InChI=1S/C14H10O3/c15-10-5-1-3-8-7-9-4-2-6-11(16)13(9)14(17)12(8)10/h1-7,15-17H" "InChIKey=YUTJCNNFTOIOGT-UHFFFAOYSA-N" "molecular formula=C14H10O3" "total exact mass=226.06299417999998" "SMILES=C1=CC2=CC3=C(C(=CC=C3)O)C(=C2C(=C1)O)O"
Num Peaks: 9
 174 1.401401; 
 224 11.111111; 
 225 3.003003; 
 431 2.602603; 
 432 1.401401; 
 448 6.206206; 
 449 100.000000; 
 450 35.235235; 
 451 2.302302; 


Name: 1,8,9-Anthracenetriol
SYNON: $:00in-source
DB#: MetaboBASE0007
InChIKey: YUTJCNNFTOIOGT-UHFFFAOYSA-N
Spectrum_type: MS2
PrecursorMZ: 449.1031
Instrument_type: LC-ESI-TOF
Instrument: impact HD
Ion_mode: N
Collision_energy: 20
InChIKey: YUTJCNNFTOIOGT-UHFFFAOYSA-N
Formula: C14H10O3
MW: 226
ExactMass: 226.06299417999998
Comments: "license=License CC-BY-NC-SA 4.0 International" "author=Plant Biology, The Noble Foundation, Ardmore, OK, US/Dennis Fine, Daniel Wherritt, and Lloyd Sumner" "instrument type=LC-ESI-TOF" "instrument=impact HD" "ionization=ESI" "ionization mode=negative" "ms level=MS2" "precursor m/z=449.1031" "isolation width=5" "collision gas=Nitrogen" "collision energy=20" "peak width=0.016" "date=2014-07-26 01:11:21+02:00" "column=Waters Acquity BEH C18 1.7um x 2.1 x 150 mm" "retention time=819" "raw data file=C:\Data\Confirmed standards 24_July_2014\MSMS\1,8,9-Anthracenetriol vial 28_1-A,4_01_484.d" "cas number=480-22-8" "SMILES=c1cc2cc3cccc(c3c(c2c(c1)O)O)O" "InChI=InChI=1S/C14H10O3/c15-10-5-1-3-8-7-9-4-2-6-11(16)13(9)14(17)12(8)10/h1-7,15-17H" "InChIKey=YUTJCNNFTOIOGT-UHFFFAOYSA-N" "molecular formula=C14H10O3" "total exact mass=226.06299417999998" "SMILES=C1=CC2=CC3=C(C(=CC=C3)O)C(=C2C(=C1)O)O"
Num Peaks: 5
 224 5.505506; 
 242 1.501502; 
 449 100.000000; 
 450 29.429429; 
 451 3.103103; 


Name: 1,8,9-Anthracenetriol
SYNON: $:00in-source
DB#: MetaboBASE0008
InChIKey: YUTJCNNFTOIOGT-UHFFFAOYSA-N
Instrument_type: LC-ESI-TOF
Instrument: impact HD
Ion_mode: N
InChIKey: YUTJCNNFTOIOGT-UHFFFAOYSA-N
Formula: C14H10O3
MW: 226
ExactMass: 226.06299417999998
Comments: "license=License CC-BY-NC-SA 4.0 International" "author=Plant Biology, The Noble Foundation, Ardmore, OK, US/Dennis Fine, Daniel Wherritt, and Lloyd Sumner" "instrument type=LC-ESI-TOF" "instrument=impact HD" "ionization=ESI" "ionization mode=negative" "collision gas=Nitrogen" "peak width=0.012" "date=2013-06-22 20:05:13+02:00" "column=Waters Acquity BEH C18 1.7um x 2.1 x 150 mm" "retention time=819" "raw data file=D:\Data\Confirmed Standards\1,8,9-Anthracenetriol.d" "cas number=480-22-8" "SMILES=c1cc2cc3cccc(c3c(c2c(c1)O)O)O" "InChI=InChI=1S/C14H10O3/c15-10-5-1-3-8-7-9-4-2-6-11(16)13(9)14(17)12(8)10/h1-7,15-17H" "InChIKey=YUTJCNNFTOIOGT-UHFFFAOYSA-N" "molecular formula=C14H10O3" "total exact mass=226.06299417999998" "SMILES=C1=CC2=CC3=C(C(=CC=C3)O)C(=C2C(=C1)O)O"
Num Peaks: 10
 221 0.400400; 
 223 100.000000; 
 224 22.422422; 
 225 13.713714; 
 226 2.002002; 
 227 0.600601; 
 239 0.400400; 
 241 0.900901; 
 242 0.200200; 
 294 0.200200; 


Name: 1,8,9-Anthracenetriol
SYNON: $:00in-source
DB#: MetaboBASE0009
InChIKey: YUTJCNNFTOIOGT-UHFFFAOYSA-N
Spectrum_type: MS2
PrecursorMZ: 448.0945
Instrument_type: LC-ESI-TOF
Instrument: impact HD
Ion_mode: N
Collision_energy: 50
InChIKey: YUTJCNNFTOIOGT-UHFFFAOYSA-N
Formula: C14H10O3
MW: 226
ExactMass: 226.06299417999998
Comments: "license=License CC-BY-NC-SA 4.0 International" "author=Plant Biology, The Noble Foundation, Ardmore, OK, US/Dennis Fine, Daniel Wherritt, and Lloyd Sumner" "instrument type=LC-ESI-TOF" "instrument=impact HD" "ionization=ESI" "ionization mode=negative" "ms level=MS2" "precursor m/z=448.0945" "isolation width=5" "collision gas=Nitrogen" "collision energy=50" "peak width=0.016" "date=2014-07-26 01:11:21+02:00" "column=Waters Acquity BEH C18 1.7um x 2.1 x 150 mm" "retention time=819" "raw data file=C:\Data\Confirmed standards 24_July_2014\MSMS\1,8,9-Anthracenetriol vial 28_1-A,4_01_484.d" "cas number=480-22-8" "SMILES=c1cc2cc3cccc(c3c(c2c(c1)O)O)O" "InChI=InChI=1S/C14H10O3/c15-10-5-1-3-8-7-9-4-2-6-11(16)13(9)14(17)12(8)10/h1-7,15-17H" "InChIKey=YUTJCNNFTOIOGT-UHFFFAOYSA-N" "molecular formula=C14H10O3" "total exact mass=226.06299417999998" "SMILES=C1=CC2=CC3=C(C(=CC=C3)O)C(=C2C(=C1)O)O"
Num Peaks: 22
 224 51.551552; 
 225 38.738739; 
 226 3.803804; 
 227 9.009009; 
 228 3.403403; 
 327 3.603604; 
 329 2.902903; 
 401 2.702703; 
 403 4.304304; 
 419 4.204204; 
 420 3.303303; 
 427 3.203203; 
 429 9.209209; 
 430 9.509510; 
 431 9.809810; 
 432 26.526527; 
 433 6.706707; 
 446 7.307307; 
 447 4.704705; 
 448 100.000000; 
 449 50.350350; 
 450 7.207207; 


Name: 1,8,9-Anthracenetriol
SYNON: $:00in-source
DB#: MetaboBASE0010
InChIKey: YUTJCNNFTOIOGT-UHFFFAOYSA-N
Spectrum_type: MS2
PrecursorMZ: 449.102
Instrument_type: LC-ESI-TOF
Instrument: impact HD
Ion_mode: N
Collision_energy: 40
InChIKey: YUTJCNNFTOIOGT-UHFFFAOYSA-N
Formula: C14H10O3
MW: 226
ExactMass: 226.06299417999998
Comments: "license=License CC-BY-NC-SA 4.0 International" "author=Plant Biology, The Noble Foundation, Ardmore, OK, US/Dennis Fine, Daniel Wherritt, and Lloyd Sumner" "instrument type=LC-ESI-TOF" "instrument=impact HD" "ionization=ESI" "ionization mode=negative" "ms level=MS2" "precursor m/z=449.102" "isolation width=5" "collision gas=Nitrogen" "collision energy=40" "peak width=0.018" "date=2014-07-26 01:11:21+02:00" "column=Waters Acquity BEH C18 1.7um x 2.1 x 150 mm" "retention time=819" "raw data file=C:\Data\Confirmed standards 24_July_2014\MSMS\1,8,9-Anthracenetriol vial 28_1-A,4_01_484.d" "cas number=480-22-8" "SMILES=c1cc2cc3cccc(c3c(c2c(c1)O)O)O" "InChI=InChI=1S/C14H10O3/c15-10-5-1-3-8-7-9-4-2-6-11(16)13(9)14(17)12(8)10/h1-7,15-17H" "InChIKey=YUTJCNNFTOIOGT-UHFFFAOYSA-N" "molecular formula=C14H10O3" "total exact mass=226.06299417999998" "SMILES=C1=CC2=CC3=C(C(=CC=C3)O)C(=C2C(=C1)O)O"
Num Peaks: 12
 224 30.730731; 
 225 13.613614; 
 421 2.102102; 
 429 3.803804; 
 430 3.703704; 
 431 5.205205; 
 432 9.709710; 
 433 2.802803; 
 448 40.340340; 
 449 100.000000; 
 450 27.727728; 
 451 2.102102; 


Name: Chrysin
SYNON: $:00in-source
DB#: MetaboBASE0011
InChIKey: RTIXKCRFFJGDFG-UHFFFAOYSA-N
Instrument_type: LC-ESI-TOF
Instrument: impact HD
Ion_mode: N
InChIKey: RTIXKCRFFJGDFG-UHFFFAOYSA-N
Formula: C15H10O4
MW: 254
ExactMass: 254.0579088
Comments: "license=License CC-BY-NC-SA 4.0 International" "author=Plant Biology, The Noble Foundation, Ardmore, OK, US/Dennis Fine, Daniel Wherritt, and Lloyd Sumner" "instrument type=LC-ESI-TOF" "instrument=impact HD" "ionization=ESI" "ionization mode=negative" "collision gas=Nitrogen" "peak width=0.0067" "date=2013-06-22 02:20:10+02:00" "column=Waters Acquity BEH C18 1.7um x 2.1 x 150 mm" "retention time=835.2" "raw data file=D:\Data\Confirmed Standards\Chrysin (Vial 1).d" "cas number=480-40-0" "SMILES=c1ccc(cc1)c2cc(=O)c3c(cc(cc3o2)O)O" "InChI=InChI=1S/C15H10O4/c16-10-6-11(17)15-12(18)8-13(19-14(15)7-10)9-4-2-1-3-5-9/h1-8,16-17H" "InChIKey=RTIXKCRFFJGDFG-UHFFFAOYSA-N" "molecular formula=C15H10O4" "total exact mass=254.0579088" "SMILES=C1=CC=C(C=C1)C2=CC(=O)C3=C(C=C(C=C3O2)O)O"
Num Peaks: 5
 253 100.000000; 
 253 0.200200; 
 254 9.509510; 
 255 1.401401; 
 507 0.400400; 


Name: Chrysin
SYNON: $:00in-source
DB#: MetaboBASE0012
InChIKey: RTIXKCRFFJGDFG-UHFFFAOYSA-N
Precursor_type: [M-H]-
Spectrum_type: MS2
PrecursorMZ: 253.052
Instrument_type: LC-ESI-TOF
Instrument: impact HD
Ion_mode: N
Collision_energy: 26.25
InChIKey: RTIXKCRFFJGDFG-UHFFFAOYSA-N
Formula: C15H10O4
MW: 254
ExactMass: 254.0579088
Comments: "license=License CC-BY-NC-SA 4.0 International" "author=Plant Biology, The Noble Foundation, Ardmore, OK, US/Dennis Fine, Daniel Wherritt, and Lloyd Sumner" "instrument type=LC-ESI-TOF" "instrument=impact HD" "ionization=ESI" "ionization mode=negative" "ms level=MS2" "precursor m/z=253.052" "collision gas=Nitrogen" "collision energy=26.25" "collision energy 2=43.75" "peak width=0.0054" "date=2013-07-01 17:46:22+02:00" "column=Waters Acquity BEH C18 1.7um x 2.1 x 150 mm" "retention time=835.424" "raw data file=D:\Data\Confirmed Standards\MSMS confirmed standards\Chrysin (Vial 1) MSMS_1115.d" "precursor type=[M-H]-" "mass accuracy=5.402842103503667" "mass error=0.00136719999997581" "cas number=480-40-0" "SMILES=c1ccc(cc1)c2cc(=O)c3c(cc(cc3o2)O)O" "InChI=InChI=1S/C15H10O4/c16-10-6-11(17)15-12(18)8-13(19-14(15)7-10)9-4-2-1-3-5-9/h1-8,16-17H" "InChIKey=RTIXKCRFFJGDFG-UHFFFAOYSA-N" "molecular formula=C15H10O4" "total exact mass=254.0579088" "SMILES=C1=CC=C(C=C1)C2=CC(=O)C3=C(C=C(C=C3O2)O)O"
Num Peaks: 71
 101 0.100100; 
 107 0.900901; 
 108 0.200200; 
 115 0.800801; 
 117 0.300300; 
 119 2.102102; 
 120 0.200200; 
 121 0.200200; 
 125 0.100100; 
 127 0.100100; 
 129 0.100100; 
 129 0.100100; 
 139 0.300300; 
 140 0.100100; 
 141 0.100100; 
 141 0.100100; 
 143 7.907908; 
 144 0.900901; 
 145 4.304304; 
 145 0.100100; 
 146 0.300300; 
 148 0.500501; 
 149 0.100100; 
 151 1.401401; 
 152 0.200200; 
 152 0.100100; 
 153 0.400400; 
 154 0.100100; 
 155 0.500501; 
 156 0.100100; 
 157 0.300300; 
 165 1.201201; 
 166 0.200200; 
 167 1.201201; 
 168 0.300300; 
 169 0.100100; 
 169 0.100100; 
 171 0.100100; 
 180 1.001001; 
 181 1.801802; 
 182 0.200200; 
 183 0.500501; 
 184 0.100100; 
 185 1.601602; 
 186 0.300300; 
 187 0.600601; 
 188 0.100100; 
 191 0.100100; 
 196 0.100100; 
 197 0.200200; 
 208 0.400400; 
 209 6.506507; 
 210 0.900901; 
 211 1.801802; 
 211 0.100100; 
 212 0.200200; 
 224 0.100100; 
 225 1.301301; 
 226 0.100100; 
 252 0.100100; 
 252 0.100100; 
 252 0.100100; 
 252 0.100100; 
 252 0.200200; 
 253 100.000000; 
 254 14.414414; 
 255 2.102102; 
 255 0.100100; 
 256 0.100100; 
 256 0.100100; 
 256 0.100100; 


Name: Chrysin
SYNON: $:00in-source
DB#: MetaboBASE0013
InChIKey: RTIXKCRFFJGDFG-UHFFFAOYSA-N
Precursor_type: [M-H]-
Spectrum_type: MS2
PrecursorMZ: 253.055
Instrument_type: LC-ESI-TOF
Instrument: impact HD
Ion_mode: N
Collision_energy: 40
InChIKey: RTIXKCRFFJGDFG-UHFFFAOYSA-N
Formula: C15H10O4
MW: 254
ExactMass: 254.0579088
Comments: "license=License CC-BY-NC-SA 4.0 International" "author=Plant Biology, The Noble Foundation, Ardmore, OK, US/Dennis Fine, Daniel Wherritt, and Lloyd Sumner" "instrument type=LC-ESI-TOF" "instrument=impact HD" "ionization=ESI" "ionization mode=negative" "ms level=MS2" "precursor m/z=253.055" "collision gas=Nitrogen" "collision energy=40" "collision energy 2=40" "peak width=0.022" "date=2013-07-31 20:45:23+02:00" "column=Waters Acquity BEH C18 1.7um x 2.1 x 150 mm" "retention time=836.256" "raw data file=D:\Data\Confirmed Standards\Reanalyzed MRM multiple CID\Chrysin (Vial 1).d" "precursor type=[M-H]-" "mass accuracy=17.25790835980374" "mass error=0.0043671999999901345" "cas number=480-40-0" "SMILES=c1ccc(cc1)c2cc(=O)c3c(cc(cc3o2)O)O" "InChI=InChI=1S/C15H10O4/c16-10-6-11(17)15-12(18)8-13(19-14(15)7-10)9-4-2-1-3-5-9/h1-8,16-17H" "InChIKey=RTIXKCRFFJGDFG-UHFFFAOYSA-N" "molecular formula=C15H10O4" "total exact mass=254.0579088" "SMILES=C1=CC=C(C=C1)C2=CC(=O)C3=C(C=C(C=C3O2)O)O"
Num Peaks: 38
 101 40.040040; 
 107 34.034034; 
 108 2.502503; 
 115 17.917918; 
 117 8.208208; 
 119 64.764765; 
 120 2.402402; 
 120 3.903904; 
 121 6.606607; 
 127 2.102102; 
 139 2.602603; 
 141 4.004004; 
 141 1.801802; 
 143 100.000000; 
 144 8.308308; 
 145 46.546547; 
 146 2.602603; 
 148 2.202202; 
 151 11.211211; 
 151 2.002002; 
 153 4.204204; 
 155 5.505506; 
 156 1.801802; 
 157 4.704705; 
 165 10.110110; 
 167 8.408408; 
 169 2.302302; 
 169 2.002002; 
 180 3.003003; 
 181 6.706707; 
 183 2.902903; 
 185 3.403403; 
 197 2.602603; 
 208 1.901902; 
 209 7.007007; 
 253 20.320320; 
 254 4.704705; 
 255 1.901902; 


Name: Catechin
SYNON: $:00in-source
DB#: MetaboBASE0014
InChIKey: PFTAWBLQPZVEMU-DZGCQCFKSA-N
Instrument_type: LC-ESI-TOF
Instrument: impact HD
Ion_mode: N
Collision_energy: 10
InChIKey: PFTAWBLQPZVEMU-DZGCQCFKSA-N
Formula: C15H14O6
MW: 290
ExactMass: 290.079038168
Comments: "license=License CC-BY-NC-SA 4.0 International" "author=Plant Biology, The Noble Foundation, Ardmore, OK, US/Dennis Fine, Daniel Wherritt, and Lloyd Sumner" "instrument type=LC-ESI-TOF" "instrument=impact HD" "ionization=ESI" "ionization mode=negative" "collision gas=Nitrogen" "collision energy=10" "peak width=0.014" "date=2013-11-19 09:46:44+01:00" "column=Waters Acquity BEH C18 1.7um x 2.1 x 150 mm" "retention time=123" "raw data file=C:\Data\Confirmed Standards\Confirmed stds MSMS 14Nov13\Catechin (vial 166).d" "cas number=154-23-4" "SMILES=c1cc(c(cc1[C@@H]2[C@H](Cc3c(cc(cc3O2)O)O)O)O)O" "InChI=InChI=1S/C15H14O6/c16-8-4-11(18)9-6-13(20)15(21-14(9)5-8)7-1-2-10(17)12(19)3-7/h1-5,13,15-20H,6H2/t13-,15+/m0/s1" "InChIKey=PFTAWBLQPZVEMU-DZGCQCFKSA-N" "molecular formula=C15H14O6" "total exact mass=290.079038168" "SMILES=C1C(C(OC2=CC(=CC(=C21)O)O)C3=CC(=C(C=C3)O)O)O" "InChI=InChI=1S/C15H14O6/c16-8-4-11(18)9-6-13(20)15(21-14(9)5-8)7-1-2-10(17)12(19)3-7/h1-5,13,15-20H,6H2" "InChIKey=PFTAWBLQPZVEMU-UHFFFAOYSA-N"
Num Peaks: 12
 245 6.506507; 
 259 1.001001; 
 287 9.309309; 
 288 1.301301; 
 289 100.000000; 
 290 12.412412; 
 291 1.301301; 
 577 5.805806; 
 578 1.601602; 
 579 10.010010; 
 580 2.802803; 
 867 1.401401; 


Name: Catechin
SYNON: $:00in-source
DB#: MetaboBASE0015
InChIKey: PFTAWBLQPZVEMU-DZGCQCFKSA-N
Precursor_type: [M-H]-
Spectrum_type: MS2
PrecursorMZ: 289.0769
Instrument_type: LC-ESI-TOF
Instrument: impact HD
Ion_mode: N
Collision_energy: 20
InChIKey: PFTAWBLQPZVEMU-DZGCQCFKSA-N
Formula: C15H14O6
MW: 290
ExactMass: 290.079038168
Comments: "license=License CC-BY-NC-SA 4.0 International" "author=Plant Biology, The Noble Foundation, Ardmore, OK, US/Dennis Fine, Daniel Wherritt, and Lloyd Sumner" "instrument type=LC-ESI-TOF" "instrument=impact HD" "ionization=ESI" "ionization mode=negative" "ms level=MS2" "precursor m/z=289.0769" "collision gas=Nitrogen" "collision energy=20" "collision energy 2=20" "peak width=0.015" "date=2013-07-31 21:26:16+02:00" "column=Waters Acquity BEH C18 1.7um x 2.1 x 150 mm" "retention time=120.152" "raw data file=D:\Data\Confirmed Standards\Reanalyzed MRM multiple CID\Catechin (vial 2).d" "precursor type=[M-H]-" "mass accuracy=17.773236118149246" "mass error=0.005137832000002618" "cas number=154-23-4" "SMILES=c1cc(c(cc1[C@@H]2[C@H](Cc3c(cc(cc3O2)O)O)O)O)O" "InChI=InChI=1S/C15H14O6/c16-8-4-11(18)9-6-13(20)15(21-14(9)5-8)7-1-2-10(17)12(19)3-7/h1-5,13,15-20H,6H2/t13-,15+/m0/s1" "InChIKey=PFTAWBLQPZVEMU-DZGCQCFKSA-N" "molecular formula=C15H14O6" "total exact mass=290.079038168" "SMILES=C1C(C(OC2=CC(=CC(=C21)O)O)C3=CC(=C(C=C3)O)O)O" "InChI=InChI=1S/C15H14O6/c16-8-4-11(18)9-6-13(20)15(21-14(9)5-8)7-1-2-10(17)12(19)3-7/h1-5,13,15-20H,6H2" "InChIKey=PFTAWBLQPZVEMU-UHFFFAOYSA-N"
Num Peaks: 35
 95 12.512513; 
 97 30.630631; 
 108 9.309309; 
 109 67.067067; 
 110 12.112112; 
 121 12.112112; 
 123 22.822823; 
 125 68.368368; 
 135 8.808809; 
 137 55.555556; 
 139 9.909910; 
 149 48.248248; 
 150 17.017017; 
 151 31.631632; 
 159 10.310310; 
 160 12.912913; 
 163 12.712713; 
 167 11.611612; 
 175 17.417417; 
 179 16.116116; 
 188 10.810811; 
 189 13.313313; 
 199 10.110110; 
 203 22.022022; 
 205 29.929930; 
 215 9.509510; 
 221 29.529530; 
 227 28.428428; 
 229 9.309309; 
 245 100.000000; 
 246 15.515516; 
 247 12.512513; 
 271 8.608609; 
 289 84.284284; 
 290 8.808809; 


Name: Catechin
SYNON: $:00in-source
DB#: MetaboBASE0016
InChIKey: PFTAWBLQPZVEMU-DZGCQCFKSA-N
Instrument_type: LC-ESI-TOF
Instrument: impact HD
Ion_mode: N
InChIKey: PFTAWBLQPZVEMU-DZGCQCFKSA-N
Formula: C15H14O6
MW: 290
ExactMass: 290.07903816799995
Comments: "license=License CC-BY-NC-SA 4.0 International" "author=Plant Biology, The Noble Foundation, Ardmore, OK, US/Dennis Fine, Daniel Wherritt, and Lloyd Sumner" "instrument type=LC-ESI-TOF" "instrument=impact HD" "ionization=ESI" "ionization mode=negative" "collision gas=Nitrogen" "peak width=0.0094" "date=2013-06-22 03:01:08+02:00" "column=Waters Acquity BEH C18 1.7um x 2.1 x 150 mm" "retention time=122.4" "raw data file=D:\Data\Confirmed Standards\Catechin (vial 2).d" "cas number=154-23-4" "SMILES=c1cc(c(cc1[C@@H]2[C@H](Cc3c(cc(cc3O2)O)O)O)O)O" "InChI=InChI=1S/C15H14O6/c16-8-4-11(18)9-6-13(20)15(21-14(9)5-8)7-1-2-10(17)12(19)3-7/h1-5,13,15-20H,6H2/t13-,15+/m0/s1" "InChIKey=PFTAWBLQPZVEMU-DZGCQCFKSA-N" "molecular formula=C15H14O6" "total exact mass=290.07903816799995" "SMILES=C1C(C(OC2=CC(=CC(=C21)O)O)C3=CC(=C(C=C3)O)O)O" "InChI=InChI=1S/C15H14O6/c16-8-4-11(18)9-6-13(20)15(21-14(9)5-8)7-1-2-10(17)12(19)3-7/h1-5,13,15-20H,6H2" "InChIKey=PFTAWBLQPZVEMU-UHFFFAOYSA-N"
Num Peaks: 102
 109 0.400400; 
 121 0.300300; 
 123 0.200200; 
 125 2.002002; 
 135 0.200200; 
 137 1.801802; 
 149 0.600601; 
 150 0.200200; 
 151 1.301301; 
 159 0.400400; 
 161 1.001001; 
 161 0.200200; 
 164 0.400400; 
 165 1.401401; 
 166 0.200200; 
 167 0.200200; 
 173 0.400400; 
 175 0.700701; 
 176 0.200200; 
 177 0.500501; 
 177 0.500501; 
 179 0.800801; 
 183 0.200200; 
 187 0.300300; 
 188 0.200200; 
 189 0.200200; 
 199 0.200200; 
 201 1.601602; 
 202 0.300300; 
 203 0.400400; 
 203 1.001001; 
 205 0.900901; 
 215 0.600601; 
 217 0.800801; 
 217 0.200200; 
 218 0.200200; 
 219 1.701702; 
 220 0.200200; 
 221 1.301301; 
 222 0.200200; 
 225 0.500501; 
 227 0.200200; 
 227 0.400400; 
 241 0.700701; 
 243 0.500501; 
 243 2.702703; 
 244 0.200200; 
 244 0.500501; 
 245 0.800801; 
 245 15.015015; 
 246 2.002002; 
 247 0.800801; 
 247 0.300300; 
 258 0.800801; 
 259 7.607608; 
 260 1.101101; 
 261 0.300300; 
 269 2.402402; 
 270 0.500501; 
 271 0.700701; 
 285 1.601602; 
 286 0.300300; 
 287 27.927928; 
 288 4.804805; 
 289 100.000000; 
 290 19.019019; 
 291 2.602603; 
 292 0.300300; 
 295 0.300300; 
 303 0.700701; 
 305 0.300300; 
 309 0.300300; 
 311 3.103103; 
 312 0.500501; 
 323 0.700701; 
 325 1.001001; 
 326 0.200200; 
 327 0.300300; 
 341 0.200200; 
 342 0.200200; 
 344 0.200200; 
 347 0.200200; 
 355 0.200200; 
 357 0.900901; 
 358 0.200200; 
 371 0.600601; 
 373 1.501502; 
 374 0.300300; 
 379 0.400400; 
 386 0.200200; 
 387 0.200200; 
 388 0.400400; 
 390 0.200200; 
 395 0.200200; 
 401 0.500501; 
 417 0.200200; 
 423 0.200200; 
 425 0.300300; 
 431 0.200200; 
 432 0.300300; 
 433 0.600601; 
 437 0.200200; 


Name: Catechin
SYNON: $:00in-source
DB#: MetaboBASE0017
InChIKey: PFTAWBLQPZVEMU-DZGCQCFKSA-N
Precursor_type: [M-H]-
Spectrum_type: MS2
PrecursorMZ: 289.0712
Instrument_type: LC-ESI-TOF
Instrument: impact HD
Ion_mode: N
Collision_energy: 26.25
InChIKey: PFTAWBLQPZVEMU-DZGCQCFKSA-N
Formula: C15H14O6
MW: 290
ExactMass: 290.07903816799995
Comments: "license=License CC-BY-NC-SA 4.0 International" "author=Plant Biology, The Noble Foundation, Ardmore, OK, US/Dennis Fine, Daniel Wherritt, and Lloyd Sumner" "instrument type=LC-ESI-TOF" "instrument=impact HD" "ionization=ESI" "ionization mode=negative" "ms level=MS2" "precursor m/z=289.0712" "collision gas=Nitrogen" "collision energy=26.25" "collision energy 2=43.75" "peak width=0.0044" "date=2013-07-01 18:40:59+02:00" "column=Waters Acquity BEH C18 1.7um x 2.1 x 150 mm" "retention time=122.43" "raw data file=D:\Data\Confirmed Standards\MSMS confirmed standards\Catechin (vial 2) MSMS_1117.d" "precursor type=[M-H]-" "mass accuracy=1.9447388739786273" "mass error=-5.621679999876505E-4" "cas number=154-23-4" "SMILES=c1cc(c(cc1[C@@H]2[C@H](Cc3c(cc(cc3O2)O)O)O)O)O" "InChI=InChI=1S/C15H14O6/c16-8-4-11(18)9-6-13(20)15(21-14(9)5-8)7-1-2-10(17)12(19)3-7/h1-5,13,15-20H,6H2/t13-,15+/m0/s1" "InChIKey=PFTAWBLQPZVEMU-DZGCQCFKSA-N" "molecular formula=C15H14O6" "total exact mass=290.07903816799995" "SMILES=C1C(C(OC2=CC(=CC(=C21)O)O)C3=CC(=C(C=C3)O)O)O" "InChI=InChI=1S/C15H14O6/c16-8-4-11(18)9-6-13(20)15(21-14(9)5-8)7-1-2-10(17)12(19)3-7/h1-5,13,15-20H,6H2" "InChIKey=PFTAWBLQPZVEMU-UHFFFAOYSA-N"
Num Peaks: 92
 108 8.008008; 
 109 100.000000; 
 110 7.407407; 
 111 3.303303; 
 119 3.303303; 
 121 27.427427; 
 122 24.724725; 
 123 2.702703; 
 123 73.973974; 
 124 2.302302; 
 124 6.906907; 
 125 69.669670; 
 126 2.102102; 
 129 1.801802; 
 130 2.602603; 
 133 5.605606; 
 134 2.002002; 
 135 11.311311; 
 136 2.202202; 
 137 57.757758; 
 138 4.704705; 
 139 4.804805; 
 140 2.102102; 
 143 3.103103; 
 144 2.402402; 
 145 5.405405; 
 145 3.703704; 
 146 4.304304; 
 147 4.504505; 
 149 36.636637; 
 149 3.103103; 
 150 14.714715; 
 151 44.044044; 
 152 3.103103; 
 158 2.202202; 
 159 18.118118; 
 160 2.302302; 
 160 2.302302; 
 161 20.720721; 
 161 16.816817; 
 162 9.709710; 
 163 4.804805; 
 163 2.102102; 
 164 13.113113; 
 165 16.116116; 
 166 4.104104; 
 167 2.802803; 
 171 4.104104; 
 172 2.802803; 
 173 9.709710; 
 174 5.105105; 
 175 23.723724; 
 176 7.407407; 
 177 4.204204; 
 177 6.006006; 
 179 2.702703; 
 183 3.303303; 
 183 2.202202; 
 184 3.203203; 
 185 7.707708; 
 187 14.214214; 
 188 11.211211; 
 189 1.801802; 
 199 3.103103; 
 199 2.302302; 
 201 8.608609; 
 202 7.607608; 
 203 3.103103; 
 203 32.032032; 
 205 12.912913; 
 206 2.802803; 
 213 2.202202; 
 215 3.303303; 
 216 1.901902; 
 217 3.203203; 
 219 4.204204; 
 221 31.131131; 
 222 3.903904; 
 225 2.402402; 
 227 2.102102; 
 227 7.007007; 
 230 4.104104; 
 231 4.004004; 
 241 3.803804; 
 245 4.604605; 
 245 16.916917; 
 247 4.904905; 
 258 2.002002; 
 269 4.304304; 
 271 3.703704; 
 289 5.305305; 
 290 2.302302; 


Name: 6-Hydroxyflavone
SYNON: $:00in-source
DB#: MetaboBASE0018
InChIKey: GPZYYYGYCRFPBU-UHFFFAOYSA-N
Precursor_type: [M-H]-
Spectrum_type: MS2
PrecursorMZ: 237.0603
Instrument_type: LC-ESI-TOF
Instrument: impact HD
Ion_mode: N
Collision_energy: 30
InChIKey: GPZYYYGYCRFPBU-UHFFFAOYSA-N
Formula: C15H10O3
MW: 238
ExactMass: 238.06299417999998
Comments: "license=License CC-BY-NC-SA 4.0 International" "author=Plant Biology, The Noble Foundation, Ardmore, OK, US/Dennis Fine, Daniel Wherritt, and Lloyd Sumner" "instrument type=LC-ESI-TOF" "instrument=impact HD" "ionization=ESI" "ionization mode=negative" "ms level=MS2" "precursor m/z=237.0603" "collision gas=Nitrogen" "collision energy=30" "collision energy 2=30" "peak width=0.025" "date=2013-08-01 16:09:45+02:00" "column=Waters Acquity BEH C18 1.7um x 2.1 x 150 mm" "retention time=749.932" "raw data file=D:\Data\Confirmed Standards\Reanalyzed MRM multiple CID\6-Hydroxyflavone (vial 3)_1327.d" "precursor type=[M-H]-" "mass accuracy=19.327656296844882" "mass error=0.004581820000026937" "cas number=6665-83-4" "SMILES=c1ccc(cc1)c2cc(=O)c3cc(ccc3o2)O" "InChI=InChI=1S/C15H10O3/c16-11-6-7-14-12(8-11)13(17)9-15(18-14)10-4-2-1-3-5-10/h1-9,16H" "InChIKey=GPZYYYGYCRFPBU-UHFFFAOYSA-N" "molecular formula=C15H10O3" "total exact mass=238.06299417999998" "SMILES=C1=CC=C(C=C1)C2=CC(=O)C3=C(O2)C=CC(=C3)O"
Num Peaks: 31
 95 1.401401; 
 101 28.028028; 
 102 2.902903; 
 107 7.107107; 
 108 1.301301; 
 125 2.902903; 
 127 4.604605; 
 135 4.904905; 
 152 2.502503; 
 153 7.207207; 
 154 1.201201; 
 160 3.203203; 
 165 16.416416; 
 166 2.702703; 
 167 1.901902; 
 171 1.701702; 
 180 14.614615; 
 181 12.112112; 
 182 2.402402; 
 193 100.000000; 
 194 9.309309; 
 195 2.002002; 
 197 1.801802; 
 207 1.301301; 
 208 32.132132; 
 209 17.117117; 
 210 2.102102; 
 235 6.606607; 
 236 8.208208; 
 237 11.911912; 
 238 1.801802; 


Name: 6-Hydroxyflavone
SYNON: $:00in-source
DB#: MetaboBASE0019
InChIKey: GPZYYYGYCRFPBU-UHFFFAOYSA-N
Precursor_type: [M-H]-
Spectrum_type: MS2
PrecursorMZ: 237.056
Instrument_type: LC-ESI-TOF
Instrument: impact HD
Ion_mode: N
Collision_energy: 26.25
InChIKey: GPZYYYGYCRFPBU-UHFFFAOYSA-N
Formula: C15H10O3
MW: 238
ExactMass: 238.06299417999998
Comments: "license=License CC-BY-NC-SA 4.0 International" "author=Plant Biology, The Noble Foundation, Ardmore, OK, US/Dennis Fine, Daniel Wherritt, and Lloyd Sumner" "instrument type=LC-ESI-TOF" "instrument=impact HD" "ionization=ESI" "ionization mode=negative" "ms level=MS2" "precursor m/z=237.056" "collision gas=Nitrogen" "collision energy=26.25" "collision energy 2=43.75" "peak width=0.01" "date=2013-07-01 19:21:39+02:00" "column=Waters Acquity BEH C18 1.7um x 2.1 x 150 mm" "retention time=746.028" "raw data file=D:\Data\Confirmed Standards\MSMS confirmed standards\6-Hydroxyflavone (vial 3) MSMS.d" "precursor type=[M-H]-" "mass accuracy=1.1888330184694775" "mass error=2.818200000263005E-4" "cas number=6665-83-4" "SMILES=c1ccc(cc1)c2cc(=O)c3cc(ccc3o2)O" "InChI=InChI=1S/C15H10O3/c16-11-6-7-14-12(8-11)13(17)9-15(18-14)10-4-2-1-3-5-10/h1-9,16H" "InChIKey=GPZYYYGYCRFPBU-UHFFFAOYSA-N" "molecular formula=C15H10O3" "total exact mass=238.06299417999998" "SMILES=C1=CC=C(C=C1)C2=CC(=O)C3=C(O2)C=CC(=C3)O"
Num Peaks: 55
 101 1.301301; 
 107 0.600601; 
 108 0.600601; 
 115 0.300300; 
 117 0.400400; 
 123 0.400400; 
 127 3.503504; 
 128 0.600601; 
 132 0.300300; 
 135 1.201201; 
 136 0.200200; 
 139 0.400400; 
 151 0.500501; 
 152 2.302302; 
 153 6.606607; 
 154 0.400400; 
 155 0.700701; 
 155 0.200200; 
 160 1.601602; 
 164 0.300300; 
 165 11.011011; 
 166 2.402402; 
 167 1.501502; 
 169 0.600601; 
 171 1.101101; 
 179 0.700701; 
 180 13.413413; 
 180 0.300300; 
 181 18.118118; 
 182 1.601602; 
 183 0.800801; 
 183 0.400400; 
 193 100.000000; 
 194 12.912913; 
 194 0.200200; 
 195 2.502503; 
 195 0.800801; 
 197 1.301301; 
 199 3.203203; 
 200 0.800801; 
 207 1.401401; 
 208 34.134134; 
 209 0.300300; 
 209 25.325325; 
 209 0.300300; 
 210 4.504505; 
 211 0.300300; 
 211 0.700701; 
 225 0.300300; 
 226 0.400400; 
 235 13.513514; 
 236 9.109109; 
 237 43.643644; 
 238 5.505506; 
 239 1.001001; 


Name: 6-Hydroxyflavone
SYNON: $:00in-source
DB#: MetaboBASE0020
InChIKey: GPZYYYGYCRFPBU-UHFFFAOYSA-N
Instrument_type: LC-ESI-TOF
Instrument: impact HD
Ion_mode: N
InChIKey: GPZYYYGYCRFPBU-UHFFFAOYSA-N
Formula: C15H10O3
MW: 238
ExactMass: 238.06299417999998
Comments: "license=License CC-BY-NC-SA 4.0 International" "author=Plant Biology, The Noble Foundation, Ardmore, OK, US/Dennis Fine, Daniel Wherritt, and Lloyd Sumner" "instrument type=LC-ESI-TOF" "instrument=impact HD" "ionization=ESI" "ionization mode=negative" "collision gas=Nitrogen" "peak width=0.0078" "date=2013-06-22 03:42:05+02:00" "column=Waters Acquity BEH C18 1.7um x 2.1 x 150 mm" "retention time=746.4" "raw data file=D:\Data\Confirmed Standards\6-Hydroxyflavone (vial 3).d" "cas number=6665-83-4" "SMILES=c1ccc(cc1)c2cc(=O)c3cc(ccc3o2)O" "InChI=InChI=1S/C15H10O3/c16-11-6-7-14-12(8-11)13(17)9-15(18-14)10-4-2-1-3-5-10/h1-9,16H" "InChIKey=GPZYYYGYCRFPBU-UHFFFAOYSA-N" "molecular formula=C15H10O3" "total exact mass=238.06299417999998" "SMILES=C1=CC=C(C=C1)C2=CC(=O)C3=C(O2)C=CC(=C3)O"
Num Peaks: 12
 181 0.400400; 
 193 2.302302; 
 194 0.400400; 
 208 0.600601; 
 209 1.301301; 
 210 0.200200; 
 235 0.900901; 
 236 0.600601; 
 237 100.000000; 
 237 0.200200; 
 238 14.114114; 
 239 1.601602; 


Name: 7-Hydroxyflavone
SYNON: $:00in-source
DB#: MetaboBASE0021
InChIKey: MQGPSCMMNJKMHQ-UHFFFAOYSA-N
Precursor_type: [M-H]-
Spectrum_type: MS2
PrecursorMZ: 237.0601
Instrument_type: LC-ESI-TOF
Instrument: impact HD
Ion_mode: N
Collision_energy: 40
InChIKey: MQGPSCMMNJKMHQ-UHFFFAOYSA-N
Formula: C15H10O3
MW: 238
ExactMass: 238.06299417999998
Comments: "license=License CC-BY-NC-SA 4.0 International" "author=Plant Biology, The Noble Foundation, Ardmore, OK, US/Dennis Fine, Daniel Wherritt, and Lloyd Sumner" "instrument type=LC-ESI-TOF" "instrument=impact HD" "ionization=ESI" "ionization mode=negative" "ms level=MS2" "precursor m/z=237.0601" "collision gas=Nitrogen" "collision energy=40" "collision energy 2=40" "peak width=0.026" "date=2013-08-01 16:50:37+02:00" "column=Waters Acquity BEH C18 1.7um x 2.1 x 150 mm" "retention time=674.776" "raw data file=D:\Data\Confirmed Standards\Reanalyzed MRM multiple CID\7-Hydroxyflavone (vial 4)_1328.d" "precursor type=[M-H]-" "mass accuracy=18.484004689191888" "mass error=0.004381820000020298" "cas number=6665-86-7" "SMILES=InChI=1S/C15H10O3/c16-11-6-7-12-13(17)9-14(18-15(12)8-11)10-4-2-1-3-5-10/h1-9,16H" "InChI=InChI=1S/C15H10O3/c16-11-6-7-12-13(17)9-14(18-15(12)8-11)10-4-2-1-3-5-10/h1-9,16H" "InChIKey=MQGPSCMMNJKMHQ-UHFFFAOYSA-N" "molecular formula=C15H10O3" "total exact mass=238.06299417999998" "SMILES=C1=CC=C(C=C1)C2=CC(=O)C3=C(O2)C=C(C=C3)O"
Num Peaks: 31
 101 29.929930; 
 103 12.212212; 
 104 21.221221; 
 115 8.908909; 
 115 15.015015; 
 117 25.325325; 
 132 23.223223; 
 135 54.654655; 
 139 17.417417; 
 143 37.637638; 
 144 6.706707; 
 145 6.506507; 
 152 11.611612; 
 153 8.608609; 
 153 13.113113; 
 160 7.007007; 
 165 42.242242; 
 166 7.407407; 
 167 60.760761; 
 168 7.407407; 
 169 6.806807; 
 180 65.765766; 
 181 22.122122; 
 193 53.353353; 
 194 8.508509; 
 195 6.306306; 
 208 99.899900; 
 209 22.422422; 
 236 8.908909; 
 237 100.000000; 
 238 12.712713; 


Name: 7-Hydroxyflavone
SYNON: $:00in-source
DB#: MetaboBASE0022
InChIKey: MQGPSCMMNJKMHQ-UHFFFAOYSA-N
Instrument_type: LC-ESI-TOF
Instrument: impact HD
Ion_mode: N
InChIKey: MQGPSCMMNJKMHQ-UHFFFAOYSA-N
Formula: C15H10O3
MW: 238
ExactMass: 238.06299417999998
Comments: "license=License CC-BY-NC-SA 4.0 International" "author=Plant Biology, The Noble Foundation, Ardmore, OK, US/Dennis Fine, Daniel Wherritt, and Lloyd Sumner" "instrument type=LC-ESI-TOF" "instrument=impact HD" "ionization=ESI" "ionization mode=negative" "collision gas=Nitrogen" "peak width=0.01" "date=2013-06-22 04:23:03+02:00" "column=Waters Acquity BEH C18 1.7um x 2.1 x 150 mm" "retention time=673.8" "raw data file=D:\Data\Confirmed Standards\7-Hydroxyflavone (vial 4).d" "cas number=6665-86-7" "SMILES=InChI=1S/C15H10O3/c16-11-6-7-12-13(17)9-14(18-15(12)8-11)10-4-2-1-3-5-10/h1-9,16H" "InChI=InChI=1S/C15H10O3/c16-11-6-7-12-13(17)9-14(18-15(12)8-11)10-4-2-1-3-5-10/h1-9,16H" "InChIKey=MQGPSCMMNJKMHQ-UHFFFAOYSA-N" "molecular formula=C15H10O3" "total exact mass=238.06299417999998" "SMILES=C1=CC=C(C=C1)C2=CC(=O)C3=C(O2)C=C(C=C3)O"
Num Peaks: 10
 237 100.000000; 
 237 0.400400; 
 238 18.918919; 
 239 2.102102; 
 240 0.200200; 
 497 1.201201; 
 498 0.400400; 
 751 0.300300; 
 757 0.600601; 
 758 0.300300; 


Name: 3-Hydroxyflavone
SYNON: $:00in-source
DB#: MetaboBASE0023
InChIKey: HVQAJTFOCKOKIN-UHFFFAOYSA-N
Instrument_type: LC-ESI-TOF
Instrument: impact HD
Ion_mode: N
InChIKey: HVQAJTFOCKOKIN-UHFFFAOYSA-N
Formula: C15H10O3
MW: 238
ExactMass: 238.06299417999998
Comments: "license=License CC-BY-NC-SA 4.0 International" "author=Plant Biology, The Noble Foundation, Ardmore, OK, US/Dennis Fine, Daniel Wherritt, and Lloyd Sumner" "instrument type=LC-ESI-TOF" "instrument=impact HD" "ionization=ESI" "ionization mode=negative" "collision gas=Nitrogen" "peak width=0.021" "date=2013-08-03 00:43:09+02:00" "column=Waters Acquity BEH C18 1.7um x 2.1 x 150 mm" "retention time=992.4" "raw data file=D:\Data\Confirmed Standards\3-Hydroxyflavone (vial 5)_1341.d" "cas number=577-85-5" "SMILES=c1ccc(cc1)c2c(c(=O)c3ccccc3o2)O" "InChI=InChI=1S/C15H10O3/c16-13-11-8-4-5-9-12(11)18-15(14(13)17)10-6-2-1-3-7-10/h1-9,17H" "InChIKey=HVQAJTFOCKOKIN-UHFFFAOYSA-N" "molecular formula=C15H10O3" "total exact mass=238.06299417999998" "SMILES=C1=CC=C(C=C1)C2=C(C(=O)C3=CC=CC=C3O2)O"
Num Peaks: 11
 180 1.701702; 
 181 3.403403; 
 197 3.803804; 
 209 2.402402; 
 237 100.000000; 
 238 11.011011; 
 239 1.801802; 
 295 1.101101; 
 305 3.003003; 
 338 2.502503; 
 367 3.003003; 


Name: 3-Hydroxyflavone
SYNON: $:00in-source
DB#: MetaboBASE0024
InChIKey: HVQAJTFOCKOKIN-UHFFFAOYSA-N
Precursor_type: [M-H]-
Spectrum_type: MS2
PrecursorMZ: 237.053
Instrument_type: LC-ESI-TOF
Instrument: impact HD
Ion_mode: N
Collision_energy: 10
InChIKey: HVQAJTFOCKOKIN-UHFFFAOYSA-N
Formula: C15H10O3
MW: 238
ExactMass: 238.06299417999998
Comments: "license=License CC-BY-NC-SA 4.0 International" "author=Plant Biology, The Noble Foundation, Ardmore, OK, US/Dennis Fine, Daniel Wherritt, and Lloyd Sumner" "instrument type=LC-ESI-TOF" "instrument=impact HD" "ionization=ESI" "ionization mode=negative" "ms level=MS2" "precursor m/z=237.053" "isolation width=5" "collision gas=Nitrogen" "collision energy=10" "peak width=0.017" "date=2014-07-25 23:08:34+02:00" "column=Waters Acquity BEH C18 1.7um x 2.1 x 150 mm" "retention time=992.4" "raw data file=C:\Data\Confirmed standards 24_July_2014\MSMS\3-Hydroflavone vial 5_1-A,1_01_481.d" "precursor type=[M-H]-" "mass accuracy=11.466549674494836" "mass error=-0.002718179999988024" "cas number=577-85-5" "SMILES=c1ccc(cc1)c2c(c(=O)c3ccccc3o2)O" "InChI=InChI=1S/C15H10O3/c16-13-11-8-4-5-9-12(11)18-15(14(13)17)10-6-2-1-3-7-10/h1-9,17H" "InChIKey=HVQAJTFOCKOKIN-UHFFFAOYSA-N" "molecular formula=C15H10O3" "total exact mass=238.06299417999998" "SMILES=C1=CC=C(C=C1)C2=C(C(=O)C3=CC=CC=C3O2)O"
Num Peaks: 5
 181 1.901902; 
 209 1.601602; 
 237 100.000000; 
 238 11.611612; 
 239 0.900901; 


Name: 3-Hydroxyflavone
SYNON: $:00in-source
DB#: MetaboBASE0025
InChIKey: HVQAJTFOCKOKIN-UHFFFAOYSA-N
Precursor_type: [M-H]-
Spectrum_type: MS2
PrecursorMZ: 237.0526
Instrument_type: LC-ESI-TOF
Instrument: impact HD
Ion_mode: N
Collision_energy: 20
InChIKey: HVQAJTFOCKOKIN-UHFFFAOYSA-N
Formula: C15H10O3
MW: 238
ExactMass: 238.06299417999998
Comments: "license=License CC-BY-NC-SA 4.0 International" "author=Plant Biology, The Noble Foundation, Ardmore, OK, US/Dennis Fine, Daniel Wherritt, and Lloyd Sumner" "instrument type=LC-ESI-TOF" "instrument=impact HD" "ionization=ESI" "ionization mode=negative" "ms level=MS2" "precursor m/z=237.0526" "isolation width=5" "collision gas=Nitrogen" "collision energy=20" "peak width=0.019" "date=2014-07-25 23:08:34+02:00" "column=Waters Acquity BEH C18 1.7um x 2.1 x 150 mm" "retention time=992.4" "raw data file=C:\Data\Confirmed standards 24_July_2014\MSMS\3-Hydroflavone vial 5_1-A,1_01_481.d" "precursor type=[M-H]-" "mass accuracy=13.153958235315203" "mass error=-0.003118179999972881" "cas number=577-85-5" "SMILES=c1ccc(cc1)c2c(c(=O)c3ccccc3o2)O" "InChI=InChI=1S/C15H10O3/c16-13-11-8-4-5-9-12(11)18-15(14(13)17)10-6-2-1-3-7-10/h1-9,17H" "InChIKey=HVQAJTFOCKOKIN-UHFFFAOYSA-N" "molecular formula=C15H10O3" "total exact mass=238.06299417999998" "SMILES=C1=CC=C(C=C1)C2=C(C(=O)C3=CC=CC=C3O2)O"
Num Peaks: 8
 153 6.006006; 
 180 29.429429; 
 181 49.649650; 
 208 9.109109; 
 209 31.231231; 
 210 5.505506; 
 237 100.000000; 
 238 12.612613; 


Name: 3-Hydroxyflavone
SYNON: $:00in-source
DB#: MetaboBASE0026
InChIKey: HVQAJTFOCKOKIN-UHFFFAOYSA-N
Precursor_type: [M-H]-
Spectrum_type: MS2
PrecursorMZ: 237.06
Instrument_type: LC-ESI-TOF
Instrument: impact HD
Ion_mode: N
Collision_energy: 30
InChIKey: HVQAJTFOCKOKIN-UHFFFAOYSA-N
Formula: C15H10O3
MW: 238
ExactMass: 238.06299417999998
Comments: "license=License CC-BY-NC-SA 4.0 International" "author=Plant Biology, The Noble Foundation, Ardmore, OK, US/Dennis Fine, Daniel Wherritt, and Lloyd Sumner" "instrument type=LC-ESI-TOF" "instrument=impact HD" "ionization=ESI" "ionization mode=negative" "ms level=MS2" "precursor m/z=237.06" "isolation width=5" "collision gas=Nitrogen" "collision energy=30" "peak width=0.019" "date=2014-07-25 23:08:34+02:00" "column=Waters Acquity BEH C18 1.7um x 2.1 x 150 mm" "retention time=992.4" "raw data file=C:\Data\Confirmed standards 24_July_2014\MSMS\3-Hydroflavone vial 5_1-A,1_01_481.d" "precursor type=[M-H]-" "mass accuracy=18.06217835154382" "mass error=0.004281820000016978" "cas number=577-85-5" "SMILES=c1ccc(cc1)c2c(c(=O)c3ccccc3o2)O" "InChI=InChI=1S/C15H10O3/c16-13-11-8-4-5-9-12(11)18-15(14(13)17)10-6-2-1-3-7-10/h1-9,17H" "InChIKey=HVQAJTFOCKOKIN-UHFFFAOYSA-N" "molecular formula=C15H10O3" "total exact mass=238.06299417999998" "SMILES=C1=CC=C(C=C1)C2=C(C(=O)C3=CC=CC=C3O2)O"
Num Peaks: 6
 117 21.121121; 
 153 20.220220; 
 165 16.716717; 
 180 100.000000; 
 181 41.441441; 
 209 32.332332; 


Name: Naringenin
SYNON: $:00in-source
DB#: MetaboBASE0027
InChIKey: FTVWIRXFELQLPI--ZDUSSCGKS
Instrument_type: LC-ESI-TOF
Instrument: impact HD
Ion_mode: N
InChIKey: FTVWIRXFELQLPI--ZDUSSCGKS
Formula: C15H12O5
MW: 272
ExactMass: 272.068473484
Comments: "synonym=4',5,7-Trihydroxyflavanone" "license=License CC-BY-NC-SA 4.0 International" "author=Plant Biology, The Noble Foundation, Ardmore, OK, US/Dennis Fine, Daniel Wherritt, and Lloyd Sumner" "instrument type=LC-ESI-TOF" "instrument=impact HD" "ionization=ESI" "ionization mode=negative" "collision gas=Nitrogen" "peak width=0.012" "date=2013-06-22 05:44:59+02:00" "column=Waters Acquity BEH C18 1.7um x 2.1 x 150 mm" "retention time=555" "raw data file=D:\Data\Confirmed Standards\Quercetin (vial 6).d" "cas number=480-41-1" "SMILES=c1cc(ccc1[C@@H]2CC(=O)c3c(cc(cc3O2)O)O)O" "InChI=InChI=1S/C15H12O5/c16-9-3-1-8(2-4-9)13-7-12(19)15-11(18)5-10(17)6-14(15)20-13/h1-6,13,16-18H,7H2/t13-/m0/s1" "InChIKey=FTVWIRXFELQLPI--ZDUSSCGKS" "molecular formula=C15H12O5" "total exact mass=272.068473484" "SMILES=C1C(OC2=CC(=CC(=C2C1=O)O)O)C3=CC=C(C=C3)O" "InChIKey=FTVWIRXFELQLPI-ZDUSSCGKSA-N"
Num Peaks: 4
 245 27.127127; 
 271 100.000000; 
 272 27.827828; 
 273 6.206206; 


Name: Naringenin
SYNON: $:00in-source
DB#: MetaboBASE0028
InChIKey: FTVWIRXFELQLPI--ZDUSSCGKS
Precursor_type: [M-H]-
Spectrum_type: MS2
PrecursorMZ: 271.065
Instrument_type: LC-ESI-TOF
Instrument: impact HD
Ion_mode: N
Collision_energy: 25
InChIKey: FTVWIRXFELQLPI--ZDUSSCGKS
Formula: C15H12O5
MW: 272
ExactMass: 272.068473484
Comments: "synonym=4',5,7-Trihydroxyflavanone" "license=License CC-BY-NC-SA 4.0 International" "author=Plant Biology, The Noble Foundation, Ardmore, OK, US/Dennis Fine, Daniel Wherritt, and Lloyd Sumner" "instrument type=LC-ESI-TOF" "instrument=impact HD" "ionization=ESI" "ionization mode=negative" "ms level=MS2" "precursor m/z=271.065" "collision gas=Nitrogen" "collision energy=25" "peak width=0.024" "date=2013-07-27 04:02:05+02:00" "column=Waters Acquity BEH C18 1.7um x 2.1 x 150 mm" "retention time=554.4" "raw data file=D:\Data\Confirmed Standards\Reanalyzed 7_26_13\Quercetin (vial 6).d" "precursor type=[M-H]-" "mass accuracy=14.02805969050771" "mass error=0.003802516000007472" "cas number=480-41-1" "SMILES=c1cc(ccc1[C@@H]2CC(=O)c3c(cc(cc3O2)O)O)O" "InChI=InChI=1S/C15H12O5/c16-9-3-1-8(2-4-9)13-7-12(19)15-11(18)5-10(17)6-14(15)20-13/h1-6,13,16-18H,7H2/t13-/m0/s1" "InChIKey=FTVWIRXFELQLPI--ZDUSSCGKS" "molecular formula=C15H12O5" "total exact mass=272.068473484" "SMILES=C1C(OC2=CC(=CC(=C2C1=O)O)O)C3=CC=C(C=C3)O" "InChIKey=FTVWIRXFELQLPI-ZDUSSCGKSA-N"
Num Peaks: 13
 107 25.725726; 
 119 100.000000; 
 120 5.005005; 
 145 2.302302; 
 151 74.674675; 
 152 4.104104; 
 161 2.602603; 
 165 4.904905; 
 169 2.102102; 
 177 3.603604; 
 187 2.602603; 
 227 2.102102; 
 271 7.207207; 


Name: Naringenin
SYNON: $:00in-source
DB#: MetaboBASE0029
InChIKey: FTVWIRXFELQLPI--ZDUSSCGKS
Instrument_type: LC-ESI-TOF
Instrument: impact HD
Ion_mode: N
InChIKey: FTVWIRXFELQLPI--ZDUSSCGKS
Formula: C15H12O5
MW: 272
ExactMass: 272.068473484
Comments: "synonym=4',5,7-Trihydroxyflavanone" "license=License CC-BY-NC-SA 4.0 International" "author=Plant Biology, The Noble Foundation, Ardmore, OK, US/Dennis Fine, Daniel Wherritt, and Lloyd Sumner" "instrument type=LC-ESI-TOF" "instrument=impact HD" "ionization=ESI" "ionization mode=negative" "collision gas=Nitrogen" "peak width=0.01" "date=2014-01-10 00:24:33+01:00" "column=Waters Acquity BEH C18 1.7um x 2.1 x 150 mm" "retention time=554.4" "raw data file=C:\Data\Confirmed Standards\14Jan9 Confirmed stds MSMS\ZLei_Std_Mix_30_Oct_13_2485.d" "cas number=480-41-1" "SMILES=c1cc(ccc1[C@@H]2CC(=O)c3c(cc(cc3O2)O)O)O" "InChI=InChI=1S/C15H12O5/c16-9-3-1-8(2-4-9)13-7-12(19)15-11(18)5-10(17)6-14(15)20-13/h1-6,13,16-18H,7H2/t13-/m0/s1" "InChIKey=FTVWIRXFELQLPI--ZDUSSCGKS" "molecular formula=C15H12O5" "total exact mass=272.068473484" "SMILES=C1C(OC2=CC(=CC(=C2C1=O)O)O)C3=CC=C(C=C3)O" "InChIKey=FTVWIRXFELQLPI-ZDUSSCGKSA-N"
Num Peaks: 4
 271 100.000000; 
 272 15.315315; 
 543 10.010010; 
 544 2.802803; 


Name: Naringenin
SYNON: $:00in-source
DB#: MetaboBASE0030
InChIKey: FTVWIRXFELQLPI--ZDUSSCGKS
Precursor_type: [M-H]-
Spectrum_type: MS2
PrecursorMZ: 271.1
Instrument_type: LC-ESI-TOF
Instrument: impact HD
Ion_mode: N
Collision_energy: 40
InChIKey: FTVWIRXFELQLPI--ZDUSSCGKS
Formula: C15H12O5
MW: 272
ExactMass: 272.068473484
Comments: "synonym=4',5,7-Trihydroxyflavanone" "license=License CC-BY-NC-SA 4.0 International" "author=Plant Biology, The Noble Foundation, Ardmore, OK, US/Dennis Fine, Daniel Wherritt, and Lloyd Sumner" "instrument type=LC-ESI-TOF" "instrument=impact HD" "ionization=ESI" "ionization mode=negative" "ms level=MS2" "precursor m/z=271.1" "isolation width=5" "collision gas=Nitrogen" "collision energy=40" "peak width=0.015" "date=2014-01-10 00:24:33+01:00" "column=Waters Acquity BEH C18 1.7um x 2.1 x 150 mm" "retention time=554.4" "raw data file=C:\Data\Confirmed Standards\14Jan9 Confirmed stds MSMS\ZLei_Std_Mix_30_Oct_13_2485.d" "precursor type=[M-H]-" "mass accuracy=143.12990040587414" "mass error=0.03880251600003248" "cas number=480-41-1" "SMILES=c1cc(ccc1[C@@H]2CC(=O)c3c(cc(cc3O2)O)O)O" "InChI=InChI=1S/C15H12O5/c16-9-3-1-8(2-4-9)13-7-12(19)15-11(18)5-10(17)6-14(15)20-13/h1-6,13,16-18H,7H2/t13-/m0/s1" "InChIKey=FTVWIRXFELQLPI--ZDUSSCGKS" "molecular formula=C15H12O5" "total exact mass=272.068473484" "SMILES=C1C(OC2=CC(=CC(=C2C1=O)O)O)C3=CC=C(C=C3)O" "InChIKey=FTVWIRXFELQLPI-ZDUSSCGKSA-N"
Num Peaks: 6
 107 3.903904; 
 117 5.305305; 
 119 100.000000; 
 120 5.105105; 
 151 6.606607; 
 187 2.102102; 


Name: Naringenin
SYNON: $:00in-source
DB#: MetaboBASE0031
InChIKey: FTVWIRXFELQLPI--ZDUSSCGKS
Precursor_type: [M-H]-
Spectrum_type: MS2
PrecursorMZ: 271.062
Instrument_type: LC-ESI-TOF
Instrument: impact HD
Ion_mode: N
Collision_energy: 10
InChIKey: FTVWIRXFELQLPI--ZDUSSCGKS
Formula: C15H12O5
MW: 272
ExactMass: 272.068473484
Comments: "synonym=4',5,7-Trihydroxyflavanone" "license=License CC-BY-NC-SA 4.0 International" "author=Plant Biology, The Noble Foundation, Ardmore, OK, US/Dennis Fine, Daniel Wherritt, and Lloyd Sumner" "instrument type=LC-ESI-TOF" "instrument=impact HD" "ionization=ESI" "ionization mode=negative" "ms level=MS2" "precursor m/z=271.062" "isolation width=5" "collision gas=Nitrogen" "collision energy=10" "peak width=0.0088" "date=2014-01-10 00:24:33+01:00" "column=Waters Acquity BEH C18 1.7um x 2.1 x 150 mm" "retention time=554.4" "raw data file=C:\Data\Confirmed Standards\14Jan9 Confirmed stds MSMS\ZLei_Std_Mix_30_Oct_13_2485.d" "precursor type=[M-H]-" "mass accuracy=2.960636312067236" "mass error=8.025160000215692E-4" "cas number=480-41-1" "SMILES=c1cc(ccc1[C@@H]2CC(=O)c3c(cc(cc3O2)O)O)O" "InChI=InChI=1S/C15H12O5/c16-9-3-1-8(2-4-9)13-7-12(19)15-11(18)5-10(17)6-14(15)20-13/h1-6,13,16-18H,7H2/t13-/m0/s1" "InChIKey=FTVWIRXFELQLPI--ZDUSSCGKS" "molecular formula=C15H12O5" "total exact mass=272.068473484" "SMILES=C1C(OC2=CC(=CC(=C2C1=O)O)O)C3=CC=C(C=C3)O" "InChIKey=FTVWIRXFELQLPI-ZDUSSCGKSA-N"
Num Peaks: 2
 271 100.000000; 
 272 9.909910; 


Name: Naringenin
SYNON: $:00in-source
DB#: MetaboBASE0032
InChIKey: FTVWIRXFELQLPI--ZDUSSCGKS
Precursor_type: [M-H]-
Spectrum_type: MS2
PrecursorMZ: 271.1
Instrument_type: LC-ESI-TOF
Instrument: impact HD
Ion_mode: N
Collision_energy: 30
InChIKey: FTVWIRXFELQLPI--ZDUSSCGKS
Formula: C15H12O5
MW: 272
ExactMass: 272.068473484
Comments: "synonym=4',5,7-Trihydroxyflavanone" "license=License CC-BY-NC-SA 4.0 International" "author=Plant Biology, The Noble Foundation, Ardmore, OK, US/Dennis Fine, Daniel Wherritt, and Lloyd Sumner" "instrument type=LC-ESI-TOF" "instrument=impact HD" "ionization=ESI" "ionization mode=negative" "ms level=MS2" "precursor m/z=271.1" "isolation width=5" "collision gas=Nitrogen" "collision energy=30" "peak width=0.015" "date=2014-01-10 00:24:33+01:00" "column=Waters Acquity BEH C18 1.7um x 2.1 x 150 mm" "retention time=554.4" "raw data file=C:\Data\Confirmed Standards\14Jan9 Confirmed stds MSMS\ZLei_Std_Mix_30_Oct_13_2485.d" "precursor type=[M-H]-" "mass accuracy=143.12990040587414" "mass error=0.03880251600003248" "cas number=480-41-1" "SMILES=c1cc(ccc1[C@@H]2CC(=O)c3c(cc(cc3O2)O)O)O" "InChI=InChI=1S/C15H12O5/c16-9-3-1-8(2-4-9)13-7-12(19)15-11(18)5-10(17)6-14(15)20-13/h1-6,13,16-18H,7H2/t13-/m0/s1" "InChIKey=FTVWIRXFELQLPI--ZDUSSCGKS" "molecular formula=C15H12O5" "total exact mass=272.068473484" "SMILES=C1C(OC2=CC(=CC(=C2C1=O)O)O)C3=CC=C(C=C3)O" "InChIKey=FTVWIRXFELQLPI-ZDUSSCGKSA-N"
Num Peaks: 6
 107 3.803804; 
 119 100.000000; 
 120 5.505506; 
 151 33.533534; 
 165 2.002002; 
 177 3.203203; 


Name: Naringenin
SYNON: $:00in-source
DB#: MetaboBASE0033
InChIKey: FTVWIRXFELQLPI--ZDUSSCGKS
Precursor_type: [M-H]-
Spectrum_type: MS2
PrecursorMZ: 271.0617
Instrument_type: LC-ESI-TOF
Instrument: impact HD
Ion_mode: N
Collision_energy: 20
InChIKey: FTVWIRXFELQLPI--ZDUSSCGKS
Formula: C15H12O5
MW: 272
ExactMass: 272.068473484
Comments: "synonym=4',5,7-Trihydroxyflavanone" "license=License CC-BY-NC-SA 4.0 International" "author=Plant Biology, The Noble Foundation, Ardmore, OK, US/Dennis Fine, Daniel Wherritt, and Lloyd Sumner" "instrument type=LC-ESI-TOF" "instrument=impact HD" "ionization=ESI" "ionization mode=negative" "ms level=MS2" "precursor m/z=271.0617" "isolation width=5" "collision gas=Nitrogen" "collision energy=20" "peak width=0.013" "date=2014-01-10 00:24:33+01:00" "column=Waters Acquity BEH C18 1.7um x 2.1 x 150 mm" "retention time=554.4" "raw data file=C:\Data\Confirmed Standards\14Jan9 Confirmed stds MSMS\ZLei_Std_Mix_30_Oct_13_2485.d" "precursor type=[M-H]-" "mass accuracy=1.853880500207844" "mass error=5.025159999831885E-4" "cas number=480-41-1" "SMILES=c1cc(ccc1[C@@H]2CC(=O)c3c(cc(cc3O2)O)O)O" "InChI=InChI=1S/C15H12O5/c16-9-3-1-8(2-4-9)13-7-12(19)15-11(18)5-10(17)6-14(15)20-13/h1-6,13,16-18H,7H2/t13-/m0/s1" "InChIKey=FTVWIRXFELQLPI--ZDUSSCGKS" "molecular formula=C15H12O5" "total exact mass=272.068473484" "SMILES=C1C(OC2=CC(=CC(=C2C1=O)O)O)C3=CC=C(C=C3)O" "InChIKey=FTVWIRXFELQLPI-ZDUSSCGKSA-N"
Num Peaks: 8
 119 45.545546; 
 120 3.103103; 
 151 100.000000; 
 152 4.704705; 
 165 2.102102; 
 177 6.906907; 
 271 51.751752; 
 272 5.305305; 


Name: 4'-Hydroxyflavone
SYNON: $:00in-source
DB#: MetaboBASE0034
InChIKey: SHGLJXBLXNNCTE-UHFFFAOYSA-N
Instrument_type: LC-ESI-TOF
Instrument: impact HD
Ion_mode: N
InChIKey: SHGLJXBLXNNCTE-UHFFFAOYSA-N
Formula: C15H10O3
MW: 238
ExactMass: 238.06299417999998
Comments: "license=License CC-BY-NC-SA 4.0 International" "author=Plant Biology, The Noble Foundation, Ardmore, OK, US/Dennis Fine, Daniel Wherritt, and Lloyd Sumner" "instrument type=LC-ESI-TOF" "instrument=impact HD" "ionization=ESI" "ionization mode=negative" "collision gas=Nitrogen" "peak width=0.0057" "date=2013-07-02 03:40:21+02:00" "column=Waters Acquity BEH C18 1.7um x 2.1 x 150 mm" "retention time=652.2" "raw data file=D:\Data\Confirmed Standards\Reinjection_1uL\4'-Hydroxyflavone (vial 8).d" "cas number=4143-63-9" "SMILES=c1ccc2c(c1)c(=O)cc(o2)c3ccc(cc3)O" "InChI=InChI=1S/C15H10O3/c16-11-7-5-10(6-8-11)15-9-13(17)12-3-1-2-4-14(12)18-15/h1-9,16H" "InChIKey=SHGLJXBLXNNCTE-UHFFFAOYSA-N" "molecular formula=C15H10O3" "total exact mass=238.06299417999998" "SMILES=C1=CC=C2C(=C1)C(=O)C=C(O2)C3=CC=C(C=C3)O"
Num Peaks: 4
 237 100.000000; 
 238 12.712713; 
 239 1.401401; 
 367 0.200200; 


Name: 4'-Hydroxyflavone
SYNON: $:00in-source
DB#: MetaboBASE0035
InChIKey: SHGLJXBLXNNCTE-UHFFFAOYSA-N
Precursor_type: [M-H]-
Spectrum_type: MS2
PrecursorMZ: 237.0617
Instrument_type: LC-ESI-TOF
Instrument: impact HD
Ion_mode: N
Collision_energy: 30
InChIKey: SHGLJXBLXNNCTE-UHFFFAOYSA-N
Formula: C15H10O3
MW: 238
ExactMass: 238.06299417999998
Comments: "license=License CC-BY-NC-SA 4.0 International" "author=Plant Biology, The Noble Foundation, Ardmore, OK, US/Dennis Fine, Daniel Wherritt, and Lloyd Sumner" "instrument type=LC-ESI-TOF" "instrument=impact HD" "ionization=ESI" "ionization mode=negative" "ms level=MS2" "precursor m/z=237.0617" "collision gas=Nitrogen" "collision energy=30" "collision energy 2=30" "peak width=0.025" "date=2013-08-01 17:31:34+02:00" "column=Waters Acquity BEH C18 1.7um x 2.1 x 150 mm" "retention time=653.733" "raw data file=D:\Data\Confirmed Standards\Reanalyzed MRM multiple CID\4'-Hydroxyflavone (vial 8)_1329.d" "precursor type=[M-H]-" "mass accuracy=25.23317769178475" "mass error=0.005981820000016569" "cas number=4143-63-9" "SMILES=c1ccc2c(c1)c(=O)cc(o2)c3ccc(cc3)O" "InChI=InChI=1S/C15H10O3/c16-11-7-5-10(6-8-11)15-9-13(17)12-3-1-2-4-14(12)18-15/h1-9,16H" "InChIKey=SHGLJXBLXNNCTE-UHFFFAOYSA-N" "molecular formula=C15H10O3" "total exact mass=238.06299417999998" "SMILES=C1=CC=C2C(=C1)C(=O)C=C(O2)C3=CC=C(C=C3)O"
Num Peaks: 19
 116 0.300300; 
 117 0.200200; 
 117 100.000000; 
 117 0.200200; 
 117 0.200200; 
 118 11.111111; 
 119 0.600601; 
 161 0.100100; 
 165 0.100100; 
 180 0.200200; 
 193 0.400400; 
 195 0.200200; 
 209 0.600601; 
 210 0.100100; 
 219 0.300300; 
 236 0.200200; 
 237 9.509510; 
 238 1.101101; 
 239 0.100100; 


Name: 7,4'-Dihydroxyflavone
SYNON: $:00in-source
DB#: MetaboBASE0036
InChIKey: LCAWNFIFMLXZPQ-UHFFFAOYSA-N
Precursor_type: [M-H]-
Spectrum_type: MS2
PrecursorMZ: 253.0531
Instrument_type: LC-ESI-TOF
Instrument: impact HD
Ion_mode: N
Collision_energy: 25
InChIKey: LCAWNFIFMLXZPQ-UHFFFAOYSA-N
Formula: C15H10O4
MW: 254
ExactMass: 254.0579088
Comments: "license=License CC-BY-NC-SA 4.0 International" "author=Plant Biology, The Noble Foundation, Ardmore, OK, US/Dennis Fine, Daniel Wherritt, and Lloyd Sumner" "instrument type=LC-ESI-TOF" "instrument=impact HD" "ionization=ESI" "ionization mode=negative" "ms level=MS2" "precursor m/z=253.0531" "collision gas=Nitrogen" "collision energy=25" "collision energy 2=25" "peak width=0.022" "date=2013-07-27 04:42:55+02:00" "column=Waters Acquity BEH C18 1.7um x 2.1 x 150 mm" "retention time=430.725" "raw data file=D:\Data\Confirmed Standards\Reanalyzed 7_26_13\7,4'-Dihydroxyflavone (vial 7).d" "precursor type=[M-H]-" "mass accuracy=9.749732368360254" "mass error=0.0024671999999839045" "cas number=2196-14-7" "SMILES=c1cc(ccc1c2cc(=O)c3ccc(cc3o2)O)O" "InChI=InChI=1S/C15H10O4/c16-10-3-1-9(2-4-10)14-8-13(18)12-6-5-11(17)7-15(12)19-14/h1-8,16-17H" "InChIKey=LCAWNFIFMLXZPQ-UHFFFAOYSA-N" "molecular formula=C15H10O4" "total exact mass=254.0579088" "SMILES=C1=CC(=CC=C1C2=CC(=O)C3=C(O2)C=C(C=C3)O)O"
Num Peaks: 9
 117 92.692693; 
 118 3.103103; 
 133 7.207207; 
 135 19.019019; 
 153 6.006006; 
 224 3.103103; 
 225 3.403403; 
 253 100.000000; 
 254 8.808809; 


Name: 7,4'-Dihydroxyflavone
SYNON: $:00in-source
DB#: MetaboBASE0037
InChIKey: LCAWNFIFMLXZPQ-UHFFFAOYSA-N
Instrument_type: LC-ESI-TOF
Instrument: impact HD
Ion_mode: N
InChIKey: LCAWNFIFMLXZPQ-UHFFFAOYSA-N
Formula: C15H10O4
MW: 254
ExactMass: 254.0579088
Comments: "license=License CC-BY-NC-SA 4.0 International" "author=Plant Biology, The Noble Foundation, Ardmore, OK, US/Dennis Fine, Daniel Wherritt, and Lloyd Sumner" "instrument type=LC-ESI-TOF" "instrument=impact HD" "ionization=ESI" "ionization mode=negative" "collision gas=Nitrogen" "peak width=0.011" "date=2013-06-22 06:25:58+02:00" "column=Waters Acquity BEH C18 1.7um x 2.1 x 150 mm" "retention time=433.2" "raw data file=D:\Data\Confirmed Standards\7,4'-Dihydroxyflavone (vial 7).d" "cas number=2196-14-7" "SMILES=c1cc(ccc1c2cc(=O)c3ccc(cc3o2)O)O" "InChI=InChI=1S/C15H10O4/c16-10-3-1-9(2-4-10)14-8-13(18)12-6-5-11(17)7-15(12)19-14/h1-8,16-17H" "InChIKey=LCAWNFIFMLXZPQ-UHFFFAOYSA-N" "molecular formula=C15H10O4" "total exact mass=254.0579088" "SMILES=C1=CC(=CC=C1C2=CC(=O)C3=C(O2)C=C(C=C3)O)O"
Num Peaks: 15
 253 100.000000; 
 253 0.200200; 
 254 15.115115; 
 255 1.901902; 
 256 0.200200; 
 289 0.400400; 
 507 6.006006; 
 508 2.002002; 
 509 0.300300; 
 529 1.901902; 
 530 0.500501; 
 533 0.300300; 
 534 0.300300; 
 543 0.200200; 
 545 0.300300; 


Name: Biochanin A
Synon: 5,7-dihydroxy-4'-methoxyisoflavone
SYNON: $:00in-source
DB#: MetaboBASE0038
InChIKey: WUADCCWRTIWANL-UHFFFAOYSA-N
Precursor_type: [M-H]-
Spectrum_type: MS2
PrecursorMZ: 283.0686
Instrument_type: LC-ESI-TOF
Instrument: impact HD
Ion_mode: N
Collision_energy: 40
InChIKey: WUADCCWRTIWANL-UHFFFAOYSA-N
Formula: C16H12O5
MW: 284
ExactMass: 284.068473484
Comments: "license=License CC-BY-NC-SA 4.0 International" "author=Plant Biology, The Noble Foundation, Ardmore, OK, US/Dennis Fine, Daniel Wherritt, and Lloyd Sumner" "instrument type=LC-ESI-TOF" "instrument=impact HD" "ionization=ESI" "ionization mode=negative" "ms level=MS2" "precursor m/z=283.0686" "collision gas=Nitrogen" "collision energy=40" "collision energy 2=40" "peak width=0.022" "date=2013-08-01 03:33:54+02:00" "column=Waters Acquity BEH C18 1.7um x 2.1 x 150 mm" "retention time=882.865" "raw data file=D:\Data\Confirmed Standards\Reanalyzed MRM multiple CID\Biochanin A (vial 11).d" "precursor type=[M-H]-" "mass accuracy=26.150961286463044" "mass error=0.007402516000013293" "cas number=491-80-5" "SMILES=InChI=1S/C16H12O5/c1-20-11-4-2-9(3-5-11)12-8-21-14-7-10(17)6-13(18)15(14)16(12)19/h2-8,17-18H,1H3" "InChI=InChI=1S/C16H12O5/c1-20-11-4-2-9(3-5-11)12-8-21-14-7-10(17)6-13(18)15(14)16(12)19/h2-8,17-18H,1H3" "InChIKey=WUADCCWRTIWANL-UHFFFAOYSA-N" "molecular formula=C16H12O5" "total exact mass=284.068473484" "SMILES=COC1=CC=C(C=C1)C2=COC3=CC(=CC(=C3C2=O)O)O"
Num Peaks: 40
 104 1.901902; 
 107 1.901902; 
 132 26.326326; 
 133 2.202202; 
 134 2.502503; 
 135 4.404404; 
 142 0.800801; 
 143 0.800801; 
 151 2.802803; 
 154 2.202202; 
 155 0.800801; 
 167 3.903904; 
 168 1.701702; 
 170 0.800801; 
 171 0.800801; 
 180 1.001001; 
 183 3.003003; 
 184 4.204204; 
 195 9.809810; 
 196 4.404404; 
 198 1.701702; 
 199 0.800801; 
 211 32.732733; 
 212 8.008008; 
 213 0.900901; 
 222 1.001001; 
 223 16.816817; 
 224 9.109109; 
 225 1.101101; 
 226 6.806807; 
 227 1.001001; 
 239 95.895896; 
 240 25.625626; 
 241 3.303303; 
 250 1.401401; 
 251 1.301301; 
 267 100.000000; 
 268 85.085085; 
 269 9.509510; 
 270 0.900901; 


Name: Biochanin A
Synon: 5,7-dihydroxy-4'-methoxyisoflavone
SYNON: $:00in-source
DB#: MetaboBASE0039
InChIKey: WUADCCWRTIWANL-UHFFFAOYSA-N
Precursor_type: [M-H]-
Spectrum_type: MS2
PrecursorMZ: 283
Instrument_type: LC-ESI-TOF
Instrument: impact HD
Ion_mode: N
Collision_energy: 50
InChIKey: WUADCCWRTIWANL-UHFFFAOYSA-N
Formula: C16H12O5
MW: 284
ExactMass: 284.068473484
Comments: "license=License CC-BY-NC-SA 4.0 International" "author=Plant Biology, The Noble Foundation, Ardmore, OK, US/Dennis Fine, Daniel Wherritt, and Lloyd Sumner" "instrument type=LC-ESI-TOF" "instrument=impact HD" "ionization=ESI" "ionization mode=negative" "ms level=MS2" "precursor m/z=283" "collision gas=Nitrogen" "collision energy=50" "collision energy 2=50" "peak width=0.024" "date=2013-08-01 03:33:54+02:00" "column=Waters Acquity BEH C18 1.7um x 2.1 x 150 mm" "retention time=883.03" "raw data file=D:\Data\Confirmed Standards\Reanalyzed MRM multiple CID\Biochanin A (vial 11).d" "precursor type=[M-H]-" "mass accuracy=216.24552650173234" "mass error=-0.061197483999990254" "cas number=491-80-5" "SMILES=InChI=1S/C16H12O5/c1-20-11-4-2-9(3-5-11)12-8-21-14-7-10(17)6-13(18)15(14)16(12)19/h2-8,17-18H,1H3" "InChI=InChI=1S/C16H12O5/c1-20-11-4-2-9(3-5-11)12-8-21-14-7-10(17)6-13(18)15(14)16(12)19/h2-8,17-18H,1H3" "InChIKey=WUADCCWRTIWANL-UHFFFAOYSA-N" "molecular formula=C16H12O5" "total exact mass=284.068473484" "SMILES=COC1=CC=C(C=C1)C2=COC3=CC(=CC(=C3C2=O)O)O"
Num Peaks: 41
 104 4.704705; 
 107 7.007007; 
 117 4.204204; 
 121 2.302302; 
 123 2.002002; 
 130 2.602603; 
 132 56.956957; 
 133 4.604605; 
 134 6.406406; 
 135 4.704705; 
 141 3.903904; 
 142 2.502503; 
 143 6.206206; 
 151 3.103103; 
 154 5.005005; 
 155 4.404404; 
 156 2.002002; 
 167 25.725726; 
 168 3.803804; 
 178 2.002002; 
 179 3.603604; 
 180 1.901902; 
 182 3.703704; 
 183 23.223223; 
 184 8.208208; 
 195 31.331331; 
 196 4.904905; 
 199 2.002002; 
 210 5.005005; 
 211 100.000000; 
 212 15.015015; 
 213 2.402402; 
 223 16.316316; 
 224 4.804805; 
 226 3.303303; 
 239 70.170170; 
 240 10.710711; 
 241 2.902903; 
 267 50.050050; 
 268 12.112112; 
 269 2.002002; 


Name: Biochanin A
Synon: 5,7-dihydroxy-4'-methoxyisoflavone
SYNON: $:00in-source
DB#: MetaboBASE0040
InChIKey: WUADCCWRTIWANL-UHFFFAOYSA-N
Precursor_type: [M-H]-
Spectrum_type: MS2
PrecursorMZ: 283.07
Instrument_type: LC-ESI-TOF
Instrument: impact HD
Ion_mode: N
Collision_energy: 30
InChIKey: WUADCCWRTIWANL-UHFFFAOYSA-N
Formula: C16H12O5
MW: 284
ExactMass: 284.068473484
Comments: "license=License CC-BY-NC-SA 4.0 International" "author=Plant Biology, The Noble Foundation, Ardmore, OK, US/Dennis Fine, Daniel Wherritt, and Lloyd Sumner" "instrument type=LC-ESI-TOF" "instrument=impact HD" "ionization=ESI" "ionization mode=negative" "ms level=MS2" "precursor m/z=283.07" "collision gas=Nitrogen" "collision energy=30" "collision energy 2=30" "peak width=0.024" "date=2013-08-01 03:33:54+02:00" "column=Waters Acquity BEH C18 1.7um x 2.1 x 150 mm" "retention time=882.699" "raw data file=D:\Data\Confirmed Standards\Reanalyzed MRM multiple CID\Biochanin A (vial 11).d" "precursor type=[M-H]-" "mass accuracy=31.096605080025874" "mass error=0.008802516000002925" "cas number=491-80-5" "SMILES=InChI=1S/C16H12O5/c1-20-11-4-2-9(3-5-11)12-8-21-14-7-10(17)6-13(18)15(14)16(12)19/h2-8,17-18H,1H3" "InChI=InChI=1S/C16H12O5/c1-20-11-4-2-9(3-5-11)12-8-21-14-7-10(17)6-13(18)15(14)16(12)19/h2-8,17-18H,1H3" "InChIKey=WUADCCWRTIWANL-UHFFFAOYSA-N" "molecular formula=C16H12O5" "total exact mass=284.068473484" "SMILES=COC1=CC=C(C=C1)C2=COC3=CC(=CC(=C3C2=O)O)O"
Num Peaks: 38
 132 1.801802; 
 133 0.200200; 
 135 0.600601; 
 151 0.300300; 
 153 0.100100; 
 167 0.100100; 
 168 0.100100; 
 180 0.200200; 
 183 0.100100; 
 184 0.300300; 
 195 0.300300; 
 196 0.700701; 
 197 0.100100; 
 198 0.200200; 
 211 1.901902; 
 212 0.900901; 
 213 0.200200; 
 222 0.100100; 
 223 2.102102; 
 224 2.502503; 
 225 0.300300; 
 226 1.801802; 
 227 0.300300; 
 239 15.515516; 
 240 6.706707; 
 241 0.800801; 
 242 0.100100; 
 250 0.400400; 
 267 20.020020; 
 268 0.200200; 
 268 100.000000; 
 268 0.200200; 
 269 12.512513; 
 270 1.101101; 
 271 0.100100; 
 283 5.005005; 
 284 0.600601; 
 285 0.100100; 


Name: Biochanin A
Synon: 5,7-dihydroxy-4'-methoxyisoflavone
SYNON: $:00in-source
DB#: MetaboBASE0041
InChIKey: WUADCCWRTIWANL-UHFFFAOYSA-N
Instrument_type: LC-ESI-TOF
Instrument: impact HD
Ion_mode: N
InChIKey: WUADCCWRTIWANL-UHFFFAOYSA-N
Formula: C16H12O5
MW: 284
ExactMass: 284.068473484
Comments: "license=License CC-BY-NC-SA 4.0 International" "author=Plant Biology, The Noble Foundation, Ardmore, OK, US/Dennis Fine, Daniel Wherritt, and Lloyd Sumner" "instrument type=LC-ESI-TOF" "instrument=impact HD" "ionization=ESI" "ionization mode=negative" "collision gas=Nitrogen" "peak width=0.0049" "date=2013-07-02 05:01:50+02:00" "column=Waters Acquity BEH C18 1.7um x 2.1 x 150 mm" "retention time=876" "raw data file=D:\Data\Confirmed Standards\Reinjection_1uL\Biochanin A (vial 11).d" "cas number=491-80-5" "SMILES=InChI=1S/C16H12O5/c1-20-11-4-2-9(3-5-11)12-8-21-14-7-10(17)6-13(18)15(14)16(12)19/h2-8,17-18H,1H3" "InChI=InChI=1S/C16H12O5/c1-20-11-4-2-9(3-5-11)12-8-21-14-7-10(17)6-13(18)15(14)16(12)19/h2-8,17-18H,1H3" "InChIKey=WUADCCWRTIWANL-UHFFFAOYSA-N" "molecular formula=C16H12O5" "total exact mass=284.068473484" "SMILES=COC1=CC=C(C=C1)C2=COC3=CC(=CC(=C3C2=O)O)O"
Num Peaks: 10
 267 0.200200; 
 268 9.409409; 
 269 1.601602; 
 270 0.200200; 
 283 100.000000; 
 283 0.400400; 
 284 19.719720; 
 285 2.702703; 
 286 0.300300; 
 567 0.300300; 


Name: Biochanin A
Synon: 5,7-dihydroxy-4'-methoxyisoflavone
SYNON: $:00in-source
DB#: MetaboBASE0042
InChIKey: WUADCCWRTIWANL-UHFFFAOYSA-N
Precursor_type: [M-H]-
Spectrum_type: MS2
PrecursorMZ: 283.0704
Instrument_type: LC-ESI-TOF
Instrument: impact HD
Ion_mode: N
Collision_energy: 20
InChIKey: WUADCCWRTIWANL-UHFFFAOYSA-N
Formula: C16H12O5
MW: 284
ExactMass: 284.068473484
Comments: "license=License CC-BY-NC-SA 4.0 International" "author=Plant Biology, The Noble Foundation, Ardmore, OK, US/Dennis Fine, Daniel Wherritt, and Lloyd Sumner" "instrument type=LC-ESI-TOF" "instrument=impact HD" "ionization=ESI" "ionization mode=negative" "ms level=MS2" "precursor m/z=283.0704" "isolation width=5" "collision gas=Nitrogen" "collision energy=20" "peak width=0.021" "date=2013-08-01 03:33:54+02:00" "column=Waters Acquity BEH C18 1.7um x 2.1 x 150 mm" "retention time=882.864" "raw data file=C:\Data\Confirmed Standards\Reanalyzed MRM multiple CID\Biochanin A (vial 11).d" "precursor type=[M-H]-" "mass accuracy=32.509637178653094" "mass error=0.009202516000016203" "cas number=491-80-5" "SMILES=InChI=1S/C16H12O5/c1-20-11-4-2-9(3-5-11)12-8-21-14-7-10(17)6-13(18)15(14)16(12)19/h2-8,17-18H,1H3" "InChI=InChI=1S/C16H12O5/c1-20-11-4-2-9(3-5-11)12-8-21-14-7-10(17)6-13(18)15(14)16(12)19/h2-8,17-18H,1H3" "InChIKey=WUADCCWRTIWANL-UHFFFAOYSA-N" "molecular formula=C16H12O5" "total exact mass=284.068473484" "SMILES=COC1=CC=C(C=C1)C2=COC3=CC(=CC(=C3C2=O)O)O"
Num Peaks: 8
 239 1.601602; 
 267 2.402402; 
 268 100.000000; 
 269 12.712713; 
 270 1.301301; 
 283 95.295295; 
 284 11.811812; 
 285 1.101101; 


Name: Daidzein
SYNON: $:00in-source
DB#: MetaboBASE0043
InChIKey: ZQSIJRDFPHDXIC-UHFFFAOYSA-N
Instrument_type: LC-ESI-TOF
Instrument: impact HD
Ion_mode: N
InChIKey: ZQSIJRDFPHDXIC-UHFFFAOYSA-N
Formula: C15H10O4
MW: 254
ExactMass: 254.0579088
Comments: "license=License CC-BY-NC-SA 4.0 International" "author=Plant Biology, The Noble Foundation, Ardmore, OK, US/Dennis Fine, Daniel Wherritt, and Lloyd Sumner" "instrument type=LC-ESI-TOF" "instrument=impact HD" "ionization=ESI" "ionization mode=negative" "collision gas=Nitrogen" "peak width=0.012" "date=2013-07-02 05:42:33+02:00" "column=Waters Acquity BEH C18 1.7um x 2.1 x 150 mm" "retention time=449.4" "raw data file=D:\Data\Confirmed Standards\Reinjection_1uL\Daidzein (vial 12).d" "cas number=486-66-8" "SMILES=c1cc(ccc1c2coc3cc(ccc3c2=O)O)O" "InChI=InChI=1S/C15H10O4/c16-10-3-1-9(2-4-10)13-8-19-14-7-11(17)5-6-12(14)15(13)18/h1-8,16-17H" "InChIKey=ZQSIJRDFPHDXIC-UHFFFAOYSA-N" "molecular formula=C15H10O4" "total exact mass=254.0579088" "SMILES=C1=CC(=CC=C1C2=COC3=C(C2=O)C=CC(=C3)O)O"
Num Peaks: 10
 252 0.200200; 
 253 100.000000; 
 253 0.200200; 
 254 14.014014; 
 255 1.901902; 
 383 0.200200; 
 507 0.700701; 
 508 0.200200; 
 529 0.700701; 
 530 0.200200; 


Name: Daidzein
SYNON: $:00in-source
DB#: MetaboBASE0044
InChIKey: ZQSIJRDFPHDXIC-UHFFFAOYSA-N
Spectrum_type: MS2
PrecursorMZ: 251.0364
Instrument_type: LC-ESI-TOF
Instrument: impact HD
Ion_mode: N
Collision_energy: 50
InChIKey: ZQSIJRDFPHDXIC-UHFFFAOYSA-N
Formula: C15H10O4
MW: 254
ExactMass: 254.0579088
Comments: "license=License CC-BY-NC-SA 4.0 International" "author=Plant Biology, The Noble Foundation, Ardmore, OK, US/Dennis Fine, Daniel Wherritt, and Lloyd Sumner" "instrument type=LC-ESI-TOF" "instrument=impact HD" "ionization=ESI" "ionization mode=negative" "ms level=MS2" "precursor m/z=251.0364" "collision gas=Nitrogen" "collision energy=50" "collision energy 2=50" "peak width=0.029" "date=2013-07-27 08:07:08+02:00" "column=Waters Acquity BEH C18 1.7um x 2.1 x 150 mm" "retention time=449.67" "raw data file=D:\Data\Confirmed Standards\Reanalyzed 7_26_13\Daidzein (vial 12).d" "cas number=486-66-8" "SMILES=c1cc(ccc1c2coc3cc(ccc3c2=O)O)O" "InChI=InChI=1S/C15H10O4/c16-10-3-1-9(2-4-10)13-8-19-14-7-11(17)5-6-12(14)15(13)18/h1-8,16-17H" "InChIKey=ZQSIJRDFPHDXIC-UHFFFAOYSA-N" "molecular formula=C15H10O4" "total exact mass=254.0579088" "SMILES=C1=CC(=CC=C1C2=COC3=C(C2=O)C=CC(=C3)O)O"
Num Peaks: 22
 104 14.314314; 
 108 5.905906; 
 116 7.307307; 
 117 7.807808; 
 130 6.506507; 
 132 100.000000; 
 133 43.243243; 
 135 14.814815; 
 141 4.704705; 
 153 4.704705; 
 155 6.706707; 
 167 9.409409; 
 169 6.306306; 
 180 24.224224; 
 182 4.904905; 
 195 54.454454; 
 196 8.608609; 
 208 23.723724; 
 223 70.070070; 
 224 14.714715; 
 251 6.006006; 
 253 4.504505; 


Name: Taxifolin
Synon: 3,3',4',5,7-pentahydroxylflavanone
SYNON: $:00in-source
DB#: MetaboBASE0045
InChIKey: CXQWRCVTCMQVQX-LSDHHAIUSA-N
Spectrum_type: MS2
PrecursorMZ: 301.036
Instrument_type: LC-ESI-TOF
Instrument: impact HD
Ion_mode: N
Collision_energy: 25
InChIKey: CXQWRCVTCMQVQX-LSDHHAIUSA-N
Formula: C15H12O7
MW: 304
ExactMass: 304.058302724
Comments: "license=License CC-BY-NC-SA 4.0 International" "author=Plant Biology, The Noble Foundation, Ardmore, OK, US/Dennis Fine, Daniel Wherritt, and Lloyd Sumner" "instrument type=LC-ESI-TOF" "instrument=impact HD" "ionization=ESI" "ionization mode=negative" "ms level=MS2" "precursor m/z=301.036" "collision gas=Nitrogen" "collision energy=25" "collision energy 2=25" "peak width=0.027" "date=2013-07-27 08:47:58+02:00" "column=Waters Acquity BEH C18 1.7um x 2.1 x 150 mm" "retention time=269.126" "raw data file=D:\Data\Confirmed Standards\Reanalyzed 7_26_13\Taxifolin (vial 13).d" "cas number=17654-26-1" "SMILES=c1cc(c(cc1[C@@H]2[C@H](C(=O)c3c(cc(cc3O2)O)O)O)O)O" "InChI=InChI=1S/C15H12O7/c16-7-4-10(19)12-11(5-7)22-15(14(21)13(12)20)6-1-2-8(17)9(18)3-6/h1-5,14-19,21H/t14-,15+/m0/s1" "InChIKey=CXQWRCVTCMQVQX-LSDHHAIUSA-N" "molecular formula=C15H12O7" "total exact mass=304.058302724" "SMILES=C1=CC(=C(C=C1C2C(C(=O)C3=C(C=C(C=C3O2)O)O)O)O)O"
Num Peaks: 13
 121 12.812813; 
 125 58.358358; 
 149 11.411411; 
 151 19.519520; 
 178 8.708709; 
 215 8.408408; 
 227 21.221221; 
 229 10.010010; 
 245 8.908909; 
 255 28.428428; 
 273 100.000000; 
 274 14.014014; 
 301 23.823824; 


Name: Taxifolin
Synon: 3,3',4',5,7-pentahydroxylflavanone
SYNON: $:00in-source
DB#: MetaboBASE0046
InChIKey: CXQWRCVTCMQVQX-LSDHHAIUSA-N
Spectrum_type: MS2
PrecursorMZ: 301.044
Instrument_type: LC-ESI-TOF
Instrument: impact HD
Ion_mode: N
Collision_energy: 20
InChIKey: CXQWRCVTCMQVQX-LSDHHAIUSA-N
Formula: C15H12O7
MW: 304
ExactMass: 304.058302724
Comments: "license=License CC-BY-NC-SA 4.0 International" "author=Plant Biology, The Noble Foundation, Ardmore, OK, US/Dennis Fine, Daniel Wherritt, and Lloyd Sumner" "instrument type=LC-ESI-TOF" "instrument=impact HD" "ionization=ESI" "ionization mode=negative" "ms level=MS2" "precursor m/z=301.044" "collision gas=Nitrogen" "collision energy=20" "peak width=0.022" "date=2013-08-01 04:55:34+02:00" "column=Waters Acquity BEH C18 1.7um x 2.1 x 150 mm" "retention time=268.48" "raw data file=D:\Data\Confirmed Standards\Reanalyzed MRM multiple CID\Taxifolin (vial 13).d" "cas number=17654-26-1" "SMILES=c1cc(c(cc1[C@@H]2[C@H](C(=O)c3c(cc(cc3O2)O)O)O)O)O" "InChI=InChI=1S/C15H12O7/c16-7-4-10(19)12-11(5-7)22-15(14(21)13(12)20)6-1-2-8(17)9(18)3-6/h1-5,14-19,21H/t14-,15+/m0/s1" "InChIKey=CXQWRCVTCMQVQX-LSDHHAIUSA-N" "molecular formula=C15H12O7" "total exact mass=304.058302724" "SMILES=C1=CC(=C(C=C1C2C(C(=O)C3=C(C=C(C=C3O2)O)O)O)O)O"
Num Peaks: 27
 125 35.235235; 
 137 2.102102; 
 149 4.104104; 
 151 7.907908; 
 152 2.002002; 
 153 3.803804; 
 175 2.102102; 
 177 3.603604; 
 179 6.106106; 
 215 4.304304; 
 217 2.102102; 
 227 3.003003; 
 229 2.802803; 
 241 3.203203; 
 245 2.302302; 
 255 7.707708; 
 257 2.702703; 
 259 4.704705; 
 273 100.000000; 
 274 8.708709; 
 275 5.605606; 
 283 2.202202; 
 285 22.022022; 
 286 2.002002; 
 301 64.964965; 
 302 6.006006; 
 303 1.701702; 


Name: Taxifolin
Synon: 3,3',4',5,7-pentahydroxylflavanone
SYNON: $:00in-source
DB#: MetaboBASE0047
InChIKey: CXQWRCVTCMQVQX-LSDHHAIUSA-N
Instrument_type: LC-ESI-TOF
Instrument: impact HD
Ion_mode: N
InChIKey: CXQWRCVTCMQVQX-LSDHHAIUSA-N
Formula: C15H12O7
MW: 304
ExactMass: 304.058302724
Comments: "license=License CC-BY-NC-SA 4.0 International" "author=Plant Biology, The Noble Foundation, Ardmore, OK, US/Dennis Fine, Daniel Wherritt, and Lloyd Sumner" "instrument type=LC-ESI-TOF" "instrument=impact HD" "ionization=ESI" "ionization mode=negative" "collision gas=Nitrogen" "peak width=0.0072" "date=2013-07-02 06:23:16+02:00" "column=Waters Acquity BEH C18 1.7um x 2.1 x 150 mm" "retention time=272.4" "raw data file=D:\Data\Confirmed Standards\Reinjection_1uL\Taxifolin (vial 13).d" "cas number=17654-26-1" "SMILES=c1cc(c(cc1[C@@H]2[C@H](C(=O)c3c(cc(cc3O2)O)O)O)O)O" "InChI=InChI=1S/C15H12O7/c16-7-4-10(19)12-11(5-7)22-15(14(21)13(12)20)6-1-2-8(17)9(18)3-6/h1-5,14-19,21H/t14-,15+/m0/s1" "InChIKey=CXQWRCVTCMQVQX-LSDHHAIUSA-N" "molecular formula=C15H12O7" "total exact mass=304.058302724" "SMILES=C1=CC(=C(C=C1C2C(C(=O)C3=C(C=C(C=C3O2)O)O)O)O)O"
Num Peaks: 31
 125 0.800801; 
 151 0.500501; 
 153 0.300300; 
 177 0.700701; 
 178 0.500501; 
 215 0.400400; 
 217 0.300300; 
 227 0.200200; 
 229 0.300300; 
 233 0.200200; 
 241 0.200200; 
 255 0.600601; 
 257 0.600601; 
 259 1.401401; 
 260 0.200200; 
 273 7.707708; 
 274 1.201201; 
 275 2.002002; 
 276 0.300300; 
 283 0.400400; 
 285 7.807808; 
 286 1.301301; 
 301 100.000000; 
 302 13.313313; 
 303 7.007007; 
 304 1.101101; 
 319 3.003003; 
 320 0.500501; 
 325 0.800801; 
 387 0.200200; 
 603 0.600601; 


Name: Apigenin
SYNON: $:00in-source
DB#: MetaboBASE0048
InChIKey: KZNIFHPLKGYRTM-UHFFFAOYSA-N
Precursor_type: [M-H]-
Spectrum_type: MS2
PrecursorMZ: 269.052
Instrument_type: LC-ESI-TOF
Instrument: impact HD
Ion_mode: N
Collision_energy: 30
InChIKey: KZNIFHPLKGYRTM-UHFFFAOYSA-N
Formula: C15H10O5
MW: 270
ExactMass: 270.05282342
Comments: "license=License CC-BY-NC-SA 4.0 International" "author=Plant Biology, The Noble Foundation, Ardmore, OK, US/Dennis Fine, Daniel Wherritt, and Lloyd Sumner" "instrument type=LC-ESI-TOF" "instrument=impact HD" "ionization=ESI" "ionization mode=negative" "ms level=MS2" "precursor m/z=269.052" "collision gas=Nitrogen" "collision energy=30" "collision energy 2=30" "peak width=0.027" "date=2013-08-01 06:17:15+02:00" "column=Waters Acquity BEH C18 1.7um x 2.1 x 150 mm" "retention time=580.837" "raw data file=D:\Data\Confirmed Standards\Reanalyzed MRM multiple CID\Apigenin (vial 15).d" "precursor type=[M-H]-" "mass accuracy=23.98265019412487" "mass error=0.006452580000029684" "cas number=520-36-5" "SMILES=c1cc(ccc1c2cc(=O)c3c(cc(cc3o2)O)O)O" "InChI=InChI=1S/C15H10O5/c16-9-3-1-8(2-4-9)13-7-12(19)15-11(18)5-10(17)6-14(15)20-13/h1-7,16-18H" "InChIKey=KZNIFHPLKGYRTM-UHFFFAOYSA-N" "molecular formula=C15H10O5" "total exact mass=270.05282342" "SMILES=C1=CC(=CC=C1C2=CC(=O)C3=C(C=C(C=C3O2)O)O)O"
Num Peaks: 23
 105 8.408408; 
 107 26.626627; 
 117 100.000000; 
 118 8.108108; 
 121 4.304304; 
 149 30.930931; 
 151 49.449449; 
 152 2.602603; 
 157 2.102102; 
 159 11.111111; 
 181 3.103103; 
 182 2.302302; 
 183 4.204204; 
 197 2.402402; 
 199 1.801802; 
 201 6.406406; 
 224 3.103103; 
 225 15.215215; 
 226 1.801802; 
 227 12.212212; 
 269 82.382382; 
 270 9.909910; 
 271 2.002002; 


Name: Apigenin
SYNON: $:00in-source
DB#: MetaboBASE0049
InChIKey: KZNIFHPLKGYRTM-UHFFFAOYSA-N
Instrument_type: LC-ESI-TOF
Instrument: impact HD
Ion_mode: N
InChIKey: KZNIFHPLKGYRTM-UHFFFAOYSA-N
Formula: C15H10O5
MW: 270
ExactMass: 270.05282342
Comments: "license=License CC-BY-NC-SA 4.0 International" "author=Plant Biology, The Noble Foundation, Ardmore, OK, US/Dennis Fine, Daniel Wherritt, and Lloyd Sumner" "instrument type=LC-ESI-TOF" "instrument=impact HD" "ionization=ESI" "ionization mode=negative" "collision gas=Nitrogen" "peak width=0.012" "date=2013-07-02 07:44:44+02:00" "column=Waters Acquity BEH C18 1.7um x 2.1 x 150 mm" "retention time=582" "raw data file=D:\Data\Confirmed Standards\Reinjection_1uL\Apigenin (vial 15).d" "cas number=520-36-5" "SMILES=c1cc(ccc1c2cc(=O)c3c(cc(cc3o2)O)O)O" "InChI=InChI=1S/C15H10O5/c16-9-3-1-8(2-4-9)13-7-12(19)15-11(18)5-10(17)6-14(15)20-13/h1-7,16-18H" "InChIKey=KZNIFHPLKGYRTM-UHFFFAOYSA-N" "molecular formula=C15H10O5" "total exact mass=270.05282342" "SMILES=C1=CC(=CC=C1C2=CC(=O)C3=C(C=C(C=C3O2)O)O)O"
Num Peaks: 21
 112 0.300300; 
 146 0.300300; 
 161 0.200200; 
 174 0.600601; 
 218 0.200200; 
 242 0.300300; 
 248 0.200200; 
 268 1.001001; 
 269 100.000000; 
 270 17.817818; 
 271 2.402402; 
 272 0.300300; 
 304 0.300300; 
 310 0.200200; 
 337 0.200200; 
 352 0.400400; 
 357 0.200200; 
 368 0.400400; 
 399 0.200200; 
 459 0.300300; 
 539 0.200200; 


Name: Pseudobaptigenin
SYNON: $:00in-source
DB#: MetaboBASE0050
InChIKey: KNJNBKINYHZUGC-UHFFFAOYSA-N
Instrument_type: LC-ESI-TOF
Instrument: impact HD
Ion_mode: N
InChIKey: KNJNBKINYHZUGC-UHFFFAOYSA-N
Formula: C16H10O5
MW: 282
ExactMass: 282.05282342
Comments: "license=License CC-BY-NC-SA 4.0 International" "author=Plant Biology, The Noble Foundation, Ardmore, OK, US/Dennis Fine, Daniel Wherritt, and Lloyd Sumner" "instrument type=LC-ESI-TOF" "instrument=impact HD" "ionization=ESI" "ionization mode=negative" "collision gas=Nitrogen" "peak width=0.0077" "date=2013-07-02 09:06:12+02:00" "column=Waters Acquity BEH C18 1.7um x 2.1 x 150 mm" "retention time=684.6" "raw data file=D:\Data\Confirmed Standards\Reinjection_1uL\Pseudoaptigenin (vial 17).d" "cas number=90-29-9" "SMILES=c1cc2c(cc1c3coc4cc(ccc4c3=O)O)OCO2" "InChI=InChI=1S/C16H10O5/c17-10-2-3-11-14(6-10)19-7-12(16(11)18)9-1-4-13-15(5-9)21-8-20-13/h1-7,17H,8H2" "InChIKey=KNJNBKINYHZUGC-UHFFFAOYSA-N" "molecular formula=C16H10O5" "total exact mass=282.05282342" "SMILES=C1OC2=C(O1)C=C(C=C2)C3=COC4=C(C3=O)C=CC(=C4)O"
Num Peaks: 18
 112 0.200200; 
 146 0.200200; 
 161 0.200200; 
 174 0.300300; 
 242 0.200200; 
 248 0.200200; 
 252 0.400400; 
 253 4.204204; 
 254 0.700701; 
 279 0.200200; 
 281 0.300300; 
 281 100.000000; 
 282 19.019019; 
 283 2.602603; 
 284 0.400400; 
 304 0.200200; 
 349 0.300300; 
 380 0.400400; 


Name: Pseudobaptigenin
SYNON: $:00in-source
DB#: MetaboBASE0051
InChIKey: KNJNBKINYHZUGC-UHFFFAOYSA-N
Precursor_type: [M-H]-
Spectrum_type: MS2
PrecursorMZ: 281.0477
Instrument_type: LC-ESI-TOF
Instrument: impact HD
Ion_mode: N
Collision_energy: 25
InChIKey: KNJNBKINYHZUGC-UHFFFAOYSA-N
Formula: C16H10O5
MW: 282
ExactMass: 282.05282342
Comments: "license=License CC-BY-NC-SA 4.0 International" "author=Plant Biology, The Noble Foundation, Ardmore, OK, US/Dennis Fine, Daniel Wherritt, and Lloyd Sumner" "instrument type=LC-ESI-TOF" "instrument=impact HD" "ionization=ESI" "ionization mode=negative" "ms level=MS2" "precursor m/z=281.0477" "isolation width=5" "collision gas=Nitrogen" "collision energy=25" "peak width=0.017" "date=2013-11-15 21:01:04+01:00" "column=Waters Acquity BEH C18 1.7um x 2.1 x 150 mm" "retention time=684.6" "raw data file=C:\Data\Confirmed Standards\Confirmed stds MSMS 14Nov13\Pseudobaptigenin MSMS (Vial 17.d" "precursor type=[M-H]-" "mass accuracy=7.659126902760802" "mass error=0.0021525800000290474" "cas number=90-29-9" "SMILES=c1cc2c(cc1c3coc4cc(ccc4c3=O)O)OCO2" "InChI=InChI=1S/C16H10O5/c17-10-2-3-11-14(6-10)19-7-12(16(11)18)9-1-4-13-15(5-9)21-8-20-13/h1-7,17H,8H2" "InChIKey=KNJNBKINYHZUGC-UHFFFAOYSA-N" "molecular formula=C16H10O5" "total exact mass=282.05282342" "SMILES=C1OC2=C(O1)C=C(C=C2)C3=COC4=C(C3=O)C=CC(=C4)O"
Num Peaks: 10
 223 3.003003; 
 224 2.602603; 
 225 4.604605; 
 251 4.604605; 
 252 8.508509; 
 253 100.000000; 
 254 10.210210; 
 279 2.702703; 
 281 56.356356; 
 282 6.406406; 


Name: Pseudobaptigenin
SYNON: $:00in-source
DB#: MetaboBASE0052
InChIKey: KNJNBKINYHZUGC-UHFFFAOYSA-N
Precursor_type: [M-H]-
Spectrum_type: MS2
PrecursorMZ: 281.0477
Instrument_type: LC-ESI-TOF
Instrument: impact HD
Ion_mode: N
Collision_energy: 35
InChIKey: KNJNBKINYHZUGC-UHFFFAOYSA-N
Formula: C16H10O5
MW: 282
ExactMass: 282.05282342
Comments: "license=License CC-BY-NC-SA 4.0 International" "author=Plant Biology, The Noble Foundation, Ardmore, OK, US/Dennis Fine, Daniel Wherritt, and Lloyd Sumner" "instrument type=LC-ESI-TOF" "instrument=impact HD" "ionization=ESI" "ionization mode=negative" "ms level=MS2" "precursor m/z=281.0477" "isolation width=5" "collision gas=Nitrogen" "collision energy=35" "peak width=0.016" "date=2013-11-15 21:01:04+01:00" "column=Waters Acquity BEH C18 1.7um x 2.1 x 150 mm" "retention time=684.6" "raw data file=C:\Data\Confirmed Standards\Confirmed stds MSMS 14Nov13\Pseudobaptigenin MSMS (Vial 17.d" "precursor type=[M-H]-" "mass accuracy=7.659126902760802" "mass error=0.0021525800000290474" "cas number=90-29-9" "SMILES=c1cc2c(cc1c3coc4cc(ccc4c3=O)O)OCO2" "InChI=InChI=1S/C16H10O5/c17-10-2-3-11-14(6-10)19-7-12(16(11)18)9-1-4-13-15(5-9)21-8-20-13/h1-7,17H,8H2" "InChIKey=KNJNBKINYHZUGC-UHFFFAOYSA-N" "molecular formula=C16H10O5" "total exact mass=282.05282342" "SMILES=C1OC2=C(O1)C=C(C=C2)C3=COC4=C(C3=O)C=CC(=C4)O"
Num Peaks: 29
 117 4.904905; 
 132 5.505506; 
 133 9.309309; 
 135 8.508509; 
 161 2.402402; 
 167 2.302302; 
 169 3.103103; 
 180 2.402402; 
 181 2.102102; 
 185 2.302302; 
 195 5.905906; 
 196 4.904905; 
 197 5.205205; 
 208 6.306306; 
 209 8.608609; 
 211 3.103103; 
 223 32.032032; 
 224 31.131131; 
 225 21.521522; 
 226 4.604605; 
 235 2.102102; 
 237 2.302302; 
 251 19.819820; 
 252 22.522523; 
 253 100.000000; 
 254 20.320320; 
 255 3.103103; 
 279 3.103103; 
 281 8.908909; 


Name: Prunetin
SYNON: $:00in-source
DB#: MetaboBASE0053
InChIKey: KQMVAGISDHMXJJ-UHFFFAOYSA-N
Precursor_type: [M-H]-
Spectrum_type: MS2
PrecursorMZ: 283.0634
Instrument_type: LC-ESI-TOF
Instrument: impact HD
Ion_mode: N
Collision_energy: 10
InChIKey: KQMVAGISDHMXJJ-UHFFFAOYSA-N
Formula: C16H12O5
MW: 284
ExactMass: 284.068473484
Comments: "license=License CC-BY-NC-SA 4.0 International" "author=Plant Biology, The Noble Foundation, Ardmore, OK, US/Dennis Fine, Daniel Wherritt, and Lloyd Sumner" "instrument type=LC-ESI-TOF" "instrument=impact HD" "ionization=ESI" "ionization mode=negative" "ms level=MS2" "precursor m/z=283.0634" "isolation width=5" "collision gas=Nitrogen" "collision energy=10" "peak width=0.013" "date=2013-11-15 21:41:59+01:00" "column=Waters Acquity BEH C18 1.7um x 2.1 x 150 mm" "retention time=871.2" "raw data file=C:\Data\Confirmed Standards\Confirmed stds MSMS 14Nov13\Prunetin MSMS (vial 18).d" "precursor type=[M-H]-" "mass accuracy=7.780998885801559" "mass error=0.002202516000011201" "cas number=552-59-0" "SMILES=COc1cc(c2c(c1)occ(c2=O)c3ccc(cc3)O)O" "InChI=InChI=1S/C16H12O5/c1-20-11-6-13(18)15-14(7-11)21-8-12(16(15)19)9-2-4-10(17)5-3-9/h2-8,17-18H,1H3" "InChIKey=KQMVAGISDHMXJJ-UHFFFAOYSA-N" "molecular formula=C16H12O5" "total exact mass=284.068473484" "SMILES=COC1=CC(=C2C(=C1)OC=C(C2=O)C3=CC=C(C=C3)O)O"
Num Peaks: 4
 268 4.704705; 
 283 100.000000; 
 284 11.711712; 
 285 2.402402; 


Name: Prunetin
SYNON: $:00in-source
DB#: MetaboBASE0054
InChIKey: KQMVAGISDHMXJJ-UHFFFAOYSA-N
Precursor_type: [M-H]-
Spectrum_type: MS2
PrecursorMZ: 283.0639
Instrument_type: LC-ESI-TOF
Instrument: impact HD
Ion_mode: N
Collision_energy: 20
InChIKey: KQMVAGISDHMXJJ-UHFFFAOYSA-N
Formula: C16H12O5
MW: 284
ExactMass: 284.068473484
Comments: "license=License CC-BY-NC-SA 4.0 International" "author=Plant Biology, The Noble Foundation, Ardmore, OK, US/Dennis Fine, Daniel Wherritt, and Lloyd Sumner" "instrument type=LC-ESI-TOF" "instrument=impact HD" "ionization=ESI" "ionization mode=negative" "ms level=MS2" "precursor m/z=283.0639" "isolation width=5" "collision gas=Nitrogen" "collision energy=20" "peak width=0.015" "date=2013-11-15 21:41:59+01:00" "column=Waters Acquity BEH C18 1.7um x 2.1 x 150 mm" "retention time=871.2" "raw data file=C:\Data\Confirmed Standards\Confirmed stds MSMS 14Nov13\Prunetin MSMS (vial 18).d" "precursor type=[M-H]-" "mass accuracy=9.54737075267944" "mass error=0.0027025159999993775" "cas number=552-59-0" "SMILES=COc1cc(c2c(c1)occ(c2=O)c3ccc(cc3)O)O" "InChI=InChI=1S/C16H12O5/c1-20-11-6-13(18)15-14(7-11)21-8-12(16(15)19)9-2-4-10(17)5-3-9/h2-8,17-18H,1H3" "InChIKey=KQMVAGISDHMXJJ-UHFFFAOYSA-N" "molecular formula=C16H12O5" "total exact mass=284.068473484" "SMILES=COC1=CC(=C2C(=C1)OC=C(C2=O)C3=CC=C(C=C3)O)O"
Num Peaks: 8
 239 3.903904; 
 240 2.602603; 
 267 3.103103; 
 268 100.000000; 
 269 12.512513; 
 270 2.002002; 
 283 56.256256; 
 284 8.008008; 


Name: Prunetin
SYNON: $:00in-source
DB#: MetaboBASE0055
InChIKey: KQMVAGISDHMXJJ-UHFFFAOYSA-N
Instrument_type: LC-ESI-TOF
Instrument: impact HD
Ion_mode: N
InChIKey: KQMVAGISDHMXJJ-UHFFFAOYSA-N
Formula: C16H12O5
MW: 284
ExactMass: 284.068473484
Comments: "license=License CC-BY-NC-SA 4.0 International" "author=Plant Biology, The Noble Foundation, Ardmore, OK, US/Dennis Fine, Daniel Wherritt, and Lloyd Sumner" "instrument type=LC-ESI-TOF" "instrument=impact HD" "ionization=ESI" "ionization mode=negative" "collision gas=Nitrogen" "peak width=0.0071" "date=2013-06-22 13:15:36+02:00" "column=Waters Acquity BEH C18 1.7um x 2.1 x 150 mm" "retention time=871.2" "raw data file=D:\Data\Confirmed Standards\Prunetin (vial 18).d" "cas number=552-59-0" "SMILES=COc1cc(c2c(c1)occ(c2=O)c3ccc(cc3)O)O" "InChI=InChI=1S/C16H12O5/c1-20-11-6-13(18)15-14(7-11)21-8-12(16(15)19)9-2-4-10(17)5-3-9/h2-8,17-18H,1H3" "InChIKey=KQMVAGISDHMXJJ-UHFFFAOYSA-N" "molecular formula=C16H12O5" "total exact mass=284.068473484" "SMILES=COC1=CC(=C2C(=C1)OC=C(C2=O)C3=CC=C(C=C3)O)O"
Num Peaks: 32
 146 0.200200; 
 157 0.500501; 
 161 0.300300; 
 174 0.200200; 
 201 0.600601; 
 223 0.200200; 
 239 0.200200; 
 240 0.300300; 
 265 0.300300; 
 267 0.200200; 
 268 18.118118; 
 269 3.003003; 
 270 0.300300; 
 274 0.200200; 
 280 0.300300; 
 283 100.000000; 
 284 19.319319; 
 285 2.602603; 
 286 0.300300; 
 292 0.200200; 
 373 0.400400; 
 382 0.200200; 
 388 0.200200; 
 395 0.300300; 
 413 0.200200; 
 417 0.200200; 
 419 0.200200; 
 457 0.200200; 
 557 0.200200; 
 611 0.200200; 
 651 0.200200; 
 673 0.500501; 


Name: Prunetin
SYNON: $:00in-source
DB#: MetaboBASE0056
InChIKey: KQMVAGISDHMXJJ-UHFFFAOYSA-N
Precursor_type: [M-H]-
Spectrum_type: MS2
PrecursorMZ: 283.1
Instrument_type: LC-ESI-TOF
Instrument: impact HD
Ion_mode: N
Collision_energy: 40
InChIKey: KQMVAGISDHMXJJ-UHFFFAOYSA-N
Formula: C16H12O5
MW: 284
ExactMass: 284.068473484
Comments: "license=License CC-BY-NC-SA 4.0 International" "author=Plant Biology, The Noble Foundation, Ardmore, OK, US/Dennis Fine, Daniel Wherritt, and Lloyd Sumner" "instrument type=LC-ESI-TOF" "instrument=impact HD" "ionization=ESI" "ionization mode=negative" "ms level=MS2" "precursor m/z=283.1" "isolation width=5" "collision gas=Nitrogen" "collision energy=40" "peak width=0.018" "date=2013-11-15 21:41:59+01:00" "column=Waters Acquity BEH C18 1.7um x 2.1 x 150 mm" "retention time=871.2" "raw data file=C:\Data\Confirmed Standards\Confirmed stds MSMS 14Nov13\Prunetin MSMS (vial 18).d" "precursor type=[M-H]-" "mass accuracy=137.06293182632453" "mass error=0.03880251600003248" "cas number=552-59-0" "SMILES=COc1cc(c2c(c1)occ(c2=O)c3ccc(cc3)O)O" "InChI=InChI=1S/C16H12O5/c1-20-11-6-13(18)15-14(7-11)21-8-12(16(15)19)9-2-4-10(17)5-3-9/h2-8,17-18H,1H3" "InChIKey=KQMVAGISDHMXJJ-UHFFFAOYSA-N" "molecular formula=C16H12O5" "total exact mass=284.068473484" "SMILES=COC1=CC(=C2C(=C1)OC=C(C2=O)C3=CC=C(C=C3)O)O"
Num Peaks: 11
 132 19.919920; 
 195 12.612613; 
 211 37.637638; 
 212 17.017017; 
 223 23.023023; 
 224 11.611612; 
 226 13.313313; 
 239 100.000000; 
 240 27.427427; 
 267 74.374374; 
 268 63.063063; 


Name: Prunetin
SYNON: $:00in-source
DB#: MetaboBASE0057
InChIKey: KQMVAGISDHMXJJ-UHFFFAOYSA-N
Precursor_type: [M-H]-
Spectrum_type: MS2
PrecursorMZ: 283.064
Instrument_type: LC-ESI-TOF
Instrument: impact HD
Ion_mode: N
Collision_energy: 30
InChIKey: KQMVAGISDHMXJJ-UHFFFAOYSA-N
Formula: C16H12O5
MW: 284
ExactMass: 284.068473484
Comments: "license=License CC-BY-NC-SA 4.0 International" "author=Plant Biology, The Noble Foundation, Ardmore, OK, US/Dennis Fine, Daniel Wherritt, and Lloyd Sumner" "instrument type=LC-ESI-TOF" "instrument=impact HD" "ionization=ESI" "ionization mode=negative" "ms level=MS2" "precursor m/z=283.064" "isolation width=5" "collision gas=Nitrogen" "collision energy=30" "peak width=0.016" "date=2013-11-15 21:41:59+01:00" "column=Waters Acquity BEH C18 1.7um x 2.1 x 150 mm" "retention time=871.2" "raw data file=C:\Data\Confirmed Standards\Confirmed stds MSMS 14Nov13\Prunetin MSMS (vial 18).d" "precursor type=[M-H]-" "mass accuracy=9.900644377353244" "mass error=0.002802516000031119" "cas number=552-59-0" "SMILES=COc1cc(c2c(c1)occ(c2=O)c3ccc(cc3)O)O" "InChI=InChI=1S/C16H12O5/c1-20-11-6-13(18)15-14(7-11)21-8-12(16(15)19)9-2-4-10(17)5-3-9/h2-8,17-18H,1H3" "InChIKey=KQMVAGISDHMXJJ-UHFFFAOYSA-N" "molecular formula=C16H12O5" "total exact mass=284.068473484" "SMILES=COC1=CC(=C2C(=C1)OC=C(C2=O)C3=CC=C(C=C3)O)O"
Num Peaks: 11
 211 3.203203; 
 223 7.607608; 
 224 6.406406; 
 226 5.205205; 
 239 26.526527; 
 240 16.816817; 
 267 23.423423; 
 268 100.000000; 
 269 17.317317; 
 270 3.203203; 
 283 2.702703; 


Name: Genistein
SYNON: $:00in-source
DB#: MetaboBASE0058
InChIKey: TZBJGXHYKVUXJN-UHFFFAOYSA-N
Instrument_type: LC-ESI-TOF
Instrument: impact HD
Ion_mode: N
InChIKey: TZBJGXHYKVUXJN-UHFFFAOYSA-N
Formula: C15H10O5
MW: 270
ExactMass: 270.05282342
Comments: "license=License CC-BY-NC-SA 4.0 International" "author=Plant Biology, The Noble Foundation, Ardmore, OK, US/Dennis Fine, Daniel Wherritt, and Lloyd Sumner" "instrument type=LC-ESI-TOF" "instrument=impact HD" "ionization=ESI" "ionization mode=negative" "collision gas=Nitrogen" "peak width=0.011" "date=2013-07-02 10:27:40+02:00" "column=Waters Acquity BEH C18 1.7um x 2.1 x 150 mm" "retention time=563.4" "raw data file=D:\Data\Confirmed Standards\Reinjection_1uL\Genostein (vial 19).d" "cas number=446-72-0" "SMILES=c1cc(ccc1c2coc3cc(cc(c3c2=O)O)O)O" "InChI=InChI=1S/C15H10O5/c16-9-3-1-8(2-4-9)11-7-20-13-6-10(17)5-12(18)14(13)15(11)19/h1-7,16-18H" "InChIKey=TZBJGXHYKVUXJN-UHFFFAOYSA-N" "molecular formula=C15H10O5" "total exact mass=270.05282342" "SMILES=C1=CC(=CC=C1C2=COC3=CC(=CC(=C3C2=O)O)O)O"
Num Peaks: 5
 268 0.300300; 
 269 100.000000; 
 270 12.312312; 
 271 1.801802; 
 539 0.300300; 


Name: Genistein
SYNON: $:00in-source
DB#: MetaboBASE0059
InChIKey: TZBJGXHYKVUXJN-UHFFFAOYSA-N
Precursor_type: [M-H]-
Spectrum_type: MS2
PrecursorMZ: 269.0489
Instrument_type: LC-ESI-TOF
Instrument: impact HD
Ion_mode: N
Collision_energy: 20
InChIKey: TZBJGXHYKVUXJN-UHFFFAOYSA-N
Formula: C15H10O5
MW: 270
ExactMass: 270.05282342
Comments: "license=License CC-BY-NC-SA 4.0 International" "author=Plant Biology, The Noble Foundation, Ardmore, OK, US/Dennis Fine, Daniel Wherritt, and Lloyd Sumner" "instrument type=LC-ESI-TOF" "instrument=impact HD" "ionization=ESI" "ionization mode=negative" "ms level=MS2" "precursor m/z=269.0489" "isolation width=5" "collision gas=Nitrogen" "collision energy=20" "peak width=0.0096" "date=2013-11-15 22:22:54+01:00" "column=Waters Acquity BEH C18 1.7um x 2.1 x 150 mm" "retention time=563.4" "raw data file=C:\Data\Confirmed Standards\Confirmed stds MSMS 14Nov13\Genistein MSMS (vial 19).d" "precursor type=[M-H]-" "mass accuracy=12.460857487289633" "mass error=0.00335258000001204" "cas number=446-72-0" "SMILES=c1cc(ccc1c2coc3cc(cc(c3c2=O)O)O)O" "InChI=InChI=1S/C15H10O5/c16-9-3-1-8(2-4-9)11-7-20-13-6-10(17)5-12(18)14(13)15(11)19/h1-7,16-18H" "InChIKey=TZBJGXHYKVUXJN-UHFFFAOYSA-N" "molecular formula=C15H10O5" "total exact mass=270.05282342" "SMILES=C1=CC(=CC=C1C2=COC3=CC(=CC(=C3C2=O)O)O)O"
Num Peaks: 2
 269 100.000000; 
 270 11.611612; 


Name: Genistein
SYNON: $:00in-source
DB#: MetaboBASE0060
InChIKey: TZBJGXHYKVUXJN-UHFFFAOYSA-N
Precursor_type: [M-H]-
Spectrum_type: MS2
PrecursorMZ: 269.1
Instrument_type: LC-ESI-TOF
Instrument: impact HD
Ion_mode: N
Collision_energy: 50
InChIKey: TZBJGXHYKVUXJN-UHFFFAOYSA-N
Formula: C15H10O5
MW: 270
ExactMass: 270.05282342
Comments: "license=License CC-BY-NC-SA 4.0 International" "author=Plant Biology, The Noble Foundation, Ardmore, OK, US/Dennis Fine, Daniel Wherritt, and Lloyd Sumner" "instrument type=LC-ESI-TOF" "instrument=impact HD" "ionization=ESI" "ionization mode=negative" "ms level=MS2" "precursor m/z=269.1" "isolation width=5" "collision gas=Nitrogen" "collision energy=50" "peak width=0.017" "date=2013-11-15 22:22:54+01:00" "column=Waters Acquity BEH C18 1.7um x 2.1 x 150 mm" "retention time=563.4" "raw data file=C:\Data\Confirmed Standards\Confirmed stds MSMS 14Nov13\Genistein MSMS (vial 19).d" "precursor type=[M-H]-" "mass accuracy=202.3507246377982" "mass error=0.0544525800000315" "cas number=446-72-0" "SMILES=c1cc(ccc1c2coc3cc(cc(c3c2=O)O)O)O" "InChI=InChI=1S/C15H10O5/c16-9-3-1-8(2-4-9)11-7-20-13-6-10(17)5-12(18)14(13)15(11)19/h1-7,16-18H" "InChIKey=TZBJGXHYKVUXJN-UHFFFAOYSA-N" "molecular formula=C15H10O5" "total exact mass=270.05282342" "SMILES=C1=CC(=CC=C1C2=COC3=CC(=CC(=C3C2=O)O)O)O"
Num Peaks: 23
 105 6.606607; 
 107 11.611612; 
 117 29.929930; 
 130 12.112112; 
 131 12.612613; 
 132 95.395395; 
 133 100.000000; 
 134 63.263263; 
 135 43.743744; 
 136 8.308308; 
 141 10.810811; 
 143 10.810811; 
 154 8.708709; 
 155 11.411411; 
 156 7.607608; 
 157 18.818819; 
 158 9.909910; 
 159 20.420420; 
 171 6.706707; 
 180 9.209209; 
 182 8.308308; 
 195 7.307307; 
 223 11.611612; 


Name: Genistein
SYNON: $:00in-source
DB#: MetaboBASE0061
InChIKey: TZBJGXHYKVUXJN-UHFFFAOYSA-N
Precursor_type: [M-H]-
Spectrum_type: MS2
PrecursorMZ: 269.0489
Instrument_type: LC-ESI-TOF
Instrument: impact HD
Ion_mode: N
Collision_energy: 40
InChIKey: TZBJGXHYKVUXJN-UHFFFAOYSA-N
Formula: C15H10O5
MW: 270
ExactMass: 270.05282342
Comments: "license=License CC-BY-NC-SA 4.0 International" "author=Plant Biology, The Noble Foundation, Ardmore, OK, US/Dennis Fine, Daniel Wherritt, and Lloyd Sumner" "instrument type=LC-ESI-TOF" "instrument=impact HD" "ionization=ESI" "ionization mode=negative" "ms level=MS2" "precursor m/z=269.0489" "isolation width=5" "collision gas=Nitrogen" "collision energy=40" "peak width=0.018" "date=2013-11-15 22:22:54+01:00" "column=Waters Acquity BEH C18 1.7um x 2.1 x 150 mm" "retention time=563.4" "raw data file=C:\Data\Confirmed Standards\Confirmed stds MSMS 14Nov13\Genistein MSMS (vial 19).d" "precursor type=[M-H]-" "mass accuracy=12.460857487289633" "mass error=0.00335258000001204" "cas number=446-72-0" "SMILES=c1cc(ccc1c2coc3cc(cc(c3c2=O)O)O)O" "InChI=InChI=1S/C15H10O5/c16-9-3-1-8(2-4-9)11-7-20-13-6-10(17)5-12(18)14(13)15(11)19/h1-7,16-18H" "InChIKey=TZBJGXHYKVUXJN-UHFFFAOYSA-N" "molecular formula=C15H10O5" "total exact mass=270.05282342" "SMILES=C1=CC(=CC=C1C2=COC3=CC(=CC(=C3C2=O)O)O)O"
Num Peaks: 49
 105 2.202202; 
 107 10.110110; 
 117 11.711712; 
 119 2.202202; 
 129 3.403403; 
 130 6.306306; 
 131 5.805806; 
 132 39.339339; 
 133 100.000000; 
 134 20.420420; 
 135 37.737738; 
 136 3.403403; 
 136 3.403403; 
 141 2.602603; 
 143 3.403403; 
 151 5.305305; 
 154 4.404404; 
 155 8.008008; 
 157 8.108108; 
 158 3.803804; 
 159 26.226226; 
 160 3.403403; 
 161 2.302302; 
 167 5.205205; 
 169 7.107107; 
 171 5.305305; 
 173 3.603604; 
 180 10.310310; 
 181 6.006006; 
 182 5.605606; 
 183 10.410410; 
 184 2.302302; 
 195 4.304304; 
 196 5.205205; 
 197 5.305305; 
 199 4.204204; 
 201 5.505506; 
 213 2.702703; 
 223 8.008008; 
 224 12.512513; 
 225 5.305305; 
 226 2.402402; 
 227 3.203203; 
 239 4.904905; 
 240 4.904905; 
 241 3.003003; 
 268 2.802803; 
 269 22.022022; 
 270 3.803804; 


Name: Genistin
SYNON: $:00in-source
DB#: MetaboBASE0062
InChIKey: ZCOLJUOHXJRHDI-CMWLGVBASA-N
Precursor_type: [M-H]-
Spectrum_type: MS2
PrecursorMZ: 431.097
Instrument_type: LC-ESI-TOF
Instrument: impact HD
Ion_mode: N
Collision_energy: 30
InChIKey: ZCOLJUOHXJRHDI-CMWLGVBASA-N
Formula: C21H20O10
MW: 432
ExactMass: 432.10564683999996
Comments: "license=License CC-BY-NC-SA 4.0 International" "author=Plant Biology, The Noble Foundation, Ardmore, OK, US/Dennis Fine, Daniel Wherritt, and Lloyd Sumner" "instrument type=LC-ESI-TOF" "instrument=impact HD" "ionization=ESI" "ionization mode=negative" "ms level=MS2" "precursor m/z=431.097" "isolation width=5" "collision gas=Nitrogen" "collision energy=30" "peak width=0.015" "date=2014-08-05 20:28:37+02:00" "column=Waters Acquity BEH C18 1.7um x 2.1 x 150 mm" "retention time=324" "raw data file=C:\Data\Confirmed standards 24_July_2014\MSMS\Genistin vial 20 50%MeOH_1-F,4_01_538.d" "precursor type=[M-H]-" "mass accuracy=3.1798875890873" "mass error=-0.0013708399999927678" "cas number=529-59-9" "SMILES=c1cc(ccc1c2coc3cc(cc(c3c2=O)O)O[C@H]4[C@@H]([C@H]([C@@H]([C@H](O4)CO)O)O)O)O" "InChI=InChI=1S/C21H20O10/c22-7-15-18(26)19(27)20(28)21(31-15)30-11-5-13(24)16-14(6-11)29-8-12(17(16)25)9-1-3-10(23)4-2-9/h1-6,8,15,18-24,26-28H,7H2/t15-,18-,19+,20-,21-/m1/s1" "InChIKey=ZCOLJUOHXJRHDI-CMWLGVBASA-N" "molecular formula=C21H20O10" "total exact mass=432.10564683999996" "SMILES=C1=CC(=CC=C1C2=COC3=CC(=CC(=C3C2=O)O)OC4C(C(C(C(O4)CO)O)O)O)O"
Num Peaks: 32
 224 0.600601; 
 226 0.700701; 
 239 1.301301; 
 240 1.201201; 
 241 0.700701; 
 253 0.600601; 
 267 2.002002; 
 268 100.000000; 
 269 75.675676; 
 270 12.712713; 
 271 1.101101; 
 282 0.500501; 
 311 0.900901; 
 431 14.414414; 
 432 3.103103; 
 592 0.500501; 
 792 0.500501; 
 810 0.800801; 
 845 0.500501; 
 950 0.600601; 
 956 0.600601; 
 986 0.600601; 
 1026 0.600601; 
 1073 0.600601; 
 1117 0.700701; 
 1156 0.600601; 
 1224 0.700701; 
 1309 0.600601; 
 1333 0.600601; 
 1343 0.700701; 
 1401 0.700701; 
 1413 0.600601; 


Name: Genistin
SYNON: $:00in-source
DB#: MetaboBASE0063
InChIKey: ZCOLJUOHXJRHDI-CMWLGVBASA-N
Precursor_type: [M-H]-
Spectrum_type: MS2
PrecursorMZ: 431.1
Instrument_type: LC-ESI-TOF
Instrument: impact HD
Ion_mode: N
Collision_energy: 50
InChIKey: ZCOLJUOHXJRHDI-CMWLGVBASA-N
Formula: C21H20O10
MW: 432
ExactMass: 432.10564683999996
Comments: "license=License CC-BY-NC-SA 4.0 International" "author=Plant Biology, The Noble Foundation, Ardmore, OK, US/Dennis Fine, Daniel Wherritt, and Lloyd Sumner" "instrument type=LC-ESI-TOF" "instrument=impact HD" "ionization=ESI" "ionization mode=negative" "ms level=MS2" "precursor m/z=431.1" "isolation width=5" "collision gas=Nitrogen" "collision energy=50" "peak width=0.017" "date=2014-08-05 20:28:37+02:00" "column=Waters Acquity BEH C18 1.7um x 2.1 x 150 mm" "retention time=324" "raw data file=C:\Data\Confirmed standards 24_July_2014\MSMS\Genistin vial 20 50%MeOH_1-F,4_01_538.d" "precursor type=[M-H]-" "mass accuracy=3.779076780445322" "mass error=0.0016291600000499784" "cas number=529-59-9" "SMILES=c1cc(ccc1c2coc3cc(cc(c3c2=O)O)O[C@H]4[C@@H]([C@H]([C@@H]([C@H](O4)CO)O)O)O)O" "InChI=InChI=1S/C21H20O10/c22-7-15-18(26)19(27)20(28)21(31-15)30-11-5-13(24)16-14(6-11)29-8-12(17(16)25)9-1-3-10(23)4-2-9/h1-6,8,15,18-24,26-28H,7H2/t15-,18-,19+,20-,21-/m1/s1" "InChIKey=ZCOLJUOHXJRHDI-CMWLGVBASA-N" "molecular formula=C21H20O10" "total exact mass=432.10564683999996" "SMILES=C1=CC(=CC=C1C2=COC3=CC(=CC(=C3C2=O)O)OC4C(C(C(C(O4)CO)O)O)O)O"
Num Peaks: 29
 132 6.406406; 
 133 2.902903; 
 135 1.701702; 
 155 1.301301; 
 159 1.301301; 
 181 1.601602; 
 183 1.301301; 
 195 1.801802; 
 196 3.203203; 
 201 1.801802; 
 211 8.008008; 
 212 2.002002; 
 213 1.701702; 
 223 6.506507; 
 224 8.208208; 
 225 6.806807; 
 226 5.405405; 
 227 1.901902; 
 239 37.937938; 
 240 20.920921; 
 241 5.205205; 
 267 37.437437; 
 268 100.000000; 
 269 74.074074; 
 270 10.010010; 
 281 1.201201; 
 679 1.301301; 
 1076 1.301301; 
 1234 1.401401; 


Name: Genistin
SYNON: $:00in-source
DB#: MetaboBASE0064
InChIKey: ZCOLJUOHXJRHDI-CMWLGVBASA-N
Instrument_type: LC-ESI-TOF
Instrument: impact HD
Ion_mode: N
InChIKey: ZCOLJUOHXJRHDI-CMWLGVBASA-N
Formula: C21H20O10
MW: 432
ExactMass: 432.10564683999996
Comments: "license=License CC-BY-NC-SA 4.0 International" "author=Plant Biology, The Noble Foundation, Ardmore, OK, US/Dennis Fine, Daniel Wherritt, and Lloyd Sumner" "instrument type=LC-ESI-TOF" "instrument=impact HD" "ionization=ESI" "ionization mode=negative" "collision gas=Nitrogen" "peak width=0.0085" "date=2013-07-02 11:08:23+02:00" "column=Waters Acquity BEH C18 1.7um x 2.1 x 150 mm" "retention time=324" "raw data file=D:\Data\Confirmed Standards\Reinjection_1uL\Genistin  (vial 20).d" "cas number=529-59-9" "SMILES=c1cc(ccc1c2coc3cc(cc(c3c2=O)O)O[C@H]4[C@@H]([C@H]([C@@H]([C@H](O4)CO)O)O)O)O" "InChI=InChI=1S/C21H20O10/c22-7-15-18(26)19(27)20(28)21(31-15)30-11-5-13(24)16-14(6-11)29-8-12(17(16)25)9-1-3-10(23)4-2-9/h1-6,8,15,18-24,26-28H,7H2/t15-,18-,19+,20-,21-/m1/s1" "InChIKey=ZCOLJUOHXJRHDI-CMWLGVBASA-N" "molecular formula=C21H20O10" "total exact mass=432.10564683999996" "SMILES=C1=CC(=CC=C1C2=COC3=CC(=CC(=C3C2=O)O)OC4C(C(C(C(O4)CO)O)O)O)O"
Num Peaks: 37
 269 85.185185; 
 270 13.713714; 
 271 2.002002; 
 310 0.200200; 
 311 1.801802; 
 431 100.000000; 
 432 23.923924; 
 433 4.704705; 
 434 0.600601; 
 467 2.602603; 
 468 0.700701; 
 469 0.900901; 
 477 5.505506; 
 478 1.201201; 
 499 4.304304; 
 500 0.900901; 
 521 3.603604; 
 521 0.900901; 
 522 0.900901; 
 522 0.100100; 
 522 0.200200; 
 561 0.800801; 
 562 0.100100; 
 567 1.401401; 
 568 0.100100; 
 574 0.400400; 
 576 2.302302; 
 577 0.800801; 
 583 0.500501; 
 589 0.600601; 
 590 0.100100; 
 626 0.600601; 
 701 1.101101; 
 702 0.400400; 
 863 2.902903; 
 864 1.201201; 
 865 0.200200; 


Name: Genistin
SYNON: $:00in-source
DB#: MetaboBASE0065
InChIKey: ZCOLJUOHXJRHDI-CMWLGVBASA-N
Precursor_type: [M-H]-
Spectrum_type: MS2
PrecursorMZ: 431.099
Instrument_type: LC-ESI-TOF
Instrument: impact HD
Ion_mode: N
Collision_energy: 40
InChIKey: ZCOLJUOHXJRHDI-CMWLGVBASA-N
Formula: C21H20O10
MW: 432
ExactMass: 432.10564683999996
Comments: "license=License CC-BY-NC-SA 4.0 International" "author=Plant Biology, The Noble Foundation, Ardmore, OK, US/Dennis Fine, Daniel Wherritt, and Lloyd Sumner" "instrument type=LC-ESI-TOF" "instrument=impact HD" "ionization=ESI" "ionization mode=negative" "ms level=MS2" "precursor m/z=431.099" "isolation width=5" "collision gas=Nitrogen" "collision energy=40" "peak width=0.015" "date=2014-08-05 20:28:37+02:00" "column=Waters Acquity BEH C18 1.7um x 2.1 x 150 mm" "retention time=324" "raw data file=C:\Data\Confirmed standards 24_July_2014\MSMS\Genistin vial 20 50%MeOH_1-F,4_01_538.d" "precursor type=[M-H]-" "mass accuracy=1.459432752144593" "mass error=6.291600000167819E-4" "cas number=529-59-9" "SMILES=c1cc(ccc1c2coc3cc(cc(c3c2=O)O)O[C@H]4[C@@H]([C@H]([C@@H]([C@H](O4)CO)O)O)O)O" "InChI=InChI=1S/C21H20O10/c22-7-15-18(26)19(27)20(28)21(31-15)30-11-5-13(24)16-14(6-11)29-8-12(17(16)25)9-1-3-10(23)4-2-9/h1-6,8,15,18-24,26-28H,7H2/t15-,18-,19+,20-,21-/m1/s1" "InChIKey=ZCOLJUOHXJRHDI-CMWLGVBASA-N" "molecular formula=C21H20O10" "total exact mass=432.10564683999996" "SMILES=C1=CC(=CC=C1C2=COC3=CC(=CC(=C3C2=O)O)OC4C(C(C(C(O4)CO)O)O)O)O"
Num Peaks: 34
 132 0.900901; 
 135 0.800801; 
 197 0.500501; 
 211 1.001001; 
 212 0.600601; 
 223 1.701702; 
 224 3.503504; 
 225 1.301301; 
 226 1.101101; 
 227 1.001001; 
 237 0.600601; 
 239 10.410410; 
 240 6.106106; 
 241 0.800801; 
 253 0.600601; 
 267 10.510511; 
 268 100.000000; 
 269 65.265265; 
 270 9.809810; 
 431 0.800801; 
 604 0.600601; 
 801 0.600601; 
 862 0.600601; 
 951 0.600601; 
 972 0.700701; 
 1011 0.600601; 
 1025 0.700701; 
 1126 0.700701; 
 1167 0.600601; 
 1198 0.700701; 
 1216 0.700701; 
 1239 0.700701; 
 1429 0.700701; 
 1444 0.700701; 


Name: Genistin
SYNON: $:00in-source
DB#: MetaboBASE0066
InChIKey: ZCOLJUOHXJRHDI-CMWLGVBASA-N
Precursor_type: [M-H]-
Spectrum_type: MS2
PrecursorMZ: 431.0989
Instrument_type: LC-ESI-TOF
Instrument: impact HD
Ion_mode: N
Collision_energy: 10
InChIKey: ZCOLJUOHXJRHDI-CMWLGVBASA-N
Formula: C21H20O10
MW: 432
ExactMass: 432.10564683999996
Comments: "license=License CC-BY-NC-SA 4.0 International" "author=Plant Biology, The Noble Foundation, Ardmore, OK, US/Dennis Fine, Daniel Wherritt, and Lloyd Sumner" "instrument type=LC-ESI-TOF" "instrument=impact HD" "ionization=ESI" "ionization mode=negative" "ms level=MS2" "precursor m/z=431.0989" "isolation width=5" "collision gas=Nitrogen" "collision energy=10" "peak width=0.015" "date=2014-08-05 20:28:37+02:00" "column=Waters Acquity BEH C18 1.7um x 2.1 x 150 mm" "retention time=324" "raw data file=C:\Data\Confirmed standards 24_July_2014\MSMS\Genistin vial 20 50%MeOH_1-F,4_01_538.d" "precursor type=[M-H]-" "mass accuracy=1.2274677574957484" "mass error=5.291600000418839E-4" "cas number=529-59-9" "SMILES=c1cc(ccc1c2coc3cc(cc(c3c2=O)O)O[C@H]4[C@@H]([C@H]([C@@H]([C@H](O4)CO)O)O)O)O" "InChI=InChI=1S/C21H20O10/c22-7-15-18(26)19(27)20(28)21(31-15)30-11-5-13(24)16-14(6-11)29-8-12(17(16)25)9-1-3-10(23)4-2-9/h1-6,8,15,18-24,26-28H,7H2/t15-,18-,19+,20-,21-/m1/s1" "InChIKey=ZCOLJUOHXJRHDI-CMWLGVBASA-N" "molecular formula=C21H20O10" "total exact mass=432.10564683999996" "SMILES=C1=CC(=CC=C1C2=COC3=CC(=CC(=C3C2=O)O)OC4C(C(C(C(O4)CO)O)O)O)O"
Num Peaks: 37
 268 0.700701; 
 269 74.574575; 
 270 10.110110; 
 271 0.800801; 
 283 0.700701; 
 311 3.003003; 
 312 0.800801; 
 335 0.700701; 
 431 100.000000; 
 432 20.820821; 
 433 1.501502; 
 853 0.700701; 
 856 0.800801; 
 871 0.700701; 
 885 0.600601; 
 938 0.600601; 
 1037 0.700701; 
 1043 0.700701; 
 1082 0.700701; 
 1082 0.800801; 
 1152 0.700701; 
 1153 1.001001; 
 1177 0.700701; 
 1182 0.700701; 
 1187 0.800801; 
 1191 0.800801; 
 1211 0.700701; 
 1218 1.001001; 
 1252 0.700701; 
 1301 0.700701; 
 1310 0.700701; 
 1319 0.800801; 
 1398 0.700701; 
 1448 0.700701; 
 1460 0.700701; 
 1463 0.800801; 
 1489 0.800801; 


Name: Genistin
SYNON: $:00in-source
DB#: MetaboBASE0067
InChIKey: ZCOLJUOHXJRHDI-CMWLGVBASA-N
Precursor_type: [M-H]-
Spectrum_type: MS2
PrecursorMZ: 431.0985
Instrument_type: LC-ESI-TOF
Instrument: impact HD
Ion_mode: N
Collision_energy: 20
InChIKey: ZCOLJUOHXJRHDI-CMWLGVBASA-N
Formula: C21H20O10
MW: 432
ExactMass: 432.10564683999996
Comments: "license=License CC-BY-NC-SA 4.0 International" "author=Plant Biology, The Noble Foundation, Ardmore, OK, US/Dennis Fine, Daniel Wherritt, and Lloyd Sumner" "instrument type=LC-ESI-TOF" "instrument=impact HD" "ionization=ESI" "ionization mode=negative" "ms level=MS2" "precursor m/z=431.0985" "isolation width=5" "collision gas=Nitrogen" "collision energy=20" "peak width=0.013" "date=2014-08-05 20:28:37+02:00" "column=Waters Acquity BEH C18 1.7um x 2.1 x 150 mm" "retention time=324" "raw data file=C:\Data\Confirmed standards 24_July_2014\MSMS\Genistin vial 20 50%MeOH_1-F,4_01_538.d" "precursor type=[M-H]-" "mass accuracy=0.2996067024789121" "mass error=1.2916000002860528E-4" "cas number=529-59-9" "SMILES=c1cc(ccc1c2coc3cc(cc(c3c2=O)O)O[C@H]4[C@@H]([C@H]([C@@H]([C@H](O4)CO)O)O)O)O" "InChI=InChI=1S/C21H20O10/c22-7-15-18(26)19(27)20(28)21(31-15)30-11-5-13(24)16-14(6-11)29-8-12(17(16)25)9-1-3-10(23)4-2-9/h1-6,8,15,18-24,26-28H,7H2/t15-,18-,19+,20-,21-/m1/s1" "InChIKey=ZCOLJUOHXJRHDI-CMWLGVBASA-N" "molecular formula=C21H20O10" "total exact mass=432.10564683999996" "SMILES=C1=CC(=CC=C1C2=COC3=CC(=CC(=C3C2=O)O)OC4C(C(C(C(O4)CO)O)O)O)O"
Num Peaks: 38
 239 0.900901; 
 253 1.101101; 
 268 39.039039; 
 269 100.000000; 
 270 13.313313; 
 271 1.201201; 
 283 1.601602; 
 311 3.403403; 
 431 96.996997; 
 431 0.700701; 
 432 20.420420; 
 433 1.501502; 
 613 0.700701; 
 638 0.700701; 
 798 0.700701; 
 844 0.700701; 
 869 0.800801; 
 920 0.900901; 
 985 0.900901; 
 1005 0.900901; 
 1050 0.800801; 
 1103 0.800801; 
 1128 0.800801; 
 1141 0.900901; 
 1188 0.800801; 
 1215 0.800801; 
 1226 1.301301; 
 1249 1.001001; 
 1254 0.900901; 
 1257 0.800801; 
 1258 0.800801; 
 1275 1.001001; 
 1293 0.800801; 
 1370 0.900901; 
 1390 0.800801; 
 1396 0.800801; 
 1400 0.900901; 
 1452 0.800801; 


Name: Resveratrol
SYNON: $:00in-source
DB#: MetaboBASE0068
InChIKey: LUKBXSAWLPMMSZ-OWOJBTEDSA-N
Instrument_type: LC-ESI-TOF
Instrument: impact HD
Ion_mode: N
InChIKey: LUKBXSAWLPMMSZ-OWOJBTEDSA-N
Formula: C14H12O3
MW: 228
ExactMass: 228.07864424399997
Comments: "license=License CC-BY-NC-SA 4.0 International" "author=Plant Biology, The Noble Foundation, Ardmore, OK, US/Dennis Fine, Daniel Wherritt, and Lloyd Sumner" "instrument type=LC-ESI-TOF" "instrument=impact HD" "ionization=ESI" "ionization mode=negative" "collision gas=Nitrogen" "peak width=0.0078" "date=2013-07-02 11:49:07+02:00" "column=Waters Acquity BEH C18 1.7um x 2.1 x 150 mm" "retention time=386.4" "raw data file=D:\Data\Confirmed Standards\Reinjection_1uL\Resveratrol (vial 21).d" "cas number=501-36-0" "SMILES=c1cc(ccc1/C=C/c2cc(cc(c2)O)O)O" "InChI=InChI=1S/C14H12O3/c15-12-5-3-10(4-6-12)1-2-11-7-13(16)9-14(17)8-11/h1-9,15-17H/b2-1+" "InChIKey=LUKBXSAWLPMMSZ-OWOJBTEDSA-N" "molecular formula=C14H12O3" "total exact mass=228.07864424399997" "SMILES=C1=CC(=CC=C1C=CC2=CC(=CC(=C2)O)O)O"
Num Peaks: 12
 143 0.800801; 
 183 0.700701; 
 185 2.602603; 
 186 0.300300; 
 225 0.600601; 
 226 0.300300; 
 227 100.000000; 
 228 16.916917; 
 229 1.901902; 
 243 0.300300; 
 295 0.700701; 
 453 1.701702; 


Name: Resveratrol
SYNON: $:00in-source
DB#: MetaboBASE0069
InChIKey: LUKBXSAWLPMMSZ-OWOJBTEDSA-N
Precursor_type: [M-H]-
Spectrum_type: MS2
PrecursorMZ: 227.1
Instrument_type: LC-ESI-TOF
Instrument: impact HD
Ion_mode: N
Collision_energy: 50
InChIKey: LUKBXSAWLPMMSZ-OWOJBTEDSA-N
Formula: C14H12O3
MW: 228
ExactMass: 228.078644244
Comments: "license=License CC-BY-NC-SA 4.0 International" "author=Plant Biology, The Noble Foundation, Ardmore, OK, US/Dennis Fine, Daniel Wherritt, and Lloyd Sumner" "instrument type=LC-ESI-TOF" "instrument=impact HD" "ionization=ESI" "ionization mode=negative" "ms level=MS2" "precursor m/z=227.1" "isolation width=5" "collision gas=Nitrogen" "collision energy=50" "peak width=0.022" "date=2013-11-15 23:44:41+01:00" "column=Waters Acquity BEH C18 1.7um x 2.1 x 150 mm" "retention time=386.4" "raw data file=G:\Sumner Lab Data Management Workspace Jun2013\Instrumentation\Bruker maXis QToF MS\Data\Z Lei Confirmed Standards\Confirmed stds MSMS 14Nov13\Resveratrol MSMS (vial 21).d" "precursor type=[M-H]-" "mass accuracy=126.075543813217" "mass error=0.02863175599998158" "cas number=501-36-0" "SMILES=c1cc(ccc1/C=C/c2cc(cc(c2)O)O)O" "InChI=InChI=1S/C14H12O3/c15-12-5-3-10(4-6-12)1-2-11-7-13(16)9-14(17)8-11/h1-9,15-17H/b2-1+" "InChIKey=LUKBXSAWLPMMSZ-OWOJBTEDSA-N" "molecular formula=C14H12O3" "total exact mass=228.078644244" "SMILES=C1=CC(=CC=C1C=CC2=CC(=CC(=C2)O)O)O"
Num Peaks: 4
 115 100.000000; 
 117 50.650651; 
 119 30.830831; 
 143 60.760761; 


Name: Resveratrol
SYNON: $:00in-source
DB#: MetaboBASE0070
InChIKey: LUKBXSAWLPMMSZ-OWOJBTEDSA-N
Precursor_type: [M-H]-
Spectrum_type: MS2
PrecursorMZ: 227.1
Instrument_type: LC-ESI-TOF
Instrument: impact HD
Ion_mode: N
Collision_energy: 60
InChIKey: LUKBXSAWLPMMSZ-OWOJBTEDSA-N
Formula: C14H12O3
MW: 228
ExactMass: 228.07864424399997
Comments: "license=License CC-BY-NC-SA 4.0 International" "author=Plant Biology, The Noble Foundation, Ardmore, OK, US/Dennis Fine, Daniel Wherritt, and Lloyd Sumner" "instrument type=LC-ESI-TOF" "instrument=impact HD" "ionization=ESI" "ionization mode=negative" "ms level=MS2" "precursor m/z=227.1" "isolation width=5" "collision gas=Nitrogen" "collision energy=60" "peak width=0.018" "date=2013-11-15 23:44:41+01:00" "column=Waters Acquity BEH C18 1.7um x 2.1 x 150 mm" "retention time=386.4" "raw data file=G:\Sumner Lab Data Management Workspace Jun2013\Instrumentation\Bruker maXis QToF MS\Data\Z Lei Confirmed Standards\Confirmed stds MSMS 14Nov13\Resveratrol MSMS (vial 21).d" "precursor type=[M-H]-" "mass accuracy=126.07554381334214" "mass error=0.02863175600001" "cas number=501-36-0" "SMILES=c1cc(ccc1/C=C/c2cc(cc(c2)O)O)O" "InChI=InChI=1S/C14H12O3/c15-12-5-3-10(4-6-12)1-2-11-7-13(16)9-14(17)8-11/h1-9,15-17H/b2-1+" "InChIKey=LUKBXSAWLPMMSZ-OWOJBTEDSA-N" "molecular formula=C14H12O3" "total exact mass=228.07864424399997" "SMILES=C1=CC(=CC=C1C=CC2=CC(=CC(=C2)O)O)O"
Num Peaks: 4
 115 100.000000; 
 116 29.529530; 
 117 53.053053; 
 119 30.130130; 


Name: Resveratrol
SYNON: $:00in-source
DB#: MetaboBASE0071
InChIKey: LUKBXSAWLPMMSZ-OWOJBTEDSA-N
Precursor_type: [M-H]-
Spectrum_type: MS2
PrecursorMZ: 227.0747
Instrument_type: LC-ESI-TOF
Instrument: impact HD
Ion_mode: N
Collision_energy: 20
InChIKey: LUKBXSAWLPMMSZ-OWOJBTEDSA-N
Formula: C14H12O3
MW: 228
ExactMass: 228.07864424399997
Comments: "license=License CC-BY-NC-SA 4.0 International" "author=Plant Biology, The Noble Foundation, Ardmore, OK, US/Dennis Fine, Daniel Wherritt, and Lloyd Sumner" "instrument type=LC-ESI-TOF" "instrument=impact HD" "ionization=ESI" "ionization mode=negative" "ms level=MS2" "precursor m/z=227.0747" "isolation width=5" "collision gas=Nitrogen" "collision energy=20" "peak width=0.016" "date=2013-11-15 23:44:41+01:00" "column=Waters Acquity BEH C18 1.7um x 2.1 x 150 mm" "retention time=386.4" "raw data file=G:\Sumner Lab Data Management Workspace Jun2013\Instrumentation\Bruker maXis QToF MS\Data\Z Lei Confirmed Standards\Confirmed stds MSMS 14Nov13\Resveratrol MSMS (vial 21).d" "precursor type=[M-H]-" "mass accuracy=14.672510852256012" "mass error=0.0033317560000227786" "cas number=501-36-0" "SMILES=c1cc(ccc1/C=C/c2cc(cc(c2)O)O)O" "InChI=InChI=1S/C14H12O3/c15-12-5-3-10(4-6-12)1-2-11-7-13(16)9-14(17)8-11/h1-9,15-17H/b2-1+" "InChIKey=LUKBXSAWLPMMSZ-OWOJBTEDSA-N" "molecular formula=C14H12O3" "total exact mass=228.07864424399997" "SMILES=C1=CC(=CC=C1C=CC2=CC(=CC(=C2)O)O)O"
Num Peaks: 11
 119 2.402402; 
 141 2.702703; 
 143 14.014014; 
 157 3.403403; 
 159 4.004004; 
 182 2.302302; 
 183 7.107107; 
 185 24.124124; 
 186 2.902903; 
 227 100.000000; 
 228 10.110110; 


Name: Resveratrol
SYNON: $:00in-source
DB#: MetaboBASE0072
InChIKey: LUKBXSAWLPMMSZ-OWOJBTEDSA-N
Precursor_type: [M-H]-
Spectrum_type: MS2
PrecursorMZ: 227.1
Instrument_type: LC-ESI-TOF
Instrument: impact HD
Ion_mode: N
Collision_energy: 40
InChIKey: LUKBXSAWLPMMSZ-OWOJBTEDSA-N
Formula: C14H12O3
MW: 228
ExactMass: 228.07864424399997
Comments: "license=License CC-BY-NC-SA 4.0 International" "author=Plant Biology, The Noble Foundation, Ardmore, OK, US/Dennis Fine, Daniel Wherritt, and Lloyd Sumner" "instrument type=LC-ESI-TOF" "instrument=impact HD" "ionization=ESI" "ionization mode=negative" "ms level=MS2" "precursor m/z=227.1" "isolation width=5" "collision gas=Nitrogen" "collision energy=40" "peak width=0.022" "date=2013-11-15 23:44:41+01:00" "column=Waters Acquity BEH C18 1.7um x 2.1 x 150 mm" "retention time=386.4" "raw data file=G:\Sumner Lab Data Management Workspace Jun2013\Instrumentation\Bruker maXis QToF MS\Data\Z Lei Confirmed Standards\Confirmed stds MSMS 14Nov13\Resveratrol MSMS (vial 21).d" "precursor type=[M-H]-" "mass accuracy=126.07554381334214" "mass error=0.02863175600001" "cas number=501-36-0" "SMILES=c1cc(ccc1/C=C/c2cc(cc(c2)O)O)O" "InChI=InChI=1S/C14H12O3/c15-12-5-3-10(4-6-12)1-2-11-7-13(16)9-14(17)8-11/h1-9,15-17H/b2-1+" "InChIKey=LUKBXSAWLPMMSZ-OWOJBTEDSA-N" "molecular formula=C14H12O3" "total exact mass=228.07864424399997" "SMILES=C1=CC(=CC=C1C=CC2=CC(=CC(=C2)O)O)O"
Num Peaks: 5
 115 62.462462; 
 117 27.327327; 
 119 19.619620; 
 143 100.000000; 
 144 18.718719; 


Name: 3,5-Dimethoxy-4-hydroxyacetophenone
SYNON: $:00in-source
DB#: MetaboBASE0073
InChIKey: OJOBTAOGJIWAGB-UHFFFAOYSA-N
Instrument_type: LC-ESI-TOF
Instrument: impact HD
Ion_mode: N
InChIKey: OJOBTAOGJIWAGB-UHFFFAOYSA-N
Formula: C10H12O4
MW: 196
ExactMass: 196.073558864
Comments: "license=License CC-BY-NC-SA 4.0 International" "author=Plant Biology, The Noble Foundation, Ardmore, OK, US/Dennis Fine, Daniel Wherritt, and Lloyd Sumner" "instrument type=LC-ESI-TOF" "instrument=impact HD" "ionization=ESI" "ionization mode=negative" "collision gas=Nitrogen" "peak width=0.0083" "date=2013-06-22 18:02:21+02:00" "column=Waters Acquity BEH C18 1.7um x 2.1 x 150 mm" "retention time=287.4" "raw data file=D:\Data\Confirmed Standards\3,5-Dimethoxy4hydroxyacetophen.d" "cas number=2478-38-8" "SMILES=CC(=O)c1cc(c(c(c1)OC)O)OC" "InChI=InChI=1S/C10H12O4/c1-6(11)7-4-8(13-2)10(12)9(5-7)14-3/h4-5,12H,1-3H3" "InChIKey=OJOBTAOGJIWAGB-UHFFFAOYSA-N" "molecular formula=C10H12O4" "total exact mass=196.073558864" "SMILES=CC(=O)C1=CC(=C(C(=C1)OC)O)OC"
Num Peaks: 22
 165 17.117117; 
 180 33.133133; 
 195 100.000000; 
 196 9.509510; 
 253 7.507508; 
 263 22.622623; 
 286 6.506507; 
 297 8.708709; 
 307 30.430430; 
 325 30.230230; 
 330 7.007007; 
 331 9.409409; 
 340 6.906907; 
 369 9.709710; 
 397 28.628629; 
 413 34.434434; 
 414 7.207207; 
 475 10.410410; 
 481 9.809810; 
 491 12.212212; 
 534 6.206206; 
 686 6.806807; 


Name: Anthranilic acid
SYNON: $:00in-source
DB#: MetaboBASE0074
InChIKey: RWZYAGGXGHYGMB-UHFFFAOYSA-N
Instrument_type: LC-ESI-TOF
Instrument: impact HD
Ion_mode: N
InChIKey: RWZYAGGXGHYGMB-UHFFFAOYSA-N
Formula: C7H7NO2
MW: 137
ExactMass: 137.047678464
Comments: "license=License CC-BY-NC-SA 4.0 International" "author=Plant Biology, The Noble Foundation, Ardmore, OK, US/Dennis Fine, Daniel Wherritt, and Lloyd Sumner" "instrument type=LC-ESI-TOF" "instrument=impact HD" "ionization=ESI" "ionization mode=negative" "collision gas=Nitrogen" "peak width=0.029" "date=2013-09-03 22:35:51+02:00" "column=Waters Acquity BEH C18 1.7um x 2.1 x 150 mm" "retention time=203.4" "raw data file=D:\Data\Confirmed Standards\Reinjection 2 uL\Anthranilic acid  vial 29).d" "cas number=118-92-3" "SMILES=c1ccc(c(c1)C(=O)O)N" "InChI=InChI=1S/C7H7NO2/c8-6-4-2-1-3-5(6)7(9)10/h1-4H,8H2,(H,9,10)" "InChIKey=RWZYAGGXGHYGMB-UHFFFAOYSA-N" "molecular formula=C7H7NO2" "total exact mass=137.047678464" "SMILES=C1=CC=C(C(=C1)C(=O)O)N"
Num Peaks: 24
 136 48.748749; 
 137 3.203203; 
 217 5.705706; 
 218 16.616617; 
 219 3.203203; 
 266 3.803804; 
 275 3.403403; 
 279 4.004004; 
 284 6.106106; 
 295 100.000000; 
 296 14.914915; 
 297 20.120120; 
 298 3.603604; 
 319 4.104104; 
 324 5.705706; 
 326 88.088088; 
 327 19.519520; 
 329 3.903904; 
 350 3.203203; 
 357 16.916917; 
 358 3.103103; 
 448 20.620621; 
 449 5.405405; 
 644 3.203203; 


Name: Rutin
SYNON: $:00in-source
DB#: MetaboBASE0075
InChIKey: IKGXIBQEEMLURG-NVPNHPEKSA-N
Instrument_type: LC-ESI-TOF
Instrument: impact HD
Ion_mode: N
InChIKey: IKGXIBQEEMLURG-NVPNHPEKSA-N
Formula: C27H30O16
MW: 610
ExactMass: 610.1533848800001
Comments: "license=License CC-BY-NC-SA 4.0 International" "author=Plant Biology, The Noble Foundation, Ardmore, OK, US/Dennis Fine, Daniel Wherritt, and Lloyd Sumner" "instrument type=LC-ESI-TOF" "instrument=impact HD" "ionization=ESI" "ionization mode=negative" "collision gas=Nitrogen" "peak width=0.023" "date=2013-09-04 03:44:39+02:00" "column=Waters Acquity BEH C18 1.7um x 2.1 x 150 mm" "retention time=295.2" "raw data file=D:\Data\Confirmed Standards\Reinjection 2 uL\Rutin (vial 33).d" "cas number=153-18-4" "SMILES=C[C@H]1[C@@H]([C@H]([C@H]([C@@H](O1)OC[C@@H]2[C@H]([C@@H]([C@H]([C@@H](O2)Oc3c(=O)c4c(cc(cc4oc3c5ccc(c(c5)O)O)O)O)O)O)O)O)O)O" "InChI=InChI=1S/C27H30O16/c1-8-17(32)20(35)22(37)26(40-8)39-7-15-18(33)21(36)23(38)27(42-15)43-25-19(34)16-13(31)5-10(28)6-14(16)41-24(25)9-2-3-11(29)12(30)4-9/h2-6,8,15,17-18,20-23,26-33,35-38H,7H2,1H3/t8-,15+,17-,18+,20+,21-,22+,23+,26+,27-/m0/s1" "InChIKey=IKGXIBQEEMLURG-NVPNHPEKSA-N" "molecular formula=C27H30O16" "total exact mass=610.1533848800001" "SMILES=CC1C(C(C(C(O1)OCC2C(C(C(C(O2)OC3=C(OC4=CC(=CC(=C4C3=O)O)O)C5=CC(=C(C=C5)O)O)O)O)O)O)O)O"
Num Peaks: 12
 607 50.650651; 
 608 13.113113; 
 609 100.000000; 
 610 24.424424; 
 611 5.105105; 
 625 2.602603; 
 677 2.302302; 
 1215 1.001001; 
 1217 7.107107; 
 1218 4.004004; 
 1219 5.405405; 
 1220 2.302302; 


Name: Rutin
SYNON: $:00in-source
DB#: MetaboBASE0076
InChIKey: IKGXIBQEEMLURG-NVPNHPEKSA-N
Instrument_type: LC-ESI-TOF
Instrument: impact HD
Ion_mode: N
Collision_energy: 10
InChIKey: IKGXIBQEEMLURG-NVPNHPEKSA-N
Formula: C27H30O16
MW: 610
ExactMass: 610.15338488
Comments: "license=License CC-BY-NC-SA 4.0 International" "author=Plant Biology, The Noble Foundation, Ardmore, OK, US/Dennis Fine, Daniel Wherritt, and Lloyd Sumner" "instrument type=LC-ESI-TOF" "instrument=impact HD" "ionization=ESI" "ionization mode=negative" "collision gas=Nitrogen" "collision energy=10" "peak width=0.011" "date=2014-08-13 17:01:40+02:00" "column=Waters Acquity BEH C18 1.7um x 2.1 x 150 mm" "retention time=295.2" "raw data file=C:\Data\Confirmed standards 24_July_2014\Z Lei std 24July2014 new col_1-F,8_01_604.d" "cas number=153-18-4" "SMILES=C[C@H]1[C@@H]([C@H]([C@H]([C@@H](O1)OC[C@@H]2[C@H]([C@@H]([C@H]([C@@H](O2)Oc3c(=O)c4c(cc(cc4oc3c5ccc(c(c5)O)O)O)O)O)O)O)O)O)O" "InChI=InChI=1S/C27H30O16/c1-8-17(32)20(35)22(37)26(40-8)39-7-15-18(33)21(36)23(38)27(42-15)43-25-19(34)16-13(31)5-10(28)6-14(16)41-24(25)9-2-3-11(29)12(30)4-9/h2-6,8,15,17-18,20-23,26-33,35-38H,7H2,1H3/t8-,15+,17-,18+,20+,21-,22+,23+,26+,27-/m0/s1" "InChIKey=IKGXIBQEEMLURG-NVPNHPEKSA-N" "molecular formula=C27H30O16" "total exact mass=610.15338488" "SMILES=CC1C(C(C(C(O1)OCC2C(C(C(C(O2)OC3=C(OC4=CC(=CC(=C4C3=O)O)O)C5=CC(=C(C=C5)O)O)O)O)O)O)O)O"
Num Peaks: 17
 607 10.210210; 
 608 3.403403; 
 609 100.000000; 
 609 0.100100; 
 610 32.732733; 
 611 8.908909; 
 612 1.801802; 
 677 2.602603; 
 678 0.300300; 
 708 2.202202; 
 709 0.500501; 
 1217 2.802803; 
 1218 1.701702; 
 1219 10.410410; 
 1220 6.106106; 
 1221 2.502503; 
 1222 0.500501; 


Name: Rutin
SYNON: $:00in-source
DB#: MetaboBASE0077
InChIKey: IKGXIBQEEMLURG-NVPNHPEKSA-N
Precursor_type: [M-H]-
Spectrum_type: MS2
PrecursorMZ: 609.142
Instrument_type: LC-ESI-TOF
Instrument: impact HD
Ion_mode: N
Collision_energy: 40
InChIKey: IKGXIBQEEMLURG-NVPNHPEKSA-N
Formula: C27H30O16
MW: 610
ExactMass: 610.15338488
Comments: "license=License CC-BY-NC-SA 4.0 International" "author=Plant Biology, The Noble Foundation, Ardmore, OK, US/Dennis Fine, Daniel Wherritt, and Lloyd Sumner" "instrument type=LC-ESI-TOF" "instrument=impact HD" "ionization=ESI" "ionization mode=negative" "ms level=MS2" "precursor m/z=609.142" "isolation width=5" "collision gas=Nitrogen" "collision energy=40" "peak width=0.026" "date=2013-09-05 17:43:31+02:00" "column=Waters Acquity BEH C18 1.7um x 2.1 x 150 mm" "retention time=295.2" "raw data file=C:\Data\Confirmed Standards\Reinjection 2 uL\MSMS\Rutin (vial 33) MSMS.d" "precursor type=[M-H]-" "mass accuracy=6.745356583318963" "mass error=-0.0041088799998760805" "cas number=153-18-4" "SMILES=C[C@H]1[C@@H]([C@H]([C@H]([C@@H](O1)OC[C@@H]2[C@H]([C@@H]([C@H]([C@@H](O2)Oc3c(=O)c4c(cc(cc4oc3c5ccc(c(c5)O)O)O)O)O)O)O)O)O)O" "InChI=InChI=1S/C27H30O16/c1-8-17(32)20(35)22(37)26(40-8)39-7-15-18(33)21(36)23(38)27(42-15)43-25-19(34)16-13(31)5-10(28)6-14(16)41-24(25)9-2-3-11(29)12(30)4-9/h2-6,8,15,17-18,20-23,26-33,35-38H,7H2,1H3/t8-,15+,17-,18+,20+,21-,22+,23+,26+,27-/m0/s1" "InChIKey=IKGXIBQEEMLURG-NVPNHPEKSA-N" "molecular formula=C27H30O16" "total exact mass=610.15338488" "SMILES=CC1C(C(C(C(O1)OCC2C(C(C(C(O2)OC3=C(OC4=CC(=CC(=C4C3=O)O)O)C5=CC(=C(C=C5)O)O)O)O)O)O)O)O"
Num Peaks: 33
 178 0.500501; 
 227 0.500501; 
 241 1.401401; 
 242 1.901902; 
 243 1.101101; 
 245 1.101101; 
 246 0.400400; 
 255 1.501502; 
 256 0.400400; 
 270 13.613614; 
 271 11.311311; 
 272 2.802803; 
 273 0.500501; 
 273 0.600601; 
 283 0.600601; 
 285 0.400400; 
 298 12.212212; 
 299 26.026026; 
 300 100.000000; 
 301 50.450450; 
 302 5.905906; 
 303 0.700701; 
 311 0.400400; 
 313 1.001001; 
 341 1.101101; 
 342 0.400400; 
 343 1.001001; 
 579 0.600601; 
 607 2.002002; 
 608 1.201201; 
 609 15.115115; 
 610 3.403403; 
 611 1.001001; 


Name: 6,8-Diprenylnaringenin
SYNON: $:00in-source
DB#: MetaboBASE0078
InChIKey: HCNLDGTUMBOHKT-NRFANRHFSA-N
Precursor_type: [M-H]-
Spectrum_type: MS2
PrecursorMZ: 407.186
Instrument_type: LC-ESI-TOF
Instrument: impact HD
Ion_mode: N
Collision_energy: 20
InChIKey: HCNLDGTUMBOHKT-NRFANRHFSA-N
Formula: C25H28O5
MW: 408
ExactMass: 408.193673996
Comments: "license=License CC-BY-NC-SA 4.0 International" "author=Plant Biology, The Noble Foundation, Ardmore, OK, US/Dennis Fine, Daniel Wherritt, and Lloyd Sumner" "instrument type=LC-ESI-TOF" "instrument=impact HD" "ionization=ESI" "ionization mode=negative" "ms level=MS2" "precursor m/z=407.186" "isolation width=5" "collision gas=Nitrogen" "collision energy=20" "peak width=0.012" "date=2014-01-10 09:14:27+01:00" "column=Waters Acquity BEH C18 1.7um x 2.1 x 150 mm" "retention time=1440.6" "raw data file=C:\Data\Confirmed Standards\14Jan9 Confirmed stds MSMS\6,8-Diprenylnaringen (vial 49).d" "precursor type=[M-H]-" "mass accuracy=0.9774304617638778" "mass error=-3.979960000037863E-4" "cas number=68236-11-3" "SMILES=CC(=CCc1c(c(c2c(c1O)C(=O)C[C@H](O2)c3ccc(cc3)O)CC=C(C)C)O)C" "InChI=InChI=1S/C25H28O5/c1-14(2)5-11-18-23(28)19(12-6-15(3)4)25-22(24(18)29)20(27)13-21(30-25)16-7-9-17(26)10-8-16/h5-10,21,26,28-29H,11-13H2,1-4H3/t21-/m0/s1" "InChIKey=HCNLDGTUMBOHKT-NRFANRHFSA-N" "molecular formula=C25H28O5" "total exact mass=408.193673996" "SMILES=O=C1C=2C(OC(C=3C=CC(O)=CC3)C1)=C(C(O)=C(C2O)CC=C(C)C)CC=C(C)C"
Num Peaks: 5
 287 9.809810; 
 288 2.702703; 
 407 100.000000; 
 408 19.019019; 
 409 2.802803; 


Name: 6,8-Diprenylnaringenin
SYNON: $:00in-source
DB#: MetaboBASE0079
InChIKey: HCNLDGTUMBOHKT-NRFANRHFSA-N
Precursor_type: [M-H]-
Spectrum_type: MS2
PrecursorMZ: 407.1858
Instrument_type: LC-ESI-TOF
Instrument: impact HD
Ion_mode: N
Collision_energy: 10
InChIKey: HCNLDGTUMBOHKT-NRFANRHFSA-N
Formula: C25H28O5
MW: 408
ExactMass: 408.193673996
Comments: "license=License CC-BY-NC-SA 4.0 International" "author=Plant Biology, The Noble Foundation, Ardmore, OK, US/Dennis Fine, Daniel Wherritt, and Lloyd Sumner" "instrument type=LC-ESI-TOF" "instrument=impact HD" "ionization=ESI" "ionization mode=negative" "ms level=MS2" "precursor m/z=407.1858" "isolation width=5" "collision gas=Nitrogen" "collision energy=10" "peak width=0.011" "date=2014-01-10 09:14:27+01:00" "column=Waters Acquity BEH C18 1.7um x 2.1 x 150 mm" "retention time=1440.6" "raw data file=C:\Data\Confirmed Standards\14Jan9 Confirmed stds MSMS\6,8-Diprenylnaringen (vial 49).d" "precursor type=[M-H]-" "mass accuracy=1.4686072058761028" "mass error=-5.979960000104256E-4" "cas number=68236-11-3" "SMILES=CC(=CCc1c(c(c2c(c1O)C(=O)C[C@H](O2)c3ccc(cc3)O)CC=C(C)C)O)C" "InChI=InChI=1S/C25H28O5/c1-14(2)5-11-18-23(28)19(12-6-15(3)4)25-22(24(18)29)20(27)13-21(30-25)16-7-9-17(26)10-8-16/h5-10,21,26,28-29H,11-13H2,1-4H3/t21-/m0/s1" "InChIKey=HCNLDGTUMBOHKT-NRFANRHFSA-N" "molecular formula=C25H28O5" "total exact mass=408.193673996" "SMILES=O=C1C=2C(OC(C=3C=CC(O)=CC3)C1)=C(C(O)=C(C2O)CC=C(C)C)CC=C(C)C"
Num Peaks: 3
 407 100.000000; 
 408 19.619620; 
 409 2.602603; 


Name: 6,8-Diprenylnaringenin
SYNON: $:00in-source
DB#: MetaboBASE0080
InChIKey: HCNLDGTUMBOHKT-NRFANRHFSA-N
Instrument_type: LC-ESI-TOF
Instrument: impact HD
Ion_mode: N
InChIKey: HCNLDGTUMBOHKT-NRFANRHFSA-N
Formula: C25H28O5
MW: 408
ExactMass: 408.193673996
Comments: "license=License CC-BY-NC-SA 4.0 International" "author=Plant Biology, The Noble Foundation, Ardmore, OK, US/Dennis Fine, Daniel Wherritt, and Lloyd Sumner" "instrument type=LC-ESI-TOF" "instrument=impact HD" "ionization=ESI" "ionization mode=negative" "collision gas=Nitrogen" "peak width=0.0091" "date=2013-07-03 06:50:41+02:00" "column=Waters Acquity BEH C18 1.7um x 2.1 x 150 mm" "retention time=1438.2" "raw data file=D:\Data\Confirmed Standards\Reinjection_1uL\6,8-Diprenylnaringenin.d" "cas number=68236-11-3" "SMILES=CC(=CCc1c(c(c2c(c1O)C(=O)C[C@H](O2)c3ccc(cc3)O)CC=C(C)C)O)C" "InChI=InChI=1S/C25H28O5/c1-14(2)5-11-18-23(28)19(12-6-15(3)4)25-22(24(18)29)20(27)13-21(30-25)16-7-9-17(26)10-8-16/h5-10,21,26,28-29H,11-13H2,1-4H3/t21-/m0/s1" "InChIKey=HCNLDGTUMBOHKT-NRFANRHFSA-N" "molecular formula=C25H28O5" "total exact mass=408.193673996" "SMILES=O=C1C=2C(OC(C=3C=CC(O)=CC3)C1)=C(C(O)=C(C2O)CC=C(C)C)CC=C(C)C"
Num Peaks: 7
 304 0.200200; 
 381 0.900901; 
 382 0.200200; 
 407 100.000000; 
 408 28.528529; 
 409 4.804805; 
 410 0.600601; 


Name: 6,8-Diprenylnaringenin
SYNON: $:00in-source
DB#: MetaboBASE0081
InChIKey: HCNLDGTUMBOHKT-NRFANRHFSA-N
Instrument_type: LC-ESI-TOF
Instrument: impact HD
Ion_mode: N
InChIKey: HCNLDGTUMBOHKT-NRFANRHFSA-N
Formula: C25H28O5
MW: 408
ExactMass: 408.193673996
Comments: "license=License CC-BY-NC-SA 4.0 International" "author=Plant Biology, The Noble Foundation, Ardmore, OK, US/Dennis Fine, Daniel Wherritt, and Lloyd Sumner" "instrument type=LC-ESI-TOF" "instrument=impact HD" "ionization=ESI" "ionization mode=negative" "collision gas=Nitrogen" "peak width=0.011" "date=2014-01-10 09:14:27+01:00" "column=Waters Acquity BEH C18 1.7um x 2.1 x 150 mm" "retention time=1440.6" "raw data file=C:\Data\Confirmed Standards\14Jan9 Confirmed stds MSMS\6,8-Diprenylnaringen (vial 49).d" "cas number=68236-11-3" "SMILES=CC(=CCc1c(c(c2c(c1O)C(=O)C[C@H](O2)c3ccc(cc3)O)CC=C(C)C)O)C" "InChI=InChI=1S/C25H28O5/c1-14(2)5-11-18-23(28)19(12-6-15(3)4)25-22(24(18)29)20(27)13-21(30-25)16-7-9-17(26)10-8-16/h5-10,21,26,28-29H,11-13H2,1-4H3/t21-/m0/s1" "InChIKey=HCNLDGTUMBOHKT-NRFANRHFSA-N" "molecular formula=C25H28O5" "total exact mass=408.193673996" "SMILES=O=C1C=2C(OC(C=3C=CC(O)=CC3)C1)=C(C(O)=C(C2O)CC=C(C)C)CC=C(C)C"
Num Peaks: 8
 112 3.303303; 
 248 5.905906; 
 316 4.504505; 
 378 2.202202; 
 384 2.302302; 
 407 100.000000; 
 408 20.620621; 
 409 2.702703; 


Name: 6,8-Diprenylnaringenin
SYNON: $:00in-source
DB#: MetaboBASE0082
InChIKey: HCNLDGTUMBOHKT-NRFANRHFSA-N
Precursor_type: [M-H]-
Spectrum_type: MS2
PrecursorMZ: 407.1852
Instrument_type: LC-ESI-TOF
Instrument: impact HD
Ion_mode: N
Collision_energy: 30
InChIKey: HCNLDGTUMBOHKT-NRFANRHFSA-N
Formula: C25H28O5
MW: 408
ExactMass: 408.193673996
Comments: "license=License CC-BY-NC-SA 4.0 International" "author=Plant Biology, The Noble Foundation, Ardmore, OK, US/Dennis Fine, Daniel Wherritt, and Lloyd Sumner" "instrument type=LC-ESI-TOF" "instrument=impact HD" "ionization=ESI" "ionization mode=negative" "ms level=MS2" "precursor m/z=407.1852" "isolation width=5" "collision gas=Nitrogen" "collision energy=30" "peak width=0.014" "date=2014-01-10 09:14:27+01:00" "column=Waters Acquity BEH C18 1.7um x 2.1 x 150 mm" "retention time=1440.6" "raw data file=C:\Data\Confirmed Standards\14Jan9 Confirmed stds MSMS\6,8-Diprenylnaringen (vial 49).d" "precursor type=[M-H]-" "mass accuracy=2.942140333129741" "mass error=-0.0011979959999735001" "cas number=68236-11-3" "SMILES=CC(=CCc1c(c(c2c(c1O)C(=O)C[C@H](O2)c3ccc(cc3)O)CC=C(C)C)O)C" "InChI=InChI=1S/C25H28O5/c1-14(2)5-11-18-23(28)19(12-6-15(3)4)25-22(24(18)29)20(27)13-21(30-25)16-7-9-17(26)10-8-16/h5-10,21,26,28-29H,11-13H2,1-4H3/t21-/m0/s1" "InChIKey=HCNLDGTUMBOHKT-NRFANRHFSA-N" "molecular formula=C25H28O5" "total exact mass=408.193673996" "SMILES=O=C1C=2C(OC(C=3C=CC(O)=CC3)C1)=C(C(O)=C(C2O)CC=C(C)C)CC=C(C)C"
Num Peaks: 13
 119 29.829830; 
 133 2.602603; 
 219 2.602603; 
 243 12.512513; 
 244 4.504505; 
 259 4.704705; 
 261 4.504505; 
 287 100.000000; 
 288 14.414414; 
 301 6.406406; 
 313 5.405405; 
 407 52.052052; 
 408 7.307307; 


Name: 6,8-Diprenylnaringenin
SYNON: $:00in-source
DB#: MetaboBASE0083
InChIKey: HCNLDGTUMBOHKT-NRFANRHFSA-N
Precursor_type: [M-H]-
Spectrum_type: MS2
PrecursorMZ: 407.2
Instrument_type: LC-ESI-TOF
Instrument: impact HD
Ion_mode: N
Collision_energy: 40
InChIKey: HCNLDGTUMBOHKT-NRFANRHFSA-N
Formula: C25H28O5
MW: 408
ExactMass: 408.193673996
Comments: "license=License CC-BY-NC-SA 4.0 International" "author=Plant Biology, The Noble Foundation, Ardmore, OK, US/Dennis Fine, Daniel Wherritt, and Lloyd Sumner" "instrument type=LC-ESI-TOF" "instrument=impact HD" "ionization=ESI" "ionization mode=negative" "ms level=MS2" "precursor m/z=407.2" "isolation width=5" "collision gas=Nitrogen" "collision energy=40" "peak width=0.016" "date=2014-01-10 09:14:27+01:00" "column=Waters Acquity BEH C18 1.7um x 2.1 x 150 mm" "retention time=1440.6" "raw data file=C:\Data\Confirmed Standards\14Jan9 Confirmed stds MSMS\6,8-Diprenylnaringen (vial 49).d" "precursor type=[M-H]-" "mass accuracy=33.40374263262824" "mass error=0.013602004000006218" "cas number=68236-11-3" "SMILES=CC(=CCc1c(c(c2c(c1O)C(=O)C[C@H](O2)c3ccc(cc3)O)CC=C(C)C)O)C" "InChI=InChI=1S/C25H28O5/c1-14(2)5-11-18-23(28)19(12-6-15(3)4)25-22(24(18)29)20(27)13-21(30-25)16-7-9-17(26)10-8-16/h5-10,21,26,28-29H,11-13H2,1-4H3/t21-/m0/s1" "InChIKey=HCNLDGTUMBOHKT-NRFANRHFSA-N" "molecular formula=C25H28O5" "total exact mass=408.193673996" "SMILES=O=C1C=2C(OC(C=3C=CC(O)=CC3)C1)=C(C(O)=C(C2O)CC=C(C)C)CC=C(C)C"
Num Peaks: 11
 119 100.000000; 
 120 11.211211; 
 133 9.709710; 
 219 5.605606; 
 229 7.507508; 
 243 12.212212; 
 245 5.805806; 
 259 5.905906; 
 287 28.228228; 
 288 5.605606; 
 301 5.905906; 


Name: 6-Prenylnaringenin
SYNON: $:00in-source
DB#: MetaboBASE0084
InChIKey: YHWNASRGLKJRJJ-UHFFFAOYSA-N
Precursor_type: [M-H]-
Spectrum_type: MS2
PrecursorMZ: 339.1281
Instrument_type: LC-ESI-TOF
Instrument: impact HD
Ion_mode: N
Collision_energy: 30
InChIKey: YHWNASRGLKJRJJ-UHFFFAOYSA-N
Formula: C20H20O5
MW: 340
ExactMass: 340.13107374000003
Comments: "license=License CC-BY-NC-SA 4.0 International" "author=Plant Biology, The Noble Foundation, Ardmore, OK, US/Dennis Fine, Daniel Wherritt, and Lloyd Sumner" "instrument type=LC-ESI-TOF" "instrument=impact HD" "ionization=ESI" "ionization mode=negative" "ms level=MS2" "precursor m/z=339.1281" "isolation width=5" "collision gas=Nitrogen" "collision energy=30" "peak width=0.016" "date=2013-11-16 01:06:30+01:00" "column=Waters Acquity BEH C18 1.7um x 2.1 x 150 mm" "retention time=1120.8" "raw data file=C:\Data\Confirmed Standards\Confirmed stds MSMS 14Nov13\6-Prenylnaringenin MSMS v48.d" "precursor type=[M-H]-" "mass accuracy=12.686238621849581" "mass error=0.004302259999974467" "cas number=68236-13-5" "SMILES=CC(=CCc1c(cc2c(c1O)C(=O)CC(O2)c3ccc(cc3)O)O)C" "InChI=InChI=1S/C20H20O5/c1-11(2)3-8-14-15(22)9-18-19(20(14)24)16(23)10-17(25-18)12-4-6-13(21)7-5-12/h3-7,9,17,21-22,24H,8,10H2,1-2H3" "InChIKey=YHWNASRGLKJRJJ-UHFFFAOYSA-N" "molecular formula=C20H20O5" "total exact mass=340.13107374000003" "SMILES=CC(=CCC1=C(C=C2C(=C1O)C(=O)CC(O2)C3=CC=C(C=C3)O)O)C" "InChI=InChI=1S/C20H20O5/c1-11(2)3-8-14-15(22)9-18-19(20(14)24)16(23)10-17(25-18)12-4-6-13(21)7-5-12/h3-7,9,17,21-22,24H,8,10H2,1-2H3/t17-/m0/s1" "InChIKey=YHWNASRGLKJRJJ-KRWDZBQOSA-N"
Num Peaks: 15
 119 100.000000; 
 120 9.509510; 
 131 4.004004; 
 133 15.515516; 
 134 2.102102; 
 137 2.402402; 
 151 9.009009; 
 175 9.509510; 
 176 6.706707; 
 191 2.902903; 
 219 58.358358; 
 220 7.107107; 
 233 6.906907; 
 245 4.204204; 
 339 7.707708; 


Name: 6-Prenylnaringenin
SYNON: $:00in-source
DB#: MetaboBASE0085
InChIKey: YHWNASRGLKJRJJ-UHFFFAOYSA-N
Instrument_type: LC-ESI-TOF
Instrument: impact HD
Ion_mode: N
InChIKey: YHWNASRGLKJRJJ-UHFFFAOYSA-N
Formula: C20H20O5
MW: 340
ExactMass: 340.13107374000003
Comments: "license=License CC-BY-NC-SA 4.0 International" "author=Plant Biology, The Noble Foundation, Ardmore, OK, US/Dennis Fine, Daniel Wherritt, and Lloyd Sumner" "instrument type=LC-ESI-TOF" "instrument=impact HD" "ionization=ESI" "ionization mode=negative" "collision gas=Nitrogen" "peak width=0.0062" "date=2013-07-03 06:09:58+02:00" "column=Waters Acquity BEH C18 1.7um x 2.1 x 150 mm" "retention time=1120.8" "raw data file=D:\Data\Confirmed Standards\Reinjection_1uL\6-Prenylnaringenin (vial 48).d" "cas number=68236-13-5" "SMILES=CC(=CCc1c(cc2c(c1O)C(=O)CC(O2)c3ccc(cc3)O)O)C" "InChI=InChI=1S/C20H20O5/c1-11(2)3-8-14-15(22)9-18-19(20(14)24)16(23)10-17(25-18)12-4-6-13(21)7-5-12/h3-7,9,17,21-22,24H,8,10H2,1-2H3" "InChIKey=YHWNASRGLKJRJJ-UHFFFAOYSA-N" "molecular formula=C20H20O5" "total exact mass=340.13107374000003" "SMILES=CC(=CCC1=C(C=C2C(=C1O)C(=O)CC(O2)C3=CC=C(C=C3)O)O)C" "InChI=InChI=1S/C20H20O5/c1-11(2)3-8-14-15(22)9-18-19(20(14)24)16(23)10-17(25-18)12-4-6-13(21)7-5-12/h3-7,9,17,21-22,24H,8,10H2,1-2H3/t17-/m0/s1" "InChIKey=YHWNASRGLKJRJJ-KRWDZBQOSA-N"
Num Peaks: 16
 218 0.200200; 
 219 0.900901; 
 245 0.300300; 
 313 0.600601; 
 339 100.000000; 
 340 23.323323; 
 341 3.403403; 
 342 0.400400; 
 342 0.100100; 
 361 0.200200; 
 407 0.700701; 
 451 0.200200; 
 469 0.200200; 
 679 0.300300; 
 701 0.400400; 
 702 0.200200; 


Name: 6-Prenylnaringenin
SYNON: $:00in-source
DB#: MetaboBASE0086
InChIKey: YHWNASRGLKJRJJ-UHFFFAOYSA-N
Precursor_type: [M-H]-
Spectrum_type: MS2
PrecursorMZ: 339.1
Instrument_type: LC-ESI-TOF
Instrument: impact HD
Ion_mode: N
Collision_energy: 40
InChIKey: YHWNASRGLKJRJJ-UHFFFAOYSA-N
Formula: C20H20O5
MW: 340
ExactMass: 340.13107374
Comments: "license=License CC-BY-NC-SA 4.0 International" "author=Plant Biology, The Noble Foundation, Ardmore, OK, US/Dennis Fine, Daniel Wherritt, and Lloyd Sumner" "instrument type=LC-ESI-TOF" "instrument=impact HD" "ionization=ESI" "ionization mode=negative" "ms level=MS2" "precursor m/z=339.1" "isolation width=5" "collision gas=Nitrogen" "collision energy=40" "peak width=0.017" "date=2013-11-16 01:06:30+01:00" "column=Waters Acquity BEH C18 1.7um x 2.1 x 150 mm" "retention time=1120.8" "raw data file=C:\Data\Confirmed Standards\Confirmed stds MSMS 14Nov13\6-Prenylnaringenin MSMS v48.d" "precursor type=[M-H]-" "mass accuracy=70.17912120307754" "mass error=-0.023797739999963596" "cas number=68236-13-5" "SMILES=CC(=CCc1c(cc2c(c1O)C(=O)CC(O2)c3ccc(cc3)O)O)C" "InChI=InChI=1S/C20H20O5/c1-11(2)3-8-14-15(22)9-18-19(20(14)24)16(23)10-17(25-18)12-4-6-13(21)7-5-12/h3-7,9,17,21-22,24H,8,10H2,1-2H3" "InChIKey=YHWNASRGLKJRJJ-UHFFFAOYSA-N" "molecular formula=C20H20O5" "total exact mass=340.13107374" "SMILES=CC(=CCC1=C(C=C2C(=C1O)C(=O)CC(O2)C3=CC=C(C=C3)O)O)C" "InChI=InChI=1S/C20H20O5/c1-11(2)3-8-14-15(22)9-18-19(20(14)24)16(23)10-17(25-18)12-4-6-13(21)7-5-12/h3-7,9,17,21-22,24H,8,10H2,1-2H3/t17-/m0/s1" "InChIKey=YHWNASRGLKJRJJ-KRWDZBQOSA-N"
Num Peaks: 17
 109 6.806807; 
 117 2.602603; 
 119 100.000000; 
 120 7.607608; 
 131 3.703704; 
 133 18.718719; 
 134 2.102102; 
 136 3.303303; 
 137 2.902903; 
 145 2.402402; 
 147 2.102102; 
 151 8.308308; 
 175 3.903904; 
 176 5.605606; 
 187 2.402402; 
 219 8.408408; 
 233 2.202202; 


Name: 6-Prenylnaringenin
SYNON: $:00in-source
DB#: MetaboBASE0087
InChIKey: YHWNASRGLKJRJJ-UHFFFAOYSA-N
Precursor_type: [M-H]-
Spectrum_type: MS2
PrecursorMZ: 339.1282
Instrument_type: LC-ESI-TOF
Instrument: impact HD
Ion_mode: N
Collision_energy: 10
InChIKey: YHWNASRGLKJRJJ-UHFFFAOYSA-N
Formula: C20H20O5
MW: 340
ExactMass: 340.13107374
Comments: "license=License CC-BY-NC-SA 4.0 International" "author=Plant Biology, The Noble Foundation, Ardmore, OK, US/Dennis Fine, Daniel Wherritt, and Lloyd Sumner" "instrument type=LC-ESI-TOF" "instrument=impact HD" "ionization=ESI" "ionization mode=negative" "ms level=MS2" "precursor m/z=339.1282" "isolation width=5" "collision gas=Nitrogen" "collision energy=10" "peak width=0.0093" "date=2013-11-16 01:06:30+01:00" "column=Waters Acquity BEH C18 1.7um x 2.1 x 150 mm" "retention time=1120.8" "raw data file=C:\Data\Confirmed Standards\Confirmed stds MSMS 14Nov13\6-Prenylnaringenin MSMS v48.d" "precursor type=[M-H]-" "mass accuracy=12.981108619118695" "mass error=0.004402260000006208" "cas number=68236-13-5" "SMILES=CC(=CCc1c(cc2c(c1O)C(=O)CC(O2)c3ccc(cc3)O)O)C" "InChI=InChI=1S/C20H20O5/c1-11(2)3-8-14-15(22)9-18-19(20(14)24)16(23)10-17(25-18)12-4-6-13(21)7-5-12/h3-7,9,17,21-22,24H,8,10H2,1-2H3" "InChIKey=YHWNASRGLKJRJJ-UHFFFAOYSA-N" "molecular formula=C20H20O5" "total exact mass=340.13107374" "SMILES=CC(=CCC1=C(C=C2C(=C1O)C(=O)CC(O2)C3=CC=C(C=C3)O)O)C" "InChI=InChI=1S/C20H20O5/c1-11(2)3-8-14-15(22)9-18-19(20(14)24)16(23)10-17(25-18)12-4-6-13(21)7-5-12/h3-7,9,17,21-22,24H,8,10H2,1-2H3/t17-/m0/s1" "InChIKey=YHWNASRGLKJRJJ-KRWDZBQOSA-N"
Num Peaks: 2
 339 100.000000; 
 340 12.912913; 


Name: 6-Prenylnaringenin
SYNON: $:00in-source
DB#: MetaboBASE0088
InChIKey: YHWNASRGLKJRJJ-UHFFFAOYSA-N
Precursor_type: [M-H]-
Spectrum_type: MS2
PrecursorMZ: 339.1281
Instrument_type: LC-ESI-TOF
Instrument: impact HD
Ion_mode: N
Collision_energy: 20
InChIKey: YHWNASRGLKJRJJ-UHFFFAOYSA-N
Formula: C20H20O5
MW: 340
ExactMass: 340.13107374
Comments: "license=License CC-BY-NC-SA 4.0 International" "author=Plant Biology, The Noble Foundation, Ardmore, OK, US/Dennis Fine, Daniel Wherritt, and Lloyd Sumner" "instrument type=LC-ESI-TOF" "instrument=impact HD" "ionization=ESI" "ionization mode=negative" "ms level=MS2" "precursor m/z=339.1281" "isolation width=5" "collision gas=Nitrogen" "collision energy=20" "peak width=0.012" "date=2013-11-16 01:06:30+01:00" "column=Waters Acquity BEH C18 1.7um x 2.1 x 150 mm" "retention time=1120.8" "raw data file=C:\Data\Confirmed Standards\Confirmed stds MSMS 14Nov13\6-Prenylnaringenin MSMS v48.d" "precursor type=[M-H]-" "mass accuracy=12.686238622017198" "mass error=0.0043022600000313105" "cas number=68236-13-5" "SMILES=CC(=CCc1c(cc2c(c1O)C(=O)CC(O2)c3ccc(cc3)O)O)C" "InChI=InChI=1S/C20H20O5/c1-11(2)3-8-14-15(22)9-18-19(20(14)24)16(23)10-17(25-18)12-4-6-13(21)7-5-12/h3-7,9,17,21-22,24H,8,10H2,1-2H3" "InChIKey=YHWNASRGLKJRJJ-UHFFFAOYSA-N" "molecular formula=C20H20O5" "total exact mass=340.13107374" "SMILES=CC(=CCC1=C(C=C2C(=C1O)C(=O)CC(O2)C3=CC=C(C=C3)O)O)C" "InChI=InChI=1S/C20H20O5/c1-11(2)3-8-14-15(22)9-18-19(20(14)24)16(23)10-17(25-18)12-4-6-13(21)7-5-12/h3-7,9,17,21-22,24H,8,10H2,1-2H3/t17-/m0/s1" "InChIKey=YHWNASRGLKJRJJ-KRWDZBQOSA-N"
Num Peaks: 7
 119 7.407407; 
 219 24.024024; 
 220 3.003003; 
 233 2.602603; 
 245 3.603604; 
 339 100.000000; 
 340 12.812813; 


Name: Cohumulone
SYNON: $:00in-source
DB#: MetaboBASE0089
InChIKey: DRSITEVYZGOOQG-UHFFFAOYSA-N
Instrument_type: LC-ESI-TOF
Instrument: impact HD
Ion_mode: N
InChIKey: DRSITEVYZGOOQG-UHFFFAOYSA-N
Formula: C20H28O5
MW: 348
ExactMass: 348.19367399600003
Comments: "license=License CC-BY-NC-SA 4.0 International" "author=Plant Biology, The Noble Foundation, Ardmore, OK, US/Dennis Fine, Daniel Wherritt, and Lloyd Sumner" "instrument type=LC-ESI-TOF" "instrument=impact HD" "ionization=ESI" "ionization mode=negative" "collision gas=Nitrogen" "peak width=0.0084" "date=2013-07-03 03:27:04+02:00" "column=Waters Acquity BEH C18 1.7um x 2.1 x 150 mm" "retention time=1495.2" "raw data file=D:\Data\Confirmed Standards\Reinjection_1uL\Cohumulone (vial 44).d" "cas number=142628-20-4" "SMILES=CC(C)C(=O)C1=C(C(=C(C(C1=O)(CC=C(C)C)O)O)CC=C(C)C)O" "InChI=InChI=1S/C20H28O5/c1-11(2)7-8-14-17(22)15(16(21)13(5)6)19(24)20(25,18(14)23)10-9-12(3)4/h7,9,13,22-23,25H,8,10H2,1-6H3" "InChIKey=DRSITEVYZGOOQG-UHFFFAOYSA-N" "molecular formula=C20H28O5" "total exact mass=348.19367399600003" "SMILES=CC(C)C(=O)C1=C(C(=C(C(C1=O)(CC=C(C)C)O)O)CC=C(C)C)O"
Num Peaks: 27
 112 1.701702; 
 242 1.101101; 
 242 0.200200; 
 278 59.659660; 
 278 1.801802; 
 279 0.200200; 
 279 8.008008; 
 279 0.600601; 
 292 0.600601; 
 293 1.601602; 
 304 1.001001; 
 316 1.201201; 
 346 0.200200; 
 346 0.700701; 
 346 0.200200; 
 346 0.200200; 
 346 0.200200; 
 347 100.000000; 
 348 22.722723; 
 348 0.300300; 
 348 0.200200; 
 348 0.500501; 
 362 0.200200; 
 362 0.200200; 
 363 2.402402; 
 363 0.800801; 
 363 0.200200; 


Name: Cohumulone
SYNON: $:00in-source
DB#: MetaboBASE0090
InChIKey: DRSITEVYZGOOQG-UHFFFAOYSA-N
Precursor_type: [M-H]-
Spectrum_type: MS2
PrecursorMZ: 347.2
Instrument_type: LC-ESI-TOF
Instrument: impact HD
Ion_mode: N
Collision_energy: 40
InChIKey: DRSITEVYZGOOQG-UHFFFAOYSA-N
Formula: C20H28O5
MW: 348
ExactMass: 348.193673996
Comments: "license=License CC-BY-NC-SA 4.0 International" "author=Plant Biology, The Noble Foundation, Ardmore, OK, US/Dennis Fine, Daniel Wherritt, and Lloyd Sumner" "instrument type=LC-ESI-TOF" "instrument=impact HD" "ionization=ESI" "ionization mode=negative" "ms level=MS2" "precursor m/z=347.2" "isolation width=5" "collision gas=Nitrogen" "collision energy=40" "peak width=0.01" "date=2014-01-10 07:52:53+01:00" "column=Waters Acquity BEH C18 1.7um x 2.1 x 150 mm" "retention time=1490.4" "raw data file=C:\Data\Confirmed Standards\14Jan9 Confirmed stds MSMS\Cohumulone (vial 44).d" "precursor type=[M-H]-" "mass accuracy=39.17627880186123" "mass error=0.013602004000006218" "cas number=142628-20-4" "SMILES=CC(C)C(=O)C1=C(C(=C(C(C1=O)(CC=C(C)C)O)O)CC=C(C)C)O" "InChI=InChI=1S/C20H28O5/c1-11(2)7-8-14-17(22)15(16(21)13(5)6)19(24)20(25,18(14)23)10-9-12(3)4/h7,9,13,22-23,25H,8,10H2,1-6H3" "InChIKey=DRSITEVYZGOOQG-UHFFFAOYSA-N" "molecular formula=C20H28O5" "total exact mass=348.193673996" "SMILES=CC(C)C(=O)C1=C(C(=C(C(C1=O)(CC=C(C)C)O)O)CC=C(C)C)O"
Num Peaks: 5
 165 15.115115; 
 193 20.420420; 
 207 38.538539; 
 235 100.000000; 
 235 21.321321; 


Name: Cohumulone
SYNON: $:00in-source
DB#: MetaboBASE0091
InChIKey: DRSITEVYZGOOQG-UHFFFAOYSA-N
Precursor_type: [M-H]-
Spectrum_type: MS2
PrecursorMZ: 347.1862
Instrument_type: LC-ESI-TOF
Instrument: impact HD
Ion_mode: N
Collision_energy: 10
InChIKey: DRSITEVYZGOOQG-UHFFFAOYSA-N
Formula: C20H28O5
MW: 348
ExactMass: 348.193673996
Comments: "license=License CC-BY-NC-SA 4.0 International" "author=Plant Biology, The Noble Foundation, Ardmore, OK, US/Dennis Fine, Daniel Wherritt, and Lloyd Sumner" "instrument type=LC-ESI-TOF" "instrument=impact HD" "ionization=ESI" "ionization mode=negative" "ms level=MS2" "precursor m/z=347.1862" "isolation width=5" "collision gas=Nitrogen" "collision energy=10" "peak width=0.01" "date=2014-01-10 07:52:53+01:00" "column=Waters Acquity BEH C18 1.7um x 2.1 x 150 mm" "retention time=1490.4" "raw data file=C:\Data\Confirmed Standards\14Jan9 Confirmed stds MSMS\Cohumulone (vial 44).d" "precursor type=[M-H]-" "mass accuracy=0.5702876439131135" "mass error=-1.97995999997147E-4" "cas number=142628-20-4" "SMILES=CC(C)C(=O)C1=C(C(=C(C(C1=O)(CC=C(C)C)O)O)CC=C(C)C)O" "InChI=InChI=1S/C20H28O5/c1-11(2)7-8-14-17(22)15(16(21)13(5)6)19(24)20(25,18(14)23)10-9-12(3)4/h7,9,13,22-23,25H,8,10H2,1-6H3" "InChIKey=DRSITEVYZGOOQG-UHFFFAOYSA-N" "molecular formula=C20H28O5" "total exact mass=348.193673996" "SMILES=CC(C)C(=O)C1=C(C(=C(C(C1=O)(CC=C(C)C)O)O)CC=C(C)C)O"
Num Peaks: 2
 278 36.936937; 
 347 100.000000; 


Name: Cohumulone
SYNON: $:00in-source
DB#: MetaboBASE0092
InChIKey: DRSITEVYZGOOQG-UHFFFAOYSA-N
Precursor_type: [M-H]-
Spectrum_type: MS2
PrecursorMZ: 347.2
Instrument_type: LC-ESI-TOF
Instrument: impact HD
Ion_mode: N
Collision_energy: 20
InChIKey: DRSITEVYZGOOQG-UHFFFAOYSA-N
Formula: C20H28O5
MW: 348
ExactMass: 348.193673996
Comments: "license=License CC-BY-NC-SA 4.0 International" "author=Plant Biology, The Noble Foundation, Ardmore, OK, US/Dennis Fine, Daniel Wherritt, and Lloyd Sumner" "instrument type=LC-ESI-TOF" "instrument=impact HD" "ionization=ESI" "ionization mode=negative" "ms level=MS2" "precursor m/z=347.2" "isolation width=5" "collision gas=Nitrogen" "collision energy=20" "peak width=0.019" "date=2014-01-10 07:52:53+01:00" "column=Waters Acquity BEH C18 1.7um x 2.1 x 150 mm" "retention time=1490.4" "raw data file=C:\Data\Confirmed Standards\14Jan9 Confirmed stds MSMS\Cohumulone (vial 44).d" "precursor type=[M-H]-" "mass accuracy=39.17627880186123" "mass error=0.013602004000006218" "cas number=142628-20-4" "SMILES=CC(C)C(=O)C1=C(C(=C(C(C1=O)(CC=C(C)C)O)O)CC=C(C)C)O" "InChI=InChI=1S/C20H28O5/c1-11(2)7-8-14-17(22)15(16(21)13(5)6)19(24)20(25,18(14)23)10-9-12(3)4/h7,9,13,22-23,25H,8,10H2,1-6H3" "InChIKey=DRSITEVYZGOOQG-UHFFFAOYSA-N" "molecular formula=C20H28O5" "total exact mass=348.193673996" "SMILES=CC(C)C(=O)C1=C(C(=C(C(C1=O)(CC=C(C)C)O)O)CC=C(C)C)O"
Num Peaks: 3
 235 20.620621; 
 278 100.000000; 
 279 14.814815; 


Name: Cohumulone
SYNON: $:00in-source
DB#: MetaboBASE0093
InChIKey: DRSITEVYZGOOQG-UHFFFAOYSA-N
Precursor_type: [M-H]-
Spectrum_type: MS2
PrecursorMZ: 347.2
Instrument_type: LC-ESI-TOF
Instrument: impact HD
Ion_mode: N
Collision_energy: 30
InChIKey: DRSITEVYZGOOQG-UHFFFAOYSA-N
Formula: C20H28O5
MW: 348
ExactMass: 348.193673996
Comments: "license=License CC-BY-NC-SA 4.0 International" "author=Plant Biology, The Noble Foundation, Ardmore, OK, US/Dennis Fine, Daniel Wherritt, and Lloyd Sumner" "instrument type=LC-ESI-TOF" "instrument=impact HD" "ionization=ESI" "ionization mode=negative" "ms level=MS2" "precursor m/z=347.2" "isolation width=5" "collision gas=Nitrogen" "collision energy=30" "peak width=0.012" "date=2014-01-10 07:52:53+01:00" "column=Waters Acquity BEH C18 1.7um x 2.1 x 150 mm" "retention time=1490.4" "raw data file=C:\Data\Confirmed Standards\14Jan9 Confirmed stds MSMS\Cohumulone (vial 44).d" "precursor type=[M-H]-" "mass accuracy=39.17627880186123" "mass error=0.013602004000006218" "cas number=142628-20-4" "SMILES=CC(C)C(=O)C1=C(C(=C(C(C1=O)(CC=C(C)C)O)O)CC=C(C)C)O" "InChI=InChI=1S/C20H28O5/c1-11(2)7-8-14-17(22)15(16(21)13(5)6)19(24)20(25,18(14)23)10-9-12(3)4/h7,9,13,22-23,25H,8,10H2,1-6H3" "InChIKey=DRSITEVYZGOOQG-UHFFFAOYSA-N" "molecular formula=C20H28O5" "total exact mass=348.193673996" "SMILES=CC(C)C(=O)C1=C(C(=C(C(C1=O)(CC=C(C)C)O)O)CC=C(C)C)O"
Num Peaks: 5
 223 12.412412; 
 235 78.978979; 
 236 15.915916; 
 278 100.000000; 
 279 13.613614; 


Name: Cohumulone
SYNON: $:00in-source
DB#: MetaboBASE0094
InChIKey: DRSITEVYZGOOQG-UHFFFAOYSA-N
Instrument_type: LC-ESI-TOF
Instrument: impact HD
Ion_mode: N
InChIKey: DRSITEVYZGOOQG-UHFFFAOYSA-N
Formula: C20H28O5
MW: 348
ExactMass: 348.193673996
Comments: "license=License CC-BY-NC-SA 4.0 International" "author=Plant Biology, The Noble Foundation, Ardmore, OK, US/Dennis Fine, Daniel Wherritt, and Lloyd Sumner" "instrument type=LC-ESI-TOF" "instrument=impact HD" "ionization=ESI" "ionization mode=negative" "collision gas=Nitrogen" "peak width=0.014" "date=2014-01-10 07:52:53+01:00" "column=Waters Acquity BEH C18 1.7um x 2.1 x 150 mm" "retention time=1490.4" "raw data file=C:\Data\Confirmed Standards\14Jan9 Confirmed stds MSMS\Cohumulone (vial 44).d" "cas number=142628-20-4" "SMILES=CC(C)C(=O)C1=C(C(=C(C(C1=O)(CC=C(C)C)O)O)CC=C(C)C)O" "InChI=InChI=1S/C20H28O5/c1-11(2)7-8-14-17(22)15(16(21)13(5)6)19(24)20(25,18(14)23)10-9-12(3)4/h7,9,13,22-23,25H,8,10H2,1-6H3" "InChIKey=DRSITEVYZGOOQG-UHFFFAOYSA-N" "molecular formula=C20H28O5" "total exact mass=348.193673996" "SMILES=CC(C)C(=O)C1=C(C(=C(C(C1=O)(CC=C(C)C)O)O)CC=C(C)C)O"
Num Peaks: 14
 112 3.703704; 
 242 3.503504; 
 248 10.810811; 
 316 5.905906; 
 347 100.000000; 
 348 16.816817; 
 349 2.702703; 
 353 2.302302; 
 378 3.603604; 
 384 2.802803; 
 415 5.505506; 
 452 2.402402; 
 483 2.302302; 
 717 2.202202; 


Name: Humulone
SYNON: $:00in-source
DB#: MetaboBASE0095
InChIKey: VMSLCPKYRPDHLN-OAQYLSRUSA-N
Instrument_type: LC-ESI-TOF
Instrument: impact HD
Ion_mode: N
InChIKey: VMSLCPKYRPDHLN-OAQYLSRUSA-N
Formula: C21H30O5
MW: 362
ExactMass: 362.20932406
Comments: "synonym=Humulone" "license=License CC-BY-NC-SA 4.0 International" "author=Plant Biology, The Noble Foundation, Ardmore, OK, US/Dennis Fine, Daniel Wherritt, and Lloyd Sumner" "instrument type=LC-ESI-TOF" "instrument=impact HD" "ionization=ESI" "ionization mode=negative" "collision gas=Nitrogen" "peak width=0.0086" "date=2013-07-03 04:07:48+02:00" "column=Waters Acquity BEH C18 1.7um x 2.1 x 150 mm" "retention time=1575.6" "raw data file=D:\Data\Confirmed Standards\Reinjection_1uL\Humulone (vial 45).d" "cas number=26472-41-3" "SMILES=CC(C)CC(=O)C1=C(C(=C([C@@](C1=O)(CC=C(C)C)O)O)CC=C(C)C)O" "InChI=InChI=1S/C21H30O5/c1-12(2)7-8-15-18(23)17(16(22)11-14(5)6)20(25)21(26,19(15)24)10-9-13(3)4/h7,9,14,23-24,26H,8,10-11H2,1-6H3/t21-/m1/s1" "InChIKey=VMSLCPKYRPDHLN-OAQYLSRUSA-N" "molecular formula=C21H30O5" "total exact mass=362.20932406" "SMILES=CC(C)CC(=O)C1=C(C(=C(C(C1=O)(CC=C(C)C)O)O)CC=C(C)C)O" "InChI=InChI=1S/C21H30O5/c1-12(2)7-8-15-18(23)17(16(22)11-14(5)6)20(25)21(26,19(15)24)10-9-13(3)4/h7,9,14,23-24,26H,8,10-11H2,1-6H3/t21-/m0/s1" "InChIKey=VMSLCPKYRPDHLN-NRFANRHFSA-N"
Num Peaks: 31
 151 1.901902; 
 174 16.716717; 
 180 4.904905; 
 190 1.501502; 
 224 1.801802; 
 238 2.202202; 
 242 1.901902; 
 268 1.601602; 
 269 1.601602; 
 274 1.901902; 
 292 46.246246; 
 293 7.907908; 
 293 11.811812; 
 295 5.405405; 
 297 3.403403; 
 310 5.105105; 
 316 5.205205; 
 325 2.502503; 
 333 5.205205; 
 361 100.000000; 
 362 22.622623; 
 363 4.104104; 
 372 1.501502; 
 377 1.501502; 
 377 2.402402; 
 378 4.804805; 
 382 2.402402; 
 384 2.502503; 
 393 2.002002; 
 444 1.501502; 
 512 1.501502; 


Name: Humulone
SYNON: $:00in-source
DB#: MetaboBASE0096
InChIKey: VMSLCPKYRPDHLN-OAQYLSRUSA-N
Precursor_type: [M-H]-
Spectrum_type: MS2
PrecursorMZ: 361.1961
Instrument_type: LC-ESI-TOF
Instrument: impact HD
Ion_mode: N
Collision_energy: 20
InChIKey: VMSLCPKYRPDHLN-OAQYLSRUSA-N
Formula: C21H30O5
MW: 362
ExactMass: 362.20932406
Comments: "synonym=Humulone" "license=License CC-BY-NC-SA 4.0 International" "author=Plant Biology, The Noble Foundation, Ardmore, OK, US/Dennis Fine, Daniel Wherritt, and Lloyd Sumner" "instrument type=LC-ESI-TOF" "instrument=impact HD" "ionization=ESI" "ionization mode=negative" "ms level=MS2" "precursor m/z=361.1961" "isolation width=5" "collision gas=Nitrogen" "collision energy=20" "peak width=0.013" "date=2014-01-10 08:33:40+01:00" "column=Waters Acquity BEH C18 1.7um x 2.1 x 150 mm" "retention time=1570.8" "raw data file=C:\Data\Confirmed Standards\14Jan9 Confirmed stds MSMS\Humulone (vial 45).d" "precursor type=[M-H]-" "mass accuracy=16.4676750385183" "mass error=-0.00594805999998016" "cas number=26472-41-3" "SMILES=CC(C)CC(=O)C1=C(C(=C([C@@](C1=O)(CC=C(C)C)O)O)CC=C(C)C)O" "InChI=InChI=1S/C21H30O5/c1-12(2)7-8-15-18(23)17(16(22)11-14(5)6)20(25)21(26,19(15)24)10-9-13(3)4/h7,9,14,23-24,26H,8,10-11H2,1-6H3/t21-/m1/s1" "InChIKey=VMSLCPKYRPDHLN-OAQYLSRUSA-N" "molecular formula=C21H30O5" "total exact mass=362.20932406" "SMILES=CC(C)CC(=O)C1=C(C(=C(C(C1=O)(CC=C(C)C)O)O)CC=C(C)C)O" "InChI=InChI=1S/C21H30O5/c1-12(2)7-8-15-18(23)17(16(22)11-14(5)6)20(25)21(26,19(15)24)10-9-13(3)4/h7,9,14,23-24,26H,8,10-11H2,1-6H3/t21-/m0/s1" "InChIKey=VMSLCPKYRPDHLN-NRFANRHFSA-N"
Num Peaks: 8
 178 8.108108; 
 236 9.509510; 
 251 9.809810; 
 262 11.011011; 
 292 100.000000; 
 293 19.119119; 
 361 15.015015; 
 362 8.108108; 


Name: Humulone
SYNON: $:00in-source
DB#: MetaboBASE0097
InChIKey: VMSLCPKYRPDHLN-OAQYLSRUSA-N
Precursor_type: [M-H]-
Spectrum_type: MS2
PrecursorMZ: 361.2002
Instrument_type: LC-ESI-TOF
Instrument: impact HD
Ion_mode: N
Collision_energy: 10
InChIKey: VMSLCPKYRPDHLN-OAQYLSRUSA-N
Formula: C21H30O5
MW: 362
ExactMass: 362.20932406
Comments: "synonym=Humulone" "license=License CC-BY-NC-SA 4.0 International" "author=Plant Biology, The Noble Foundation, Ardmore, OK, US/Dennis Fine, Daniel Wherritt, and Lloyd Sumner" "instrument type=LC-ESI-TOF" "instrument=impact HD" "ionization=ESI" "ionization mode=negative" "ms level=MS2" "precursor m/z=361.2002" "isolation width=5" "collision gas=Nitrogen" "collision energy=10" "peak width=0.017" "date=2014-01-10 08:33:40+01:00" "column=Waters Acquity BEH C18 1.7um x 2.1 x 150 mm" "retention time=1570.8" "raw data file=C:\Data\Confirmed Standards\14Jan9 Confirmed stds MSMS\Humulone (vial 45).d" "precursor type=[M-H]-" "mass accuracy=5.116442349661385" "mass error=-0.0018480599999861624" "cas number=26472-41-3" "SMILES=CC(C)CC(=O)C1=C(C(=C([C@@](C1=O)(CC=C(C)C)O)O)CC=C(C)C)O" "InChI=InChI=1S/C21H30O5/c1-12(2)7-8-15-18(23)17(16(22)11-14(5)6)20(25)21(26,19(15)24)10-9-13(3)4/h7,9,14,23-24,26H,8,10-11H2,1-6H3/t21-/m1/s1" "InChIKey=VMSLCPKYRPDHLN-OAQYLSRUSA-N" "molecular formula=C21H30O5" "total exact mass=362.20932406" "SMILES=CC(C)CC(=O)C1=C(C(=C(C(C1=O)(CC=C(C)C)O)O)CC=C(C)C)O" "InChI=InChI=1S/C21H30O5/c1-12(2)7-8-15-18(23)17(16(22)11-14(5)6)20(25)21(26,19(15)24)10-9-13(3)4/h7,9,14,23-24,26H,8,10-11H2,1-6H3/t21-/m0/s1" "InChIKey=VMSLCPKYRPDHLN-NRFANRHFSA-N"
Num Peaks: 3
 292 73.873874; 
 361 100.000000; 
 362 36.636637; 


Name: Humulone
SYNON: $:00in-source
DB#: MetaboBASE0098
InChIKey: VMSLCPKYRPDHLN-OAQYLSRUSA-N
Instrument_type: LC-ESI-TOF
Instrument: impact HD
Ion_mode: N
InChIKey: VMSLCPKYRPDHLN-OAQYLSRUSA-N
Formula: C21H30O5
MW: 362
ExactMass: 362.20932406
Comments: "synonym=Humulone" "license=License CC-BY-NC-SA 4.0 International" "author=Plant Biology, The Noble Foundation, Ardmore, OK, US/Dennis Fine, Daniel Wherritt, and Lloyd Sumner" "instrument type=LC-ESI-TOF" "instrument=impact HD" "ionization=ESI" "ionization mode=negative" "collision gas=Nitrogen" "peak width=0.0082" "date=2014-01-10 08:33:40+01:00" "column=Waters Acquity BEH C18 1.7um x 2.1 x 150 mm" "retention time=1570.8" "raw data file=C:\Data\Confirmed Standards\14Jan9 Confirmed stds MSMS\Humulone (vial 45).d" "cas number=26472-41-3" "SMILES=CC(C)CC(=O)C1=C(C(=C([C@@](C1=O)(CC=C(C)C)O)O)CC=C(C)C)O" "InChI=InChI=1S/C21H30O5/c1-12(2)7-8-15-18(23)17(16(22)11-14(5)6)20(25)21(26,19(15)24)10-9-13(3)4/h7,9,14,23-24,26H,8,10-11H2,1-6H3/t21-/m1/s1" "InChIKey=VMSLCPKYRPDHLN-OAQYLSRUSA-N" "molecular formula=C21H30O5" "total exact mass=362.20932406" "SMILES=CC(C)CC(=O)C1=C(C(=C(C(C1=O)(CC=C(C)C)O)O)CC=C(C)C)O" "InChI=InChI=1S/C21H30O5/c1-12(2)7-8-15-18(23)17(16(22)11-14(5)6)20(25)21(26,19(15)24)10-9-13(3)4/h7,9,14,23-24,26H,8,10-11H2,1-6H3/t21-/m0/s1" "InChIKey=VMSLCPKYRPDHLN-NRFANRHFSA-N"
Num Peaks: 21
 112 1.501502; 
 242 1.001001; 
 248 6.606607; 
 310 1.201201; 
 316 3.303303; 
 342 1.101101; 
 353 1.001001; 
 361 100.000000; 
 362 19.619620; 
 363 3.103103; 
 377 3.103103; 
 378 1.301301; 
 384 2.402402; 
 429 4.504505; 
 452 2.502503; 
 497 1.201201; 
 512 1.301301; 
 520 2.002002; 
 666 2.102102; 
 747 1.001001; 
 874 1.301301; 


Name: Luteolin
SYNON: $:00in-source
DB#: MetaboBASE0099
InChIKey: IQPNAANSBPBGFQ-UHFFFAOYSA-N
Instrument_type: LC-ESI-TOF
Instrument: impact HD
Ion_mode: N
InChIKey: IQPNAANSBPBGFQ-UHFFFAOYSA-N
Formula: C15H10O6
MW: 286
ExactMass: 286.04773804
Comments: "license=License CC-BY-NC-SA 4.0 International" "author=Plant Biology, The Noble Foundation, Ardmore, OK, US/Dennis Fine, Daniel Wherritt, and Lloyd Sumner" "instrument type=LC-ESI-TOF" "instrument=impact HD" "ionization=ESI" "ionization mode=negative" "collision gas=Nitrogen" "peak width=0.022" "date=2013-08-02 18:06:12+02:00" "column=Waters Acquity BEH C18 1.7um x 2.1 x 150 mm" "retention time=490.8" "raw data file=D:\Data\Confirmed Standards\Luteolin (vial 10)_1337.d" "cas number=491-70-3" "SMILES=c1cc(c(cc1c2cc(=O)c3c(cc(cc3o2)O)O)O)O" "InChI=InChI=1S/C15H10O6/c16-8-4-11(19)15-12(20)6-13(21-14(15)5-8)7-1-2-9(17)10(18)3-7/h1-6,16-19H" "InChIKey=IQPNAANSBPBGFQ-UHFFFAOYSA-N" "molecular formula=C15H10O6" "total exact mass=286.04773804" "SMILES=C1=CC(=C(C=C1C2=CC(=O)C3=C(C=C(C=C3O2)O)O)O)O"
Num Peaks: 12
 255 18.718719; 
 256 2.302302; 
 257 0.600601; 
 283 48.148148; 
 284 6.606607; 
 285 100.000000; 
 286 12.912913; 
 287 1.401401; 
 299 0.200200; 
 301 1.601602; 
 302 0.300300; 
 384 0.200200; 


Name: Luteolin
SYNON: $:00in-source
DB#: MetaboBASE0100
InChIKey: IQPNAANSBPBGFQ-UHFFFAOYSA-N
Precursor_type: [M-H]-
Spectrum_type: MS2
PrecursorMZ: 285.048
Instrument_type: LC-ESI-TOF
Instrument: impact HD
Ion_mode: N
Collision_energy: 30
InChIKey: IQPNAANSBPBGFQ-UHFFFAOYSA-N
Formula: C15H10O6
MW: 286
ExactMass: 286.04773804
Comments: "license=License CC-BY-NC-SA 4.0 International" "author=Plant Biology, The Noble Foundation, Ardmore, OK, US/Dennis Fine, Daniel Wherritt, and Lloyd Sumner" "instrument type=LC-ESI-TOF" "instrument=impact HD" "ionization=ESI" "ionization mode=negative" "ms level=MS2" "precursor m/z=285.048" "collision gas=Nitrogen" "collision energy=30" "collision energy 2=30" "peak width=0.022" "date=2013-08-01 02:53:04+02:00" "column=Waters Acquity BEH C18 1.7um x 2.1 x 150 mm" "retention time=490.01" "raw data file=D:\Data\Confirmed Standards\Reanalyzed MRM multiple CID\Luteolin (vial 10).d" "precursor type=[M-H]-" "mass accuracy=26.44452864071733" "mass error=0.0075379599999791935" "cas number=491-70-3" "SMILES=c1cc(c(cc1c2cc(=O)c3c(cc(cc3o2)O)O)O)O" "InChI=InChI=1S/C15H10O6/c16-8-4-11(19)15-12(20)6-13(21-14(15)5-8)7-1-2-9(17)10(18)3-7/h1-6,16-19H" "InChIKey=IQPNAANSBPBGFQ-UHFFFAOYSA-N" "molecular formula=C15H10O6" "total exact mass=286.04773804" "SMILES=C1=CC(=C(C=C1C2=CC(=O)C3=C(C=C(C=C3O2)O)O)O)O"
Num Peaks: 26
 107 4.304304; 
 133 8.008008; 
 139 1.001001; 
 149 2.002002; 
 151 4.004004; 
 159 1.001001; 
 169 0.900901; 
 173 0.800801; 
 175 2.402402; 
 183 2.802803; 
 198 0.900901; 
 201 0.900901; 
 217 2.402402; 
 223 1.001001; 
 226 1.001001; 
 227 2.702703; 
 229 1.001001; 
 241 1.201201; 
 243 2.502503; 
 255 100.000000; 
 256 13.513514; 
 257 2.902903; 
 267 0.900901; 
 283 1.001001; 
 285 23.923924; 
 286 2.402402; 


Name: 5-Hydroxyflavone
SYNON: $:00in-source
DB#: MetaboBASE0101
InChIKey: IYBLVRRCNVHZQJ-UHFFFAOYSA-N
Precursor_type: [M-H]-
Spectrum_type: MS2
PrecursorMZ: 237.061
Instrument_type: LC-ESI-TOF
Instrument: impact HD
Ion_mode: N
Collision_energy: 20
InChIKey: IYBLVRRCNVHZQJ-UHFFFAOYSA-N
Formula: C15H10O3
MW: 238
ExactMass: 238.06299417999998
Comments: "license=License CC-BY-NC-SA 4.0 International" "author=Plant Biology, The Noble Foundation, Ardmore, OK, US/Dennis Fine, Daniel Wherritt, and Lloyd Sumner" "instrument type=LC-ESI-TOF" "instrument=impact HD" "ionization=ESI" "ionization mode=negative" "ms level=MS2" "precursor m/z=237.061" "collision gas=Nitrogen" "collision energy=20" "collision energy 2=20" "peak width=0.02" "date=2013-08-05 21:01:55+02:00" "column=Waters Acquity BEH C18 1.7um x 2.1 x 150 mm" "retention time=1090.58" "raw data file=D:\Data\Confirmed Standards\Reanalyzed MRM multiple CID\5-Hydroxyflavone (vial 9) MRM_1347.d" "precursor type=[M-H]-" "mass accuracy=22.280425713304815" "mass error=0.005281820000021753" "cas number=491-78-1" "SMILES=c1ccc(cc1)c2cc(=O)c3c(cccc3o2)O" "InChI=InChI=1S/C15H10O3/c16-11-7-4-8-13-15(11)12(17)9-14(18-13)10-5-2-1-3-6-10/h1-9,16H" "InChIKey=IYBLVRRCNVHZQJ-UHFFFAOYSA-N" "molecular formula=C15H10O3" "total exact mass=238.06299417999998" "SMILES=C1=CC=C(C=C1)C2=CC(=O)C3=C(O2)C=CC=C3O"
Num Peaks: 3
 135 21.621622; 
 237 100.000000; 
 238 14.114114; 


Name: 5-Hydroxyflavone
SYNON: $:00in-source
DB#: MetaboBASE0102
InChIKey: IYBLVRRCNVHZQJ-UHFFFAOYSA-N
Instrument_type: LC-ESI-TOF
Instrument: impact HD
Ion_mode: N
InChIKey: IYBLVRRCNVHZQJ-UHFFFAOYSA-N
Formula: C15H10O3
MW: 238
ExactMass: 238.06299417999998
Comments: "license=License CC-BY-NC-SA 4.0 International" "author=Plant Biology, The Noble Foundation, Ardmore, OK, US/Dennis Fine, Daniel Wherritt, and Lloyd Sumner" "instrument type=LC-ESI-TOF" "instrument=impact HD" "ionization=ESI" "ionization mode=negative" "collision gas=Nitrogen" "peak width=0.025" "date=2013-08-03 00:02:25+02:00" "column=Waters Acquity BEH C18 1.7um x 2.1 x 150 mm" "retention time=1089" "raw data file=D:\Data\Confirmed Standards\5-Hydroxyflavone (vial 9)_1340.d" "cas number=491-78-1" "SMILES=c1ccc(cc1)c2cc(=O)c3c(cccc3o2)O" "InChI=InChI=1S/C15H10O3/c16-11-7-4-8-13-15(11)12(17)9-14(18-13)10-5-2-1-3-6-10/h1-9,16H" "InChIKey=IYBLVRRCNVHZQJ-UHFFFAOYSA-N" "molecular formula=C15H10O3" "total exact mass=238.06299417999998" "SMILES=C1=CC=C(C=C1)C2=CC(=O)C3=C(O2)C=CC=C3O"
Num Peaks: 31
 112 3.303303; 
 146 1.501502; 
 174 4.304304; 
 237 100.000000; 
 238 14.714715; 
 239 1.301301; 
 242 3.303303; 
 265 1.201201; 
 305 7.507508; 
 306 1.501502; 
 310 1.301301; 
 316 1.801802; 
 325 1.801802; 
 342 1.501502; 
 367 4.004004; 
 368 1.601602; 
 378 1.501502; 
 382 1.501502; 
 431 1.301301; 
 481 3.703704; 
 482 1.201201; 
 497 31.231231; 
 498 8.208208; 
 499 2.902903; 
 559 2.202202; 
 560 1.201201; 
 751 6.706707; 
 752 4.004004; 
 757 2.102102; 
 819 1.301301; 
 1011 1.801802; 


Name: 2,4-Dihydroxyacetophenone
SYNON: $:00in-source
DB#: MetaboBASE0103
InChIKey: SULYEHHGGXARJS-UHFFFAOYSA-N
Instrument_type: LC-ESI-TOF
Instrument: impact HD
Ion_mode: N
InChIKey: SULYEHHGGXARJS-UHFFFAOYSA-N
Formula: C8H8O3
MW: 152
ExactMass: 152.04734411599998
Comments: "license=License CC-BY-NC-SA 4.0 International" "author=Plant Biology, The Noble Foundation, Ardmore, OK, US/Dennis Fine, Daniel Wherritt, and Lloyd Sumner" "instrument type=LC-ESI-TOF" "instrument=impact HD" "ionization=ESI" "ionization mode=negative" "collision gas=Nitrogen" "peak width=0.03" "date=2013-09-04 05:46:58+02:00" "column=Waters Acquity BEH C18 1.7um x 2.1 x 150 mm" "retention time=298.8" "raw data file=D:\Data\Confirmed Standards\Reinjection 2 uL\2,4-Dihydroxyacetophenone.d" "cas number=89-84-9" "SMILES=CC(=O)c1ccc(cc1O)O" "InChI=InChI=1S/C8H8O3/c1-5(9)7-3-2-6(10)4-8(7)11/h2-4,10-11H,1H3" "InChIKey=SULYEHHGGXARJS-UHFFFAOYSA-N" "molecular formula=C8H8O3" "total exact mass=152.04734411599998" "SMILES=CC(=O)C1=C(C=C(C=C1)O)O"
Num Peaks: 6
 109 3.903904; 
 133 1.201201; 
 135 6.406406; 
 151 100.000000; 
 152 7.207207; 
 153 1.001001; 


Name: 2,4-Dihydroxyacetophenone
SYNON: $:00in-source
DB#: MetaboBASE0104
InChIKey: SULYEHHGGXARJS-UHFFFAOYSA-N
Precursor_type: [M-H]-
Spectrum_type: MS2
PrecursorMZ: 151.0443
Instrument_type: LC-ESI-TOF
Instrument: impact HD
Ion_mode: N
Collision_energy: 10
InChIKey: SULYEHHGGXARJS-UHFFFAOYSA-N
Formula: C8H8O3
MW: 152
ExactMass: 152.04734411599998
Comments: "license=License CC-BY-NC-SA 4.0 International" "author=Plant Biology, The Noble Foundation, Ardmore, OK, US/Dennis Fine, Daniel Wherritt, and Lloyd Sumner" "instrument type=LC-ESI-TOF" "instrument=impact HD" "ionization=ESI" "ionization mode=negative" "ms level=MS2" "precursor m/z=151.0443" "isolation width=5" "collision gas=Nitrogen" "collision energy=10" "peak width=0.023" "date=2013-09-05 19:46:08+02:00" "column=Waters Acquity BEH C18 1.7um x 2.1 x 150 mm" "retention time=298.8" "raw data file=C:\Data\Confirmed Standards\Reinjection 2 uL\MSMS\2,4-Dihydroxyacetophenone MSMS.d" "precursor type=[M-H]-" "mass accuracy=28.01750215007387" "mass error=0.004231884000006403" "cas number=89-84-9" "SMILES=CC(=O)c1ccc(cc1O)O" "InChI=InChI=1S/C8H8O3/c1-5(9)7-3-2-6(10)4-8(7)11/h2-4,10-11H,1H3" "InChIKey=SULYEHHGGXARJS-UHFFFAOYSA-N" "molecular formula=C8H8O3" "total exact mass=152.04734411599998" "SMILES=CC(=O)C1=C(C=C(C=C1)O)O"
Num Peaks: 5
 107 4.304304; 
 109 13.613614; 
 135 5.905906; 
 151 100.000000; 
 152 8.508509; 


Name: 2,4-Dihydroxyacetophenone
SYNON: $:00in-source
DB#: MetaboBASE0105
InChIKey: SULYEHHGGXARJS-UHFFFAOYSA-N
Precursor_type: [M-H]-
Spectrum_type: MS2
PrecursorMZ: 151.044
Instrument_type: LC-ESI-TOF
Instrument: impact HD
Ion_mode: N
Collision_energy: 20
InChIKey: SULYEHHGGXARJS-UHFFFAOYSA-N
Formula: C8H8O3
MW: 152
ExactMass: 152.04734411599998
Comments: "license=License CC-BY-NC-SA 4.0 International" "author=Plant Biology, The Noble Foundation, Ardmore, OK, US/Dennis Fine, Daniel Wherritt, and Lloyd Sumner" "instrument type=LC-ESI-TOF" "instrument=impact HD" "ionization=ESI" "ionization mode=negative" "ms level=MS2" "precursor m/z=151.044" "isolation width=5" "collision gas=Nitrogen" "collision energy=20" "peak width=0.032" "date=2013-09-05 19:46:08+02:00" "column=Waters Acquity BEH C18 1.7um x 2.1 x 150 mm" "retention time=298.8" "raw data file=C:\Data\Confirmed Standards\Reinjection 2 uL\MSMS\2,4-Dihydroxyacetophenone MSMS.d" "precursor type=[M-H]-" "mass accuracy=26.03138158433877" "mass error=0.003931884000024866" "cas number=89-84-9" "SMILES=CC(=O)c1ccc(cc1O)O" "InChI=InChI=1S/C8H8O3/c1-5(9)7-3-2-6(10)4-8(7)11/h2-4,10-11H,1H3" "InChIKey=SULYEHHGGXARJS-UHFFFAOYSA-N" "molecular formula=C8H8O3" "total exact mass=152.04734411599998" "SMILES=CC(=O)C1=C(C=C(C=C1)O)O"
Num Peaks: 10
 107 36.736737; 
 108 10.610611; 
 109 100.000000; 
 110 5.805806; 
 133 6.706707; 
 135 53.953954; 
 136 5.905906; 
 151 53.053053; 
 152 5.805806; 
 153 12.412412; 


Name: 2,5-Dihydroxybenzoic acid
SYNON: $:00in-source
DB#: MetaboBASE0106
InChIKey: WXTMDXOMEHJXQO-UHFFFAOYSA-N
Instrument_type: LC-ESI-TOF
Instrument: impact HD
Ion_mode: N
InChIKey: WXTMDXOMEHJXQO-UHFFFAOYSA-N
Formula: C7H6O4
MW: 154
ExactMass: 154.026608672
Comments: "license=License CC-BY-NC-SA 4.0 International" "author=Plant Biology, The Noble Foundation, Ardmore, OK, US/Dennis Fine, Daniel Wherritt, and Lloyd Sumner" "instrument type=LC-ESI-TOF" "instrument=impact HD" "ionization=ESI" "ionization mode=negative" "collision gas=Nitrogen" "peak width=0.031" "date=2013-09-04 08:30:08+02:00" "column=Waters Acquity BEH C18 1.7um x 2.1 x 150 mm" "retention time=107.4" "raw data file=D:\Data\Confirmed Standards\Reinjection 2 uL\2,5-Dihydroxybenzoic acid.d" "cas number=490-79-9" "SMILES=c1cc(c(cc1O)C(=O)O)O" "InChI=InChI=1S/C7H6O4/c8-4-1-2-6(9)5(3-4)7(10)11/h1-3,8-9H,(H,10,11)" "InChIKey=WXTMDXOMEHJXQO-UHFFFAOYSA-N" "molecular formula=C7H6O4" "total exact mass=154.026608672" "SMILES=C1=CC(=C(C=C1O)C(=O)O)O"
Num Peaks: 91
 108 18.718719; 
 109 21.521522; 
 110 1.901902; 
 123 20.220220; 
 124 2.102102; 
 125 3.503504; 
 151 4.304304; 
 152 10.010010; 
 153 90.090090; 
 154 6.106106; 
 155 1.201201; 
 161 1.201201; 
 166 42.942943; 
 168 3.303303; 
 169 16.216216; 
 170 1.301301; 
 188 1.301301; 
 201 1.301301; 
 203 4.504505; 
 206 1.501502; 
 208 2.102102; 
 213 1.401401; 
 214 2.202202; 
 229 4.404404; 
 231 48.148148; 
 232 5.505506; 
 233 3.403403; 
 234 3.603604; 
 235 3.003003; 
 237 2.702703; 
 239 3.003003; 
 252 2.802803; 
 257 7.907908; 
 258 1.301301; 
 259 7.107107; 
 260 1.501502; 
 275 21.421421; 
 276 3.003003; 
 277 26.426426; 
 278 4.404404; 
 281 1.501502; 
 283 8.508509; 
 284 1.401401; 
 292 2.102102; 
 301 1.301301; 
 301 1.601602; 
 303 2.902903; 
 307 1.501502; 
 313 1.901902; 
 314 3.803804; 
 315 4.304304; 
 316 1.301301; 
 319 2.202202; 
 321 13.213213; 
 322 1.801802; 
 325 1.901902; 
 327 6.006006; 
 328 1.701702; 
 329 87.387387; 
 329 1.201201; 
 330 12.512513; 
 331 20.420420; 
 332 3.703704; 
 340 19.319319; 
 341 3.303303; 
 343 52.352352; 
 344 8.108108; 
 344 3.403403; 
 348 2.002002; 
 351 1.701702; 
 356 35.935936; 
 357 7.207207; 
 357 4.604605; 
 358 14.014014; 
 359 100.000000; 
 360 17.517518; 
 361 3.303303; 
 362 2.602603; 
 371 1.701702; 
 372 2.102102; 
 373 26.426426; 
 374 9.309309; 
 375 3.503504; 
 376 2.002002; 
 381 2.702703; 
 382 2.202202; 
 387 2.602603; 
 388 3.003003; 
 389 1.701702; 
 390 1.201201; 
 396 1.801802; 


Name: 2,5-Dihydroxybenzoic acid
SYNON: $:00in-source
DB#: MetaboBASE0107
InChIKey: WXTMDXOMEHJXQO-UHFFFAOYSA-N
Precursor_type: [M-H]-
Spectrum_type: MS2
PrecursorMZ: 153.026
Instrument_type: LC-ESI-TOF
Instrument: impact HD
Ion_mode: N
Collision_energy: 10
InChIKey: WXTMDXOMEHJXQO-UHFFFAOYSA-N
Formula: C7H6O4
MW: 154
ExactMass: 154.026608672
Comments: "license=License CC-BY-NC-SA 4.0 International" "author=Plant Biology, The Noble Foundation, Ardmore, OK, US/Dennis Fine, Daniel Wherritt, and Lloyd Sumner" "instrument type=LC-ESI-TOF" "instrument=impact HD" "ionization=ESI" "ionization mode=negative" "ms level=MS2" "precursor m/z=153.026" "isolation width=5" "collision gas=Nitrogen" "collision energy=10" "peak width=0.034" "date=2013-09-05 22:29:40+02:00" "column=Waters Acquity BEH C18 1.7um x 2.1 x 150 mm" "retention time=107.4" "raw data file=C:\Data\Confirmed Standards\Reinjection 2 uL\MSMS\2,5-Dihydroxybenzoic acid MSMS.d" "precursor type=[M-H]-" "mass accuracy=43.569903153658935" "mass error=0.006667327999991812" "cas number=490-79-9" "SMILES=c1cc(c(cc1O)C(=O)O)O" "InChI=InChI=1S/C7H6O4/c8-4-1-2-6(9)5(3-4)7(10)11/h1-3,8-9H,(H,10,11)" "InChIKey=WXTMDXOMEHJXQO-UHFFFAOYSA-N" "molecular formula=C7H6O4" "total exact mass=154.026608672" "SMILES=C1=CC(=C(C=C1O)C(=O)O)O"
Num Peaks: 6
 108 100.000000; 
 109 95.295295; 
 110 5.605606; 
 123 2.902903; 
 153 78.678679; 
 154 4.404404; 


Name: 2,6-Dihydroxyacetophenone
SYNON: $:00in-source
DB#: MetaboBASE0108
InChIKey: YPTJKHVBDCRKNF-UHFFFAOYSA-N
Precursor_type: [M-H]-
Spectrum_type: MS2
PrecursorMZ: 151.043
Instrument_type: LC-ESI-TOF
Instrument: impact HD
Ion_mode: N
Collision_energy: 20
InChIKey: YPTJKHVBDCRKNF-UHFFFAOYSA-N
Formula: C8H8O3
MW: 152
ExactMass: 152.04734411599998
Comments: "license=License CC-BY-NC-SA 4.0 International" "author=Plant Biology, The Noble Foundation, Ardmore, OK, US/Dennis Fine, Daniel Wherritt, and Lloyd Sumner" "instrument type=LC-ESI-TOF" "instrument=impact HD" "ionization=ESI" "ionization mode=negative" "ms level=MS2" "precursor m/z=151.043" "isolation width=5" "collision gas=Nitrogen" "collision energy=20" "peak width=0.03" "date=2013-09-05 21:48:48+02:00" "column=Waters Acquity BEH C18 1.7um x 2.1 x 150 mm" "retention time=372.6" "raw data file=C:\Data\Confirmed Standards\Reinjection 2 uL\MSMS\2,6-Dihydroxyacetophenone MSMS.d" "precursor type=[M-H]-" "mass accuracy=19.410922717504885" "mass error=0.0029318840000200908" "cas number=699-83-2" "SMILES=CC(=O)c1c(cccc1O)O" "InChI=InChI=1S/C8H8O3/c1-5(9)8-6(10)3-2-4-7(8)11/h2-4,10-11H,1H3" "InChIKey=YPTJKHVBDCRKNF-UHFFFAOYSA-N" "molecular formula=C8H8O3" "total exact mass=152.04734411599998" "SMILES=CC(=O)C1=C(C=CC=C1O)O"
Num Peaks: 8
 107 3.203203; 
 109 100.000000; 
 110 6.106106; 
 133 10.910911; 
 135 73.573574; 
 136 3.903904; 
 151 52.552553; 
 152 3.403403; 


Name: 2,6-Dihydroxyacetophenone
SYNON: $:00in-source
DB#: MetaboBASE0109
InChIKey: YPTJKHVBDCRKNF-UHFFFAOYSA-N
Spectrum_type: MS2
PrecursorMZ: 151.2
Instrument_type: LC-ESI-TOF
Instrument: impact HD
Ion_mode: N
Collision_energy: 30
InChIKey: YPTJKHVBDCRKNF-UHFFFAOYSA-N
Formula: C8H8O3
MW: 152
ExactMass: 152.04734411599998
Comments: "license=License CC-BY-NC-SA 4.0 International" "author=Plant Biology, The Noble Foundation, Ardmore, OK, US/Dennis Fine, Daniel Wherritt, and Lloyd Sumner" "instrument type=LC-ESI-TOF" "instrument=impact HD" "ionization=ESI" "ionization mode=negative" "ms level=MS2" "precursor m/z=151.2" "isolation width=5" "collision gas=Nitrogen" "collision energy=30" "peak width=0.037" "date=2013-09-05 21:48:48+02:00" "column=Waters Acquity BEH C18 1.7um x 2.1 x 150 mm" "retention time=372.6" "raw data file=C:\Data\Confirmed Standards\Reinjection 2 uL\MSMS\2,6-Dihydroxyacetophenone MSMS.d" "cas number=699-83-2" "SMILES=CC(=O)c1c(cccc1O)O" "InChI=InChI=1S/C8H8O3/c1-5(9)8-6(10)3-2-4-7(8)11/h2-4,10-11H,1H3" "InChIKey=YPTJKHVBDCRKNF-UHFFFAOYSA-N" "molecular formula=C8H8O3" "total exact mass=152.04734411599998" "SMILES=CC(=O)C1=C(C=CC=C1O)O"
Num Peaks: 2
 109 100.000000; 
 135 62.662663; 


Name: 2,6-Dihydroxyacetophenone
SYNON: $:00in-source
DB#: MetaboBASE0110
InChIKey: YPTJKHVBDCRKNF-UHFFFAOYSA-N
Instrument_type: LC-ESI-TOF
Instrument: impact HD
Ion_mode: N
InChIKey: YPTJKHVBDCRKNF-UHFFFAOYSA-N
Formula: C8H8O3
MW: 152
ExactMass: 152.04734411599998
Comments: "license=License CC-BY-NC-SA 4.0 International" "author=Plant Biology, The Noble Foundation, Ardmore, OK, US/Dennis Fine, Daniel Wherritt, and Lloyd Sumner" "instrument type=LC-ESI-TOF" "instrument=impact HD" "ionization=ESI" "ionization mode=negative" "collision gas=Nitrogen" "peak width=0.025" "date=2013-09-04 07:49:19+02:00" "column=Waters Acquity BEH C18 1.7um x 2.1 x 150 mm" "retention time=373.2" "raw data file=D:\Data\Confirmed Standards\Reinjection 2 uL\2,6-Dihydroxyacetophenone.d" "cas number=699-83-2" "SMILES=CC(=O)c1c(cccc1O)O" "InChI=InChI=1S/C8H8O3/c1-5(9)8-6(10)3-2-4-7(8)11/h2-4,10-11H,1H3" "InChIKey=YPTJKHVBDCRKNF-UHFFFAOYSA-N" "molecular formula=C8H8O3" "total exact mass=152.04734411599998" "SMILES=CC(=O)C1=C(C=CC=C1O)O"
Num Peaks: 5
 109 2.702703; 
 133 3.103103; 
 135 9.609610; 
 151 100.000000; 
 152 7.407407; 


Name: 2,6-Dihydroxyacetophenone
SYNON: $:00in-source
DB#: MetaboBASE0111
InChIKey: YPTJKHVBDCRKNF-UHFFFAOYSA-N
Precursor_type: [M-H]-
Spectrum_type: MS2
PrecursorMZ: 151.0432
Instrument_type: LC-ESI-TOF
Instrument: impact HD
Ion_mode: N
Collision_energy: 10
InChIKey: YPTJKHVBDCRKNF-UHFFFAOYSA-N
Formula: C8H8O3
MW: 152
ExactMass: 152.04734411599998
Comments: "license=License CC-BY-NC-SA 4.0 International" "author=Plant Biology, The Noble Foundation, Ardmore, OK, US/Dennis Fine, Daniel Wherritt, and Lloyd Sumner" "instrument type=LC-ESI-TOF" "instrument=impact HD" "ionization=ESI" "ionization mode=negative" "ms level=MS2" "precursor m/z=151.0432" "isolation width=5" "collision gas=Nitrogen" "collision energy=10" "peak width=0.022" "date=2013-09-05 21:48:48+02:00" "column=Waters Acquity BEH C18 1.7um x 2.1 x 150 mm" "retention time=372.6" "raw data file=C:\Data\Confirmed Standards\Reinjection 2 uL\MSMS\2,6-Dihydroxyacetophenone MSMS.d" "precursor type=[M-H]-" "mass accuracy=20.73502150395867" "mass error=0.00313188400002673" "cas number=699-83-2" "SMILES=CC(=O)c1c(cccc1O)O" "InChI=InChI=1S/C8H8O3/c1-5(9)8-6(10)3-2-4-7(8)11/h2-4,10-11H,1H3" "InChIKey=YPTJKHVBDCRKNF-UHFFFAOYSA-N" "molecular formula=C8H8O3" "total exact mass=152.04734411599998" "SMILES=CC(=O)C1=C(C=CC=C1O)O"
Num Peaks: 4
 109 8.408408; 
 135 8.608609; 
 151 100.000000; 
 152 6.106106; 


Name: 2'-Hydroxyflavone
SYNON: $:00in-source
DB#: MetaboBASE0112
InChIKey: ZZLQHXCRRMUGQJ-UHFFFAOYSA-N
Precursor_type: [M-H]-
Spectrum_type: MS2
PrecursorMZ: 237.055
Instrument_type: LC-ESI-TOF
Instrument: impact HD
Ion_mode: N
Collision_energy: 30
InChIKey: ZZLQHXCRRMUGQJ-UHFFFAOYSA-N
Formula: C15H10O3
MW: 238
ExactMass: 238.06299417999998
Comments: "license=License CC-BY-NC-SA 4.0 International" "author=Plant Biology, The Noble Foundation, Ardmore, OK, US/Dennis Fine, Daniel Wherritt, and Lloyd Sumner" "instrument type=LC-ESI-TOF" "instrument=impact HD" "ionization=ESI" "ionization mode=negative" "ms level=MS2" "precursor m/z=237.055" "isolation width=5" "collision gas=Nitrogen" "collision energy=30" "peak width=0.025" "date=2013-09-05 17:02:40+02:00" "column=Waters Acquity BEH C18 1.7um x 2.1 x 150 mm" "retention time=760.8" "raw data file=C:\Data\Confirmed Standards\Reinjection 2 uL\MSMS\2-Hydroxyflavone (V 32) MSMS.d" "precursor type=[M-H]-" "mass accuracy=3.029592288618567" "mass error=-7.181799999784744E-4" "cas number=35244-11-2" "SMILES=c1ccc2c(c1)c(=O)cc(o2)c3ccccc3O" "InChI=InChI=1S/C15H10O3/c16-12-7-3-1-5-10(12)15-9-13(17)11-6-2-4-8-14(11)18-15/h1-9,16H" "InChIKey=ZZLQHXCRRMUGQJ-UHFFFAOYSA-N" "molecular formula=C15H10O3" "total exact mass=238.06299417999998" "SMILES=C1=CC=C(C(=C1)C2=CC(=O)C3=CC=CC=C3O2)O"
Num Peaks: 4
 117 100.000000; 
 118 6.106106; 
 209 4.904905; 
 237 3.303303; 


Name: 2'-Hydroxyflavone
SYNON: $:00in-source
DB#: MetaboBASE0113
InChIKey: ZZLQHXCRRMUGQJ-UHFFFAOYSA-N
Instrument_type: LC-ESI-TOF
Instrument: impact HD
Ion_mode: N
InChIKey: ZZLQHXCRRMUGQJ-UHFFFAOYSA-N
Formula: C15H10O3
MW: 238
ExactMass: 238.06299417999998
Comments: "license=License CC-BY-NC-SA 4.0 International" "author=Plant Biology, The Noble Foundation, Ardmore, OK, US/Dennis Fine, Daniel Wherritt, and Lloyd Sumner" "instrument type=LC-ESI-TOF" "instrument=impact HD" "ionization=ESI" "ionization mode=negative" "collision gas=Nitrogen" "peak width=0.031" "date=2013-09-04 03:03:53+02:00" "column=Waters Acquity BEH C18 1.7um x 2.1 x 150 mm" "retention time=761.4" "raw data file=D:\Data\Confirmed Standards\Reinjection 2 uL\2-Hydroxyflavone (vial 32).d" "cas number=35244-11-2" "SMILES=c1ccc2c(c1)c(=O)cc(o2)c3ccccc3O" "InChI=InChI=1S/C15H10O3/c16-12-7-3-1-5-10(12)15-9-13(17)11-6-2-4-8-14(11)18-15/h1-9,16H" "InChIKey=ZZLQHXCRRMUGQJ-UHFFFAOYSA-N" "molecular formula=C15H10O3" "total exact mass=238.06299417999998" "SMILES=C1=CC=C(C(=C1)C2=CC(=O)C3=CC=CC=C3O2)O"
Num Peaks: 4
 209 0.900901; 
 237 100.000000; 
 238 20.320320; 
 239 1.601602; 


Name: 2'-Hydroxyflavone
SYNON: $:00in-source
DB#: MetaboBASE0114
InChIKey: ZZLQHXCRRMUGQJ-UHFFFAOYSA-N
Precursor_type: [M-H]-
Spectrum_type: MS2
PrecursorMZ: 237.055
Instrument_type: LC-ESI-TOF
Instrument: impact HD
Ion_mode: N
Collision_energy: 20
InChIKey: ZZLQHXCRRMUGQJ-UHFFFAOYSA-N
Formula: C15H10O3
MW: 238
ExactMass: 238.06299417999998
Comments: "license=License CC-BY-NC-SA 4.0 International" "author=Plant Biology, The Noble Foundation, Ardmore, OK, US/Dennis Fine, Daniel Wherritt, and Lloyd Sumner" "instrument type=LC-ESI-TOF" "instrument=impact HD" "ionization=ESI" "ionization mode=negative" "ms level=MS2" "precursor m/z=237.055" "isolation width=5" "collision gas=Nitrogen" "collision energy=20" "peak width=0.02" "date=2013-09-05 17:02:40+02:00" "column=Waters Acquity BEH C18 1.7um x 2.1 x 150 mm" "retention time=760.8" "raw data file=C:\Data\Confirmed Standards\Reinjection 2 uL\MSMS\2-Hydroxyflavone (V 32) MSMS.d" "precursor type=[M-H]-" "mass accuracy=3.029592288618567" "mass error=-7.181799999784744E-4" "cas number=35244-11-2" "SMILES=c1ccc2c(c1)c(=O)cc(o2)c3ccccc3O" "InChI=InChI=1S/C15H10O3/c16-12-7-3-1-5-10(12)15-9-13(17)11-6-2-4-8-14(11)18-15/h1-9,16H" "InChIKey=ZZLQHXCRRMUGQJ-UHFFFAOYSA-N" "molecular formula=C15H10O3" "total exact mass=238.06299417999998" "SMILES=C1=CC=C(C(=C1)C2=CC(=O)C3=CC=CC=C3O2)O"
Num Peaks: 5
 117 43.643644; 
 118 3.003003; 
 209 6.306306; 
 237 100.000000; 
 238 11.611612; 


Name: 4-Methylumbelliferone
SYNON: $:00in-source
DB#: MetaboBASE0115
InChIKey: HSHNITRMYYLLCV-UHFFFAOYSA-N
Precursor_type: [M-H]-
Spectrum_type: MS2
PrecursorMZ: 175.045
Instrument_type: LC-ESI-TOF
Instrument: impact HD
Ion_mode: N
Collision_energy: 30
InChIKey: HSHNITRMYYLLCV-UHFFFAOYSA-N
Formula: C10H8O3
MW: 176
ExactMass: 176.04734411599998
Comments: "license=License CC-BY-NC-SA 4.0 International" "author=Plant Biology, The Noble Foundation, Ardmore, OK, US/Dennis Fine, Daniel Wherritt, and Lloyd Sumner" "instrument type=LC-ESI-TOF" "instrument=impact HD" "ionization=ESI" "ionization mode=negative" "ms level=MS2" "precursor m/z=175.045" "isolation width=5" "collision gas=Nitrogen" "collision energy=30" "peak width=0.028" "date=2013-09-05 21:07:57+02:00" "column=Waters Acquity BEH C18 1.7um x 2.1 x 150 mm" "retention time=345.6" "raw data file=C:\Data\Confirmed Standards\Reinjection 2 uL\MSMS\4-Methylumbelliferone MSMS.d" "precursor type=[M-H]-" "mass accuracy=28.174949298758712" "mass error=0.004931884000001219" "cas number=5980-33-6" "SMILES=Cc1cc(=O)oc2c1ccc(c2)O" "InChI=InChI=1S/C10H8O3/c1-6-4-10(12)13-9-5-7(11)2-3-8(6)9/h2-5,11H,1H3" "InChIKey=HSHNITRMYYLLCV-UHFFFAOYSA-N" "molecular formula=C10H8O3" "total exact mass=176.04734411599998" "SMILES=CC1=CC(=O)OC2=C1C=CC(=C2)O"
Num Peaks: 17
 103 4.604605; 
 105 17.217217; 
 109 3.103103; 
 117 2.402402; 
 119 100.000000; 
 120 6.806807; 
 123 20.220220; 
 130 8.908909; 
 131 26.526527; 
 132 5.805806; 
 132 3.403403; 
 133 87.687688; 
 134 6.806807; 
 147 40.340340; 
 148 3.503504; 
 175 47.547548; 
 176 4.604605; 


Name: 4-Methylumbelliferone
SYNON: $:00in-source
DB#: MetaboBASE0116
InChIKey: HSHNITRMYYLLCV-UHFFFAOYSA-N
Instrument_type: LC-ESI-TOF
Instrument: impact HD
Ion_mode: N
InChIKey: HSHNITRMYYLLCV-UHFFFAOYSA-N
Formula: C10H8O3
MW: 176
ExactMass: 176.04734411599998
Comments: "license=License CC-BY-NC-SA 4.0 International" "author=Plant Biology, The Noble Foundation, Ardmore, OK, US/Dennis Fine, Daniel Wherritt, and Lloyd Sumner" "instrument type=LC-ESI-TOF" "instrument=impact HD" "ionization=ESI" "ionization mode=negative" "collision gas=Nitrogen" "peak width=0.035" "date=2013-09-04 07:08:32+02:00" "column=Waters Acquity BEH C18 1.7um x 2.1 x 150 mm" "retention time=345.6" "raw data file=D:\Data\Confirmed Standards\Reinjection 2 uL\4-Methylumbelliferone.d" "cas number=5980-33-6" "SMILES=Cc1cc(=O)oc2c1ccc(c2)O" "InChI=InChI=1S/C10H8O3/c1-6-4-10(12)13-9-5-7(11)2-3-8(6)9/h2-5,11H,1H3" "InChIKey=HSHNITRMYYLLCV-UHFFFAOYSA-N" "molecular formula=C10H8O3" "total exact mass=176.04734411599998" "SMILES=CC1=CC(=O)OC2=C1C=CC(=C2)O"
Num Peaks: 6
 147 1.301301; 
 175 100.000000; 
 176 13.113113; 
 177 1.201201; 
 756 2.602603; 
 757 1.101101; 


Name: 5-Methoxysalicylic acid
SYNON: $:00in-source
DB#: MetaboBASE0117
InChIKey: IZZIWIAOVZOBLF-UHFFFAOYSA-N
Instrument_type: LC-ESI-TOF
Instrument: impact HD
Ion_mode: N
InChIKey: IZZIWIAOVZOBLF-UHFFFAOYSA-N
Formula: C8H8O4
MW: 168
ExactMass: 168.042258736
Comments: "license=License CC-BY-NC-SA 4.0 International" "author=Plant Biology, The Noble Foundation, Ardmore, OK, US/Dennis Fine, Daniel Wherritt, and Lloyd Sumner" "instrument type=LC-ESI-TOF" "instrument=impact HD" "ionization=ESI" "ionization mode=negative" "collision gas=Nitrogen" "peak width=0.031" "date=2013-09-04 06:27:44+02:00" "column=Waters Acquity BEH C18 1.7um x 2.1 x 150 mm" "retention time=321.6" "raw data file=D:\Data\Confirmed Standards\Reinjection 2 uL\5-Methoxysalicylic acid.d" "cas number=2612-02-4" "SMILES=COc1ccc(c(c1)C(=O)O)O" "InChI=InChI=1S/C8H8O4/c1-12-5-2-3-7(9)6(4-5)8(10)11/h2-4,9H,1H3,(H,10,11)" "InChIKey=IZZIWIAOVZOBLF-UHFFFAOYSA-N" "molecular formula=C8H8O4" "total exact mass=168.042258736" "SMILES=COC1=CC(=C(C=C1)O)C(=O)O"
Num Peaks: 47
 108 20.720721; 
 152 53.453453; 
 153 6.606607; 
 166 3.103103; 
 167 50.950951; 
 168 4.104104; 
 169 2.902903; 
 189 2.102102; 
 207 2.602603; 
 213 2.402402; 
 214 13.013013; 
 215 3.203203; 
 222 4.704705; 
 229 4.604605; 
 230 2.302302; 
 246 2.102102; 
 249 2.602603; 
 250 3.203203; 
 258 3.303303; 
 259 2.502503; 
 266 2.702703; 
 273 19.119119; 
 274 3.403403; 
 275 2.102102; 
 315 2.402402; 
 319 6.206206; 
 333 18.918919; 
 334 3.203203; 
 335 2.002002; 
 341 4.404404; 
 341 2.102102; 
 343 6.406406; 
 349 15.315315; 
 350 2.902903; 
 357 4.804805; 
 357 100.000000; 
 358 14.714715; 
 359 10.110110; 
 359 2.802803; 
 372 2.602603; 
 373 2.402402; 
 387 25.625626; 
 388 5.805806; 
 415 2.102102; 
 463 2.502503; 
 537 3.603604; 
 537 2.802803; 


Name: 5-Methoxysalicylic acid
SYNON: $:00in-source
DB#: MetaboBASE0118
InChIKey: IZZIWIAOVZOBLF-UHFFFAOYSA-N
Spectrum_type: MS2
PrecursorMZ: 167.2
Instrument_type: LC-ESI-TOF
Instrument: impact HD
Ion_mode: N
Collision_energy: 20
InChIKey: IZZIWIAOVZOBLF-UHFFFAOYSA-N
Formula: C8H8O4
MW: 168
ExactMass: 168.042258736
Comments: "license=License CC-BY-NC-SA 4.0 International" "author=Plant Biology, The Noble Foundation, Ardmore, OK, US/Dennis Fine, Daniel Wherritt, and Lloyd Sumner" "instrument type=LC-ESI-TOF" "instrument=impact HD" "ionization=ESI" "ionization mode=negative" "ms level=MS2" "precursor m/z=167.2" "isolation width=5" "collision gas=Nitrogen" "collision energy=20" "peak width=0.033" "date=2013-09-05 20:27:05+02:00" "column=Waters Acquity BEH C18 1.7um x 2.1 x 150 mm" "retention time=319.8" "raw data file=C:\Data\Confirmed Standards\Reinjection 2 uL\MSMS\5-Methoxysalicylic acid MSMS.d" "cas number=2612-02-4" "SMILES=COc1ccc(c(c1)C(=O)O)O" "InChI=InChI=1S/C8H8O4/c1-12-5-2-3-7(9)6(4-5)8(10)11/h2-4,9H,1H3,(H,10,11)" "InChIKey=IZZIWIAOVZOBLF-UHFFFAOYSA-N" "molecular formula=C8H8O4" "total exact mass=168.042258736" "SMILES=COC1=CC(=C(C=C1)O)C(=O)O"
Num Peaks: 3
 108 100.000000; 
 109 6.006006; 
 152 12.312312; 


Name: 5-Methoxysalicylic acid
SYNON: $:00in-source
DB#: MetaboBASE0119
InChIKey: IZZIWIAOVZOBLF-UHFFFAOYSA-N
Precursor_type: [M-H]-
Spectrum_type: MS2
PrecursorMZ: 167.036
Instrument_type: LC-ESI-TOF
Instrument: impact HD
Ion_mode: N
Collision_energy: 10
InChIKey: IZZIWIAOVZOBLF-UHFFFAOYSA-N
Formula: C8H8O4
MW: 168
ExactMass: 168.042258736
Comments: "license=License CC-BY-NC-SA 4.0 International" "author=Plant Biology, The Noble Foundation, Ardmore, OK, US/Dennis Fine, Daniel Wherritt, and Lloyd Sumner" "instrument type=LC-ESI-TOF" "instrument=impact HD" "ionization=ESI" "ionization mode=negative" "ms level=MS2" "precursor m/z=167.036" "isolation width=5" "collision gas=Nitrogen" "collision energy=10" "peak width=0.032" "date=2013-09-05 20:27:05+02:00" "column=Waters Acquity BEH C18 1.7um x 2.1 x 150 mm" "retention time=319.8" "raw data file=C:\Data\Confirmed Standards\Reinjection 2 uL\MSMS\5-Methoxysalicylic acid MSMS.d" "precursor type=[M-H]-" "mass accuracy=6.090088364087367" "mass error=0.0010172639999836974" "cas number=2612-02-4" "SMILES=COc1ccc(c(c1)C(=O)O)O" "InChI=InChI=1S/C8H8O4/c1-12-5-2-3-7(9)6(4-5)8(10)11/h2-4,9H,1H3,(H,10,11)" "InChIKey=IZZIWIAOVZOBLF-UHFFFAOYSA-N" "molecular formula=C8H8O4" "total exact mass=168.042258736" "SMILES=COC1=CC(=C(C=C1)O)C(=O)O"
Num Peaks: 8
 95 2.402402; 
 108 100.000000; 
 109 5.605606; 
 123 3.003003; 
 152 75.875876; 
 153 5.405405; 
 167 52.452452; 
 168 4.904905; 


Name: Desmethylxanthohumol
SYNON: $:00in-source
DB#: MetaboBASE0120
InChIKey: FUSADYLVRMROPL-UXBLZVDNSA-N
Instrument_type: LC-ESI-TOF
Instrument: impact HD
Ion_mode: N
InChIKey: FUSADYLVRMROPL-UXBLZVDNSA-N
Formula: C20H20O5
MW: 340
ExactMass: 340.13107374000003
Comments: "license=License CC-BY-NC-SA 4.0 International" "author=Plant Biology, The Noble Foundation, Ardmore, OK, US/Dennis Fine, Daniel Wherritt, and Lloyd Sumner" "instrument type=LC-ESI-TOF" "instrument=impact HD" "ionization=ESI" "ionization mode=negative" "collision gas=Nitrogen" "peak width=0.017" "date=2013-09-04 09:51:40+02:00" "column=Waters Acquity BEH C18 1.7um x 2.1 x 150 mm" "retention time=1126.2" "raw data file=D:\Data\Confirmed Standards\Reinjection 2 uL\Desmethylxanthohumol.d" "cas number=115063-39-3" "SMILES=CC(=CCc1c(cc(c(c1O)C(=O)/C=C/c2ccc(cc2)O)O)O)C" "InChI=InChI=1S/C20H20O5/c1-12(2)3-9-15-17(23)11-18(24)19(20(15)25)16(22)10-6-13-4-7-14(21)8-5-13/h3-8,10-11,21,23-25H,9H2,1-2H3/b10-6+" "InChIKey=FUSADYLVRMROPL-UXBLZVDNSA-N" "molecular formula=C20H20O5" "total exact mass=340.13107374000003" "SMILES=CC(=CCC1=C(C=C(C(=C1O)C(=O)C=CC2=CC=C(C=C2)O)O)O)C"
Num Peaks: 4
 219 0.800801; 
 339 100.000000; 
 340 17.617618; 
 341 2.102102; 


Name: Desmethylxanthohumol
SYNON: $:00in-source
DB#: MetaboBASE0121
InChIKey: FUSADYLVRMROPL-UXBLZVDNSA-N
Precursor_type: [M-H]-
Spectrum_type: MS2
PrecursorMZ: 339.121
Instrument_type: LC-ESI-TOF
Instrument: impact HD
Ion_mode: N
Collision_energy: 30
InChIKey: FUSADYLVRMROPL-UXBLZVDNSA-N
Formula: C20H20O5
MW: 340
ExactMass: 340.13107374
Comments: "license=License CC-BY-NC-SA 4.0 International" "author=Plant Biology, The Noble Foundation, Ardmore, OK, US/Dennis Fine, Daniel Wherritt, and Lloyd Sumner" "instrument type=LC-ESI-TOF" "instrument=impact HD" "ionization=ESI" "ionization mode=negative" "ms level=MS2" "precursor m/z=339.121" "isolation width=5" "collision gas=Nitrogen" "collision energy=30" "peak width=0.034" "date=2013-09-05 23:51:21+02:00" "column=Waters Acquity BEH C18 1.7um x 2.1 x 150 mm" "retention time=1126.2" "raw data file=C:\Data\Confirmed Standards\Reinjection 2 uL\MSMS\Desmethylxanthohumol MSMS.d" "precursor type=[M-H]-" "mass accuracy=8.249975672416138" "mass error=-0.002797740000005433" "cas number=115063-39-3" "SMILES=CC(=CCc1c(cc(c(c1O)C(=O)/C=C/c2ccc(cc2)O)O)O)C" "InChI=InChI=1S/C20H20O5/c1-12(2)3-9-15-17(23)11-18(24)19(20(15)25)16(22)10-6-13-4-7-14(21)8-5-13/h3-8,10-11,21,23-25H,9H2,1-2H3/b10-6+" "InChIKey=FUSADYLVRMROPL-UXBLZVDNSA-N" "molecular formula=C20H20O5" "total exact mass=340.13107374" "SMILES=CC(=CCC1=C(C=C(C(=C1O)C(=O)C=CC2=CC=C(C=C2)O)O)O)C"
Num Peaks: 23
 107 2.202202; 
 109 6.606607; 
 119 100.000000; 
 120 7.007007; 
 131 2.902903; 
 132 2.102102; 
 133 20.820821; 
 134 2.702703; 
 145 2.402402; 
 149 2.502503; 
 151 10.610611; 
 175 9.109109; 
 176 10.210210; 
 177 3.203203; 
 190 2.202202; 
 191 3.303303; 
 219 70.270270; 
 220 11.511512; 
 233 9.509510; 
 245 5.705706; 
 246 2.302302; 
 339 8.508509; 
 340 2.202202; 


Name: Xanthohumol
SYNON: $:00in-source
DB#: MetaboBASE0122
InChIKey: ORXQGKIUCDPEAJ-YRNVUSSQSA-N
Instrument_type: LC-ESI-TOF
Instrument: impact HD
Ion_mode: N
InChIKey: ORXQGKIUCDPEAJ-YRNVUSSQSA-N
Formula: C21H22O5
MW: 354
ExactMass: 354.146723804
Comments: "license=License CC-BY-NC-SA 4.0 International" "author=Plant Biology, The Noble Foundation, Ardmore, OK, US/Dennis Fine, Daniel Wherritt, and Lloyd Sumner" "instrument type=LC-ESI-TOF" "instrument=impact HD" "ionization=ESI" "ionization mode=negative" "collision gas=Nitrogen" "peak width=0.017" "date=2013-09-04 09:10:54+02:00" "column=Waters Acquity BEH C18 1.7um x 2.1 x 150 mm" "retention time=1230.6" "raw data file=D:\Data\Confirmed Standards\Reinjection 2 uL\Xanthohumol (vial 41).d" "cas number=569-83-5" "SMILES=CC(=CCc1c(cc(c(c1O)C(=O)/C=C/c2ccc(cc2)O)OC)O)C" "InChI=InChI=1S/C21H22O5/c1-13(2)4-10-16-18(24)12-19(26-3)20(21(16)25)17(23)11-7-14-5-8-15(22)9-6-14/h4-9,11-12,22,24-25H,10H2,1-3H3/b11-7+" "InChIKey=ORXQGKIUCDPEAJ-YRNVUSSQSA-N" "molecular formula=C21H22O5" "total exact mass=354.146723804" "SMILES=CC(=CCC1=C(C=C(C(=C1O)C(=O)C=CC2=CC=C(C=C2)O)OC)O)C"
Num Peaks: 4
 233 1.901902; 
 353 100.000000; 
 354 18.618619; 
 355 2.202202; 


Name: Xanthohumol
SYNON: $:00in-source
DB#: MetaboBASE0123
InChIKey: ORXQGKIUCDPEAJ-YRNVUSSQSA-N
Precursor_type: [M-H]-
Spectrum_type: MS2
PrecursorMZ: 353.1389
Instrument_type: LC-ESI-TOF
Instrument: impact HD
Ion_mode: N
Collision_energy: 20
InChIKey: ORXQGKIUCDPEAJ-YRNVUSSQSA-N
Formula: C21H22O5
MW: 354
ExactMass: 354.146723804
Comments: "license=License CC-BY-NC-SA 4.0 International" "author=Plant Biology, The Noble Foundation, Ardmore, OK, US/Dennis Fine, Daniel Wherritt, and Lloyd Sumner" "instrument type=LC-ESI-TOF" "instrument=impact HD" "ionization=ESI" "ionization mode=negative" "ms level=MS2" "precursor m/z=353.1389" "isolation width=5" "collision gas=Nitrogen" "collision energy=20" "peak width=0.022" "date=2013-09-05 23:10:31+02:00" "column=Waters Acquity BEH C18 1.7um x 2.1 x 150 mm" "retention time=1230.6" "raw data file=C:\Data\Confirmed Standards\Reinjection 2 uL\MSMS\Xanthohumol (vial 41) MSMS.d" "precursor type=[M-H]-" "mass accuracy=1.5512423015620498" "mass error=-5.478040000070905E-4" "cas number=569-83-5" "SMILES=CC(=CCc1c(cc(c(c1O)C(=O)/C=C/c2ccc(cc2)O)OC)O)C" "InChI=InChI=1S/C21H22O5/c1-13(2)4-10-16-18(24)12-19(26-3)20(21(16)25)17(23)11-7-14-5-8-15(22)9-6-14/h4-9,11-12,22,24-25H,10H2,1-3H3/b11-7+" "InChIKey=ORXQGKIUCDPEAJ-YRNVUSSQSA-N" "molecular formula=C21H22O5" "total exact mass=354.146723804" "SMILES=CC(=CCC1=C(C=C(C(=C1O)C(=O)C=CC2=CC=C(C=C2)O)OC)O)C"
Num Peaks: 7
 119 23.923924; 
 233 68.268268; 
 234 6.806807; 
 295 2.902903; 
 353 100.000000; 
 354 15.415415; 
 355 2.102102; 


Name: Vanillic acid
SYNON: $:00in-source
DB#: MetaboBASE0124
InChIKey: WKOLLVMJNQIZCI-UHFFFAOYSA-N
Instrument_type: LC-ESI-TOF
Instrument: impact HD
Ion_mode: N
InChIKey: WKOLLVMJNQIZCI-UHFFFAOYSA-N
Formula: C8H8O4
MW: 168
ExactMass: 168.042258736
Comments: "license=License CC-BY-NC-SA 4.0 International" "author=Plant Biology, The Noble Foundation, Ardmore, OK, US/Dennis Fine, Daniel Wherritt, and Lloyd Sumner" "instrument type=LC-ESI-TOF" "instrument=impact HD" "ionization=ESI" "ionization mode=negative" "collision gas=Nitrogen" "peak width=0.014" "date=2014-01-10 05:50:33+01:00" "column=Waters Acquity BEH C18 1.7um x 2.1 x 150 mm" "retention time=154.8" "raw data file=C:\Data\Confirmed Standards\14Jan9 Confirmed stds MSMS\Vanillic Acid (vial 31).d" "cas number=121-34-6" "SMILES=COc1cc(ccc1O)C(=O)O" "InChI=InChI=1S/C8H8O4/c1-12-7-4-5(8(10)11)2-3-6(7)9/h2-4,9H,1H3,(H,10,11)" "InChIKey=WKOLLVMJNQIZCI-UHFFFAOYSA-N" "molecular formula=C8H8O4" "total exact mass=168.042258736" "SMILES=COC1=C(C=CC(=C1)C(=O)O)O"
Num Peaks: 44
 123 7.607608; 
 152 12.012012; 
 153 2.202202; 
 167 100.000000; 
 168 7.107107; 
 235 6.806807; 
 266 2.202202; 
 273 5.705706; 
 289 18.618619; 
 290 3.103103; 
 296 2.902903; 
 303 3.403403; 
 333 9.409409; 
 341 3.203203; 
 357 33.333333; 
 357 4.104104; 
 358 5.705706; 
 402 5.405405; 
 403 2.102102; 
 417 2.702703; 
 419 3.203203; 
 425 4.304304; 
 475 5.505506; 
 479 2.702703; 
 479 8.308308; 
 531 2.302302; 
 541 15.715716; 
 542 3.703704; 
 547 6.206206; 
 602 11.011011; 
 603 2.602603; 
 609 2.202202; 
 652 3.903904; 
 666 3.103103; 
 724 10.010010; 
 725 2.702703; 
 731 2.002002; 
 746 2.202202; 
 792 2.302302; 
 914 4.904905; 
 915 4.004004; 
 916 2.202202; 
 1104 3.903904; 
 1105 2.502503; 


Name: Vanillic acid
SYNON: $:00in-source
DB#: MetaboBASE0125
InChIKey: WKOLLVMJNQIZCI-UHFFFAOYSA-N
Precursor_type: [M-H]-
Spectrum_type: MS2
PrecursorMZ: 167.1
Instrument_type: LC-ESI-TOF
Instrument: impact HD
Ion_mode: N
Collision_energy: 20
InChIKey: WKOLLVMJNQIZCI-UHFFFAOYSA-N
Formula: C8H8O4
MW: 168
ExactMass: 168.042258736
Comments: "license=License CC-BY-NC-SA 4.0 International" "author=Plant Biology, The Noble Foundation, Ardmore, OK, US/Dennis Fine, Daniel Wherritt, and Lloyd Sumner" "instrument type=LC-ESI-TOF" "instrument=impact HD" "ionization=ESI" "ionization mode=negative" "ms level=MS2" "precursor m/z=167.1" "isolation width=5" "collision gas=Nitrogen" "collision energy=20" "peak width=0.015" "date=2014-01-10 05:50:33+01:00" "column=Waters Acquity BEH C18 1.7um x 2.1 x 150 mm" "retention time=154.8" "raw data file=C:\Data\Confirmed Standards\14Jan9 Confirmed stds MSMS\Vanillic Acid (vial 31).d" "precursor type=[M-H]-" "mass accuracy=389.0919449430081" "mass error=0.06501726399997665" "cas number=121-34-6" "SMILES=COc1cc(ccc1O)C(=O)O" "InChI=InChI=1S/C8H8O4/c1-12-7-4-5(8(10)11)2-3-6(7)9/h2-4,9H,1H3,(H,10,11)" "InChIKey=WKOLLVMJNQIZCI-UHFFFAOYSA-N" "molecular formula=C8H8O4" "total exact mass=168.042258736" "SMILES=COC1=C(C=CC(=C1)C(=O)O)O"
Num Peaks: 2
 108 100.000000; 
 152 37.037037; 


Name: Vanillic acid
SYNON: $:00in-source
DB#: MetaboBASE0126
InChIKey: WKOLLVMJNQIZCI-UHFFFAOYSA-N
Instrument_type: LC-ESI-TOF
Instrument: impact HD
Ion_mode: N
InChIKey: WKOLLVMJNQIZCI-UHFFFAOYSA-N
Formula: C8H8O4
MW: 168
ExactMass: 168.042258736
Comments: "license=License CC-BY-NC-SA 4.0 International" "author=Plant Biology, The Noble Foundation, Ardmore, OK, US/Dennis Fine, Daniel Wherritt, and Lloyd Sumner" "instrument type=LC-ESI-TOF" "instrument=impact HD" "ionization=ESI" "ionization mode=negative" "collision gas=Nitrogen" "peak width=0.03" "date=2013-09-04 02:23:07+02:00" "column=Waters Acquity BEH C18 1.7um x 2.1 x 150 mm" "retention time=154.8" "raw data file=D:\Data\Confirmed Standards\Reinjection 2 uL\Vanillic Acid (vial 31)_1490.d" "cas number=121-34-6" "SMILES=COc1cc(ccc1O)C(=O)O" "InChI=InChI=1S/C8H8O4/c1-12-7-4-5(8(10)11)2-3-6(7)9/h2-4,9H,1H3,(H,10,11)" "InChIKey=WKOLLVMJNQIZCI-UHFFFAOYSA-N" "molecular formula=C8H8O4" "total exact mass=168.042258736" "SMILES=COC1=C(C=CC(=C1)C(=O)O)O"
Num Peaks: 26
 108 7.307307; 
 123 10.410410; 
 152 25.725726; 
 167 34.634635; 
 168 2.902903; 
 230 2.602603; 
 245 6.306306; 
 273 4.104104; 
 274 3.303303; 
 289 20.920921; 
 290 3.303303; 
 303 3.303303; 
 333 23.323323; 
 334 3.803804; 
 341 3.303303; 
 357 100.000000; 
 358 15.515516; 
 359 2.802803; 
 417 5.205205; 
 419 4.204204; 
 475 3.103103; 
 479 8.008008; 
 479 3.203203; 
 483 2.802803; 
 541 20.320320; 
 542 4.804805; 


Name: Vanillic acid
SYNON: $:00in-source
DB#: MetaboBASE0127
InChIKey: WKOLLVMJNQIZCI-UHFFFAOYSA-N
Precursor_type: [M-H]-
Spectrum_type: MS2
PrecursorMZ: 167.0353
Instrument_type: LC-ESI-TOF
Instrument: impact HD
Ion_mode: N
Collision_energy: 10
InChIKey: WKOLLVMJNQIZCI-UHFFFAOYSA-N
Formula: C8H8O4
MW: 168
ExactMass: 168.042258736
Comments: "license=License CC-BY-NC-SA 4.0 International" "author=Plant Biology, The Noble Foundation, Ardmore, OK, US/Dennis Fine, Daniel Wherritt, and Lloyd Sumner" "instrument type=LC-ESI-TOF" "instrument=impact HD" "ionization=ESI" "ionization mode=negative" "ms level=MS2" "precursor m/z=167.0353" "isolation width=5" "collision gas=Nitrogen" "collision energy=10" "peak width=0.017" "date=2014-01-10 05:50:33+01:00" "column=Waters Acquity BEH C18 1.7um x 2.1 x 150 mm" "retention time=154.8" "raw data file=C:\Data\Confirmed Standards\14Jan9 Confirmed stds MSMS\Vanillic Acid (vial 31).d" "precursor type=[M-H]-" "mass accuracy=1.899382944736122" "mass error=3.1726399998888155E-4" "cas number=121-34-6" "SMILES=COc1cc(ccc1O)C(=O)O" "InChI=InChI=1S/C8H8O4/c1-12-7-4-5(8(10)11)2-3-6(7)9/h2-4,9H,1H3,(H,10,11)" "InChIKey=WKOLLVMJNQIZCI-UHFFFAOYSA-N" "molecular formula=C8H8O4" "total exact mass=168.042258736" "SMILES=COC1=C(C=CC(=C1)C(=O)O)O"
Num Peaks: 4
 108 46.746747; 
 123 36.336336; 
 152 100.000000; 
 167 55.855856; 


Name: Salicylic acid
SYNON: $:00in-source
DB#: MetaboBASE0128
InChIKey: YGSDEFSMJLZEOE-UHFFFAOYSA-N
Instrument_type: LC-ESI-TOF
Instrument: impact HD
Ion_mode: N
InChIKey: YGSDEFSMJLZEOE-UHFFFAOYSA-N
Formula: C7H6O3
MW: 138
ExactMass: 138.03169405199998
Comments: "license=License CC-BY-NC-SA 4.0 International" "author=Plant Biology, The Noble Foundation, Ardmore, OK, US/Dennis Fine, Daniel Wherritt, and Lloyd Sumner" "instrument type=LC-ESI-TOF" "instrument=impact HD" "ionization=ESI" "ionization mode=negative" "collision gas=Nitrogen" "peak width=0.03" "date=2013-09-04 04:25:26+02:00" "column=Waters Acquity BEH C18 1.7um x 2.1 x 150 mm" "retention time=297" "raw data file=D:\Data\Confirmed Standards\Reinjection 2 uL\Salicylic acid (vial 34).d" "cas number=69-72-7" "SMILES=c1ccc(c(c1)C(=O)O)O" "InChI=InChI=1S/C7H6O3/c8-6-4-2-1-3-5(6)7(9)10/h1-4,8H,(H,9,10)" "InChIKey=YGSDEFSMJLZEOE-UHFFFAOYSA-N" "molecular formula=C7H6O3" "total exact mass=138.03169405199998" "SMILES=C1=CC=C(C(=C1)C(=O)O)O"
Num Peaks: 19
 137 64.164164; 
 138 5.005005; 
 219 3.803804; 
 281 3.103103; 
 283 7.907908; 
 297 100.000000; 
 298 14.014014; 
 299 19.719720; 
 300 3.103103; 
 313 4.504505; 
 325 4.504505; 
 327 82.382382; 
 328 15.515516; 
 451 15.715716; 
 452 3.403403; 
 509 3.603604; 
 617 3.803804; 
 647 4.204204; 
 669 3.603604; 


Name: Salicylic acid
SYNON: $:00in-source
DB#: MetaboBASE0129
InChIKey: YGSDEFSMJLZEOE-UHFFFAOYSA-N
Precursor_type: [M-H]-
Spectrum_type: MS2
PrecursorMZ: 137.025
Instrument_type: LC-ESI-TOF
Instrument: impact HD
Ion_mode: N
Collision_energy: 10
InChIKey: YGSDEFSMJLZEOE-UHFFFAOYSA-N
Formula: C7H6O3
MW: 138
ExactMass: 138.03169405199998
Comments: "license=License CC-BY-NC-SA 4.0 International" "author=Plant Biology, The Noble Foundation, Ardmore, OK, US/Dennis Fine, Daniel Wherritt, and Lloyd Sumner" "instrument type=LC-ESI-TOF" "instrument=impact HD" "ionization=ESI" "ionization mode=negative" "ms level=MS2" "precursor m/z=137.025" "isolation width=5" "collision gas=Nitrogen" "collision energy=10" "peak width=0.021" "date=2014-07-26 03:54:47+02:00" "column=Waters Acquity BEH C18 1.7um x 2.1 x 150 mm" "retention time=297" "raw data file=C:\Data\Confirmed standards 24_July_2014\MSMS\Salicylic acid vial 34_1-A,7_01_488.d" "precursor type=[M-H]-" "mass accuracy=4.247020616810279" "mass error=5.819480000184285E-4" "cas number=69-72-7" "SMILES=c1ccc(c(c1)C(=O)O)O" "InChI=InChI=1S/C7H6O3/c8-6-4-2-1-3-5(6)7(9)10/h1-4,8H,(H,9,10)" "InChIKey=YGSDEFSMJLZEOE-UHFFFAOYSA-N" "molecular formula=C7H6O3" "total exact mass=138.03169405199998" "SMILES=C1=CC=C(C(=C1)C(=O)O)O"
Num Peaks: 2
 137 100.000000; 
 138 7.307307; 


Name: Lupulone
SYNON: $:00in-source
DB#: MetaboBASE0130
InChIKey: WPVSVIXDXMNGGN-UHFFFAOYSA-N
Instrument_type: LC-ESI-TOF
Instrument: impact HD
Ion_mode: N
InChIKey: WPVSVIXDXMNGGN-UHFFFAOYSA-N
Formula: C26H38O4
MW: 414
ExactMass: 414.277009696
Comments: "license=License CC-BY-NC-SA 4.0 International" "author=Plant Biology, The Noble Foundation, Ardmore, OK, US/Dennis Fine, Daniel Wherritt, and Lloyd Sumner" "instrument type=LC-ESI-TOF" "instrument=impact HD" "ionization=ESI" "ionization mode=negative" "collision gas=Nitrogen" "peak width=0.019" "date=2013-09-04 10:32:27+02:00" "column=Waters Acquity BEH C18 1.7um x 2.1 x 150 mm" "retention time=1878" "raw data file=D:\Data\Confirmed Standards\Reinjection 2 uL\Lupulone (vial 43).d" "cas number=468-28-0" "SMILES=CC(C)CC(=O)C1=C(C(C(=O)C(=C1O)CC=C(C)C)(CC=C(C)C)CC=C(C)C)O" "InChI=InChI=1S/C26H38O4/c1-16(2)9-10-20-23(28)22(21(27)15-19(7)8)25(30)26(24(20)29,13-11-17(3)4)14-12-18(5)6/h9,11-12,19,28,30H,10,13-15H2,1-8H3" "InChIKey=WPVSVIXDXMNGGN-UHFFFAOYSA-N" "molecular formula=C26H38O4" "total exact mass=414.277009696" "SMILES=CC(C)CC(=O)C1=C(C(=C(C(C1=O)(CC=C(C)C)CC=C(C)C)O)CC=C(C)C)O" "InChI=InChI=1S/C26H38O4/c1-16(2)9-10-20-23(28)22(21(27)15-19(7)8)25(30)26(24(20)29,13-11-17(3)4)14-12-18(5)6/h9,11-12,19,28-29H,10,13-15H2,1-8H3" "InChIKey=LSDULPZJLTZEFD-UHFFFAOYSA-N"
Num Peaks: 3
 413 100.000000; 
 414 22.922923; 
 415 3.303303; 


Name: Lupulone
SYNON: $:00in-source
DB#: MetaboBASE0131
InChIKey: WPVSVIXDXMNGGN-UHFFFAOYSA-N
Precursor_type: [M-H]-
Spectrum_type: MS2
PrecursorMZ: 413.3
Instrument_type: LC-ESI-TOF
Instrument: impact HD
Ion_mode: N
Collision_energy: 50
InChIKey: WPVSVIXDXMNGGN-UHFFFAOYSA-N
Formula: C26H38O4
MW: 414
ExactMass: 414.277009696
Comments: "license=License CC-BY-NC-SA 4.0 International" "author=Plant Biology, The Noble Foundation, Ardmore, OK, US/Dennis Fine, Daniel Wherritt, and Lloyd Sumner" "instrument type=LC-ESI-TOF" "instrument=impact HD" "ionization=ESI" "ionization mode=negative" "ms level=MS2" "precursor m/z=413.3" "isolation width=5" "collision gas=Nitrogen" "collision energy=50" "peak width=0.015" "date=2014-01-10 07:12:07+01:00" "column=Waters Acquity BEH C18 1.7um x 2.1 x 150 mm" "retention time=1870.2" "raw data file=C:\Data\Confirmed Standards\14Jan9 Confirmed stds MSMS\Lupulone (vial 43).d" "precursor type=[M-H]-" "mass accuracy=73.23083474475781" "mass error=0.030266304000008404" "cas number=468-28-0" "SMILES=CC(C)CC(=O)C1=C(C(C(=O)C(=C1O)CC=C(C)C)(CC=C(C)C)CC=C(C)C)O" "InChI=InChI=1S/C26H38O4/c1-16(2)9-10-20-23(28)22(21(27)15-19(7)8)25(30)26(24(20)29,13-11-17(3)4)14-12-18(5)6/h9,11-12,19,28,30H,10,13-15H2,1-8H3" "InChIKey=WPVSVIXDXMNGGN-UHFFFAOYSA-N" "molecular formula=C26H38O4" "total exact mass=414.277009696" "SMILES=CC(C)CC(=O)C1=C(C(=C(C(C1=O)(CC=C(C)C)CC=C(C)C)O)CC=C(C)C)O" "InChI=InChI=1S/C26H38O4/c1-16(2)9-10-20-23(28)22(21(27)15-19(7)8)25(30)26(24(20)29,13-11-17(3)4)14-12-18(5)6/h9,11-12,19,28-29H,10,13-15H2,1-8H3" "InChIKey=LSDULPZJLTZEFD-UHFFFAOYSA-N"
Num Peaks: 25
 125 6.006006; 
 217 5.205205; 
 221 4.404404; 
 229 3.203203; 
 230 3.303303; 
 231 6.806807; 
 233 39.139139; 
 234 4.004004; 
 243 8.408408; 
 245 7.107107; 
 257 2.802803; 
 257 5.105105; 
 258 3.203203; 
 259 8.908909; 
 261 4.404404; 
 271 2.102102; 
 283 6.306306; 
 286 2.302302; 
 287 7.507508; 
 289 9.409409; 
 290 2.502503; 
 301 100.000000; 
 302 22.222222; 
 303 3.103103; 
 329 10.410410; 


Name: Lupulone
SYNON: $:00in-source
DB#: MetaboBASE0132
InChIKey: WPVSVIXDXMNGGN-UHFFFAOYSA-N
Precursor_type: [M-H]-
Spectrum_type: MS2
PrecursorMZ: 413.2693
Instrument_type: LC-ESI-TOF
Instrument: impact HD
Ion_mode: N
Collision_energy: 20
InChIKey: WPVSVIXDXMNGGN-UHFFFAOYSA-N
Formula: C26H38O4
MW: 414
ExactMass: 414.277009696
Comments: "license=License CC-BY-NC-SA 4.0 International" "author=Plant Biology, The Noble Foundation, Ardmore, OK, US/Dennis Fine, Daniel Wherritt, and Lloyd Sumner" "instrument type=LC-ESI-TOF" "instrument=impact HD" "ionization=ESI" "ionization mode=negative" "ms level=MS2" "precursor m/z=413.2693" "isolation width=5" "collision gas=Nitrogen" "collision energy=20" "peak width=0.01" "date=2014-01-10 07:12:07+01:00" "column=Waters Acquity BEH C18 1.7um x 2.1 x 150 mm" "retention time=1870.2" "raw data file=C:\Data\Confirmed Standards\14Jan9 Confirmed stds MSMS\Lupulone (vial 43).d" "precursor type=[M-H]-" "mass accuracy=1.0494270927358278" "mass error=-4.3369600001597064E-4" "cas number=468-28-0" "SMILES=CC(C)CC(=O)C1=C(C(C(=O)C(=C1O)CC=C(C)C)(CC=C(C)C)CC=C(C)C)O" "InChI=InChI=1S/C26H38O4/c1-16(2)9-10-20-23(28)22(21(27)15-19(7)8)25(30)26(24(20)29,13-11-17(3)4)14-12-18(5)6/h9,11-12,19,28,30H,10,13-15H2,1-8H3" "InChIKey=WPVSVIXDXMNGGN-UHFFFAOYSA-N" "molecular formula=C26H38O4" "total exact mass=414.277009696" "SMILES=CC(C)CC(=O)C1=C(C(=C(C(C1=O)(CC=C(C)C)CC=C(C)C)O)CC=C(C)C)O" "InChI=InChI=1S/C26H38O4/c1-16(2)9-10-20-23(28)22(21(27)15-19(7)8)25(30)26(24(20)29,13-11-17(3)4)14-12-18(5)6/h9,11-12,19,28-29H,10,13-15H2,1-8H3" "InChIKey=LSDULPZJLTZEFD-UHFFFAOYSA-N"
Num Peaks: 5
 301 6.106106; 
 344 5.205205; 
 413 100.000000; 
 414 19.119119; 
 415 2.402402; 


Name: Lupulone
SYNON: $:00in-source
DB#: MetaboBASE0133
InChIKey: WPVSVIXDXMNGGN-UHFFFAOYSA-N
Precursor_type: [M-H]-
Spectrum_type: MS2
PrecursorMZ: 413.2693
Instrument_type: LC-ESI-TOF
Instrument: impact HD
Ion_mode: N
Collision_energy: 30
InChIKey: WPVSVIXDXMNGGN-UHFFFAOYSA-N
Formula: C26H38O4
MW: 414
ExactMass: 414.277009696
Comments: "license=License CC-BY-NC-SA 4.0 International" "author=Plant Biology, The Noble Foundation, Ardmore, OK, US/Dennis Fine, Daniel Wherritt, and Lloyd Sumner" "instrument type=LC-ESI-TOF" "instrument=impact HD" "ionization=ESI" "ionization mode=negative" "ms level=MS2" "precursor m/z=413.2693" "isolation width=5" "collision gas=Nitrogen" "collision energy=30" "peak width=0.015" "date=2014-01-10 07:12:07+01:00" "column=Waters Acquity BEH C18 1.7um x 2.1 x 150 mm" "retention time=1870.2" "raw data file=C:\Data\Confirmed Standards\14Jan9 Confirmed stds MSMS\Lupulone (vial 43).d" "precursor type=[M-H]-" "mass accuracy=1.0494270927358278" "mass error=-4.3369600001597064E-4" "cas number=468-28-0" "SMILES=CC(C)CC(=O)C1=C(C(C(=O)C(=C1O)CC=C(C)C)(CC=C(C)C)CC=C(C)C)O" "InChI=InChI=1S/C26H38O4/c1-16(2)9-10-20-23(28)22(21(27)15-19(7)8)25(30)26(24(20)29,13-11-17(3)4)14-12-18(5)6/h9,11-12,19,28,30H,10,13-15H2,1-8H3" "InChIKey=WPVSVIXDXMNGGN-UHFFFAOYSA-N" "molecular formula=C26H38O4" "total exact mass=414.277009696" "SMILES=CC(C)CC(=O)C1=C(C(=C(C(C1=O)(CC=C(C)C)CC=C(C)C)O)CC=C(C)C)O" "InChI=InChI=1S/C26H38O4/c1-16(2)9-10-20-23(28)22(21(27)15-19(7)8)25(30)26(24(20)29,13-11-17(3)4)14-12-18(5)6/h9,11-12,19,28-29H,10,13-15H2,1-8H3" "InChIKey=LSDULPZJLTZEFD-UHFFFAOYSA-N"
Num Peaks: 13
 233 14.814815; 
 275 2.502503; 
 276 4.904905; 
 287 2.602603; 
 289 8.008008; 
 301 100.000000; 
 302 14.114114; 
 329 2.702703; 
 344 8.908909; 
 345 2.002002; 
 369 3.103103; 
 413 21.521522; 
 414 5.305305; 


Name: Lupulone
SYNON: $:00in-source
DB#: MetaboBASE0134
InChIKey: WPVSVIXDXMNGGN-UHFFFAOYSA-N
Precursor_type: [M-H]-
Spectrum_type: MS2
PrecursorMZ: 413.2693
Instrument_type: LC-ESI-TOF
Instrument: impact HD
Ion_mode: N
Collision_energy: 10
InChIKey: WPVSVIXDXMNGGN-UHFFFAOYSA-N
Formula: C26H38O4
MW: 414
ExactMass: 414.277009696
Comments: "license=License CC-BY-NC-SA 4.0 International" "author=Plant Biology, The Noble Foundation, Ardmore, OK, US/Dennis Fine, Daniel Wherritt, and Lloyd Sumner" "instrument type=LC-ESI-TOF" "instrument=impact HD" "ionization=ESI" "ionization mode=negative" "ms level=MS2" "precursor m/z=413.2693" "isolation width=5" "collision gas=Nitrogen" "collision energy=10" "peak width=0.01" "date=2014-01-10 07:12:07+01:00" "column=Waters Acquity BEH C18 1.7um x 2.1 x 150 mm" "retention time=1870.2" "raw data file=C:\Data\Confirmed Standards\14Jan9 Confirmed stds MSMS\Lupulone (vial 43).d" "precursor type=[M-H]-" "mass accuracy=1.0494270927358278" "mass error=-4.3369600001597064E-4" "cas number=468-28-0" "SMILES=CC(C)CC(=O)C1=C(C(C(=O)C(=C1O)CC=C(C)C)(CC=C(C)C)CC=C(C)C)O" "InChI=InChI=1S/C26H38O4/c1-16(2)9-10-20-23(28)22(21(27)15-19(7)8)25(30)26(24(20)29,13-11-17(3)4)14-12-18(5)6/h9,11-12,19,28,30H,10,13-15H2,1-8H3" "InChIKey=WPVSVIXDXMNGGN-UHFFFAOYSA-N" "molecular formula=C26H38O4" "total exact mass=414.277009696" "SMILES=CC(C)CC(=O)C1=C(C(=C(C(C1=O)(CC=C(C)C)CC=C(C)C)O)CC=C(C)C)O" "InChI=InChI=1S/C26H38O4/c1-16(2)9-10-20-23(28)22(21(27)15-19(7)8)25(30)26(24(20)29,13-11-17(3)4)14-12-18(5)6/h9,11-12,19,28-29H,10,13-15H2,1-8H3" "InChIKey=LSDULPZJLTZEFD-UHFFFAOYSA-N"
Num Peaks: 3
 413 100.000000; 
 414 20.920921; 
 415 2.402402; 


Name: Lupulone
SYNON: $:00in-source
DB#: MetaboBASE0135
InChIKey: WPVSVIXDXMNGGN-UHFFFAOYSA-N
Instrument_type: LC-ESI-TOF
Instrument: impact HD
Ion_mode: N
InChIKey: WPVSVIXDXMNGGN-UHFFFAOYSA-N
Formula: C26H38O4
MW: 414
ExactMass: 414.277009696
Comments: "license=License CC-BY-NC-SA 4.0 International" "author=Plant Biology, The Noble Foundation, Ardmore, OK, US/Dennis Fine, Daniel Wherritt, and Lloyd Sumner" "instrument type=LC-ESI-TOF" "instrument=impact HD" "ionization=ESI" "ionization mode=negative" "collision gas=Nitrogen" "peak width=0.0089" "date=2014-01-10 07:12:07+01:00" "column=Waters Acquity BEH C18 1.7um x 2.1 x 150 mm" "retention time=1870.2" "raw data file=C:\Data\Confirmed Standards\14Jan9 Confirmed stds MSMS\Lupulone (vial 43).d" "cas number=468-28-0" "SMILES=CC(C)CC(=O)C1=C(C(C(=O)C(=C1O)CC=C(C)C)(CC=C(C)C)CC=C(C)C)O" "InChI=InChI=1S/C26H38O4/c1-16(2)9-10-20-23(28)22(21(27)15-19(7)8)25(30)26(24(20)29,13-11-17(3)4)14-12-18(5)6/h9,11-12,19,28,30H,10,13-15H2,1-8H3" "InChIKey=WPVSVIXDXMNGGN-UHFFFAOYSA-N" "molecular formula=C26H38O4" "total exact mass=414.277009696" "SMILES=CC(C)CC(=O)C1=C(C(=C(C(C1=O)(CC=C(C)C)CC=C(C)C)O)CC=C(C)C)O" "InChI=InChI=1S/C26H38O4/c1-16(2)9-10-20-23(28)22(21(27)15-19(7)8)25(30)26(24(20)29,13-11-17(3)4)14-12-18(5)6/h9,11-12,19,28-29H,10,13-15H2,1-8H3" "InChIKey=LSDULPZJLTZEFD-UHFFFAOYSA-N"
Num Peaks: 3
 413 100.000000; 
 414 20.620621; 
 415 2.502503; 


Name: Lupulone
SYNON: $:00in-source
DB#: MetaboBASE0136
InChIKey: WPVSVIXDXMNGGN-UHFFFAOYSA-N
Precursor_type: [M-H]-
Spectrum_type: MS2
PrecursorMZ: 413.3
Instrument_type: LC-ESI-TOF
Instrument: impact HD
Ion_mode: N
Collision_energy: 40
InChIKey: WPVSVIXDXMNGGN-UHFFFAOYSA-N
Formula: C26H38O4
MW: 414
ExactMass: 414.277009696
Comments: "license=License CC-BY-NC-SA 4.0 International" "author=Plant Biology, The Noble Foundation, Ardmore, OK, US/Dennis Fine, Daniel Wherritt, and Lloyd Sumner" "instrument type=LC-ESI-TOF" "instrument=impact HD" "ionization=ESI" "ionization mode=negative" "ms level=MS2" "precursor m/z=413.3" "isolation width=5" "collision gas=Nitrogen" "collision energy=40" "peak width=0.012" "date=2014-01-10 07:12:07+01:00" "column=Waters Acquity BEH C18 1.7um x 2.1 x 150 mm" "retention time=1870.2" "raw data file=C:\Data\Confirmed Standards\14Jan9 Confirmed stds MSMS\Lupulone (vial 43).d" "precursor type=[M-H]-" "mass accuracy=73.23083474475781" "mass error=0.030266304000008404" "cas number=468-28-0" "SMILES=CC(C)CC(=O)C1=C(C(C(=O)C(=C1O)CC=C(C)C)(CC=C(C)C)CC=C(C)C)O" "InChI=InChI=1S/C26H38O4/c1-16(2)9-10-20-23(28)22(21(27)15-19(7)8)25(30)26(24(20)29,13-11-17(3)4)14-12-18(5)6/h9,11-12,19,28,30H,10,13-15H2,1-8H3" "InChIKey=WPVSVIXDXMNGGN-UHFFFAOYSA-N" "molecular formula=C26H38O4" "total exact mass=414.277009696" "SMILES=CC(C)CC(=O)C1=C(C(=C(C(C1=O)(CC=C(C)C)CC=C(C)C)O)CC=C(C)C)O" "InChI=InChI=1S/C26H38O4/c1-16(2)9-10-20-23(28)22(21(27)15-19(7)8)25(30)26(24(20)29,13-11-17(3)4)14-12-18(5)6/h9,11-12,19,28-29H,10,13-15H2,1-8H3" "InChIKey=LSDULPZJLTZEFD-UHFFFAOYSA-N"
Num Peaks: 8
 233 18.218218; 
 245 3.003003; 
 259 3.103103; 
 287 3.803804; 
 289 8.508509; 
 301 100.000000; 
 302 13.313313; 
 329 5.605606; 


Name: Hydrocinnamic acid
SYNON: $:00in-source
DB#: MetaboBASE0137
InChIKey: XMIIGOLPHOKFCH-UHFFFAOYSA-N
Instrument_type: LC-ESI-TOF
Instrument: impact HD
Ion_mode: N
InChIKey: XMIIGOLPHOKFCH-UHFFFAOYSA-N
Formula: C9H10O2
MW: 150
ExactMass: 150.06807956
Comments: "license=License CC-BY-NC-SA 4.0 International" "author=Plant Biology, The Noble Foundation, Ardmore, OK, US/Dennis Fine, Daniel Wherritt, and Lloyd Sumner" "instrument type=LC-ESI-TOF" "instrument=impact HD" "ionization=ESI" "ionization mode=negative" "collision gas=Nitrogen" "peak width=0.03" "date=2013-09-04 01:42:18+02:00" "column=Waters Acquity BEH C18 1.7um x 2.1 x 150 mm" "retention time=470.4" "raw data file=D:\Data\Confirmed Standards\Reinjection 2 uL\Hydrocinnamic acid (vial 30)_1489.d" "cas number=501-52-0" "SMILES=c1ccc(cc1)CCC(=O)O" "InChI=InChI=1S/C9H10O2/c10-9(11)7-6-8-4-2-1-3-5-8/h1-5H,6-7H2,(H,10,11)" "InChIKey=XMIIGOLPHOKFCH-UHFFFAOYSA-N" "molecular formula=C9H10O2" "total exact mass=150.06807956" "SMILES=C1=CC=C(C=C1)CCC(=O)O"
Num Peaks: 34
 149 50.750751; 
 150 4.204204; 
 217 14.014014; 
 231 5.605606; 
 248 4.304304; 
 251 4.104104; 
 279 14.014014; 
 285 3.703704; 
 305 5.005005; 
 321 100.000000; 
 322 18.418418; 
 323 3.203203; 
 339 3.103103; 
 343 3.703704; 
 355 3.103103; 
 382 16.516517; 
 383 12.712713; 
 384 3.803804; 
 387 3.103103; 
 389 4.904905; 
 399 4.204204; 
 415 3.103103; 
 444 21.721722; 
 445 4.804805; 
 448 3.103103; 
 487 8.608609; 
 493 5.805806; 
 548 14.814815; 
 549 5.305305; 
 561 3.203203; 
 652 7.107107; 
 659 3.803804; 
 665 6.206206; 
 837 3.503504; 


Name: Boswellic acid, alpha
SYNON: $:00in-source
DB#: MetaboBASE0138
InChIKey: BZXULBWGROURAF-IKNLXHIFSA-N
Precursor_type: [M-H]-
Spectrum_type: MS2
PrecursorMZ: 455.3571
Instrument_type: LC-ESI-TOF
Instrument: impact HD
Ion_mode: N
Collision_energy: 20
InChIKey: BZXULBWGROURAF-IKNLXHIFSA-N
Formula: C30H48O3
MW: 456
ExactMass: 456.36034539599996
Comments: "license=License CC-BY-NC-SA 4.0 International" "author=Plant Biology, The Noble Foundation, Ardmore, OK, US/Dennis Fine, Daniel Wherritt, and Lloyd Sumner" "instrument type=LC-ESI-TOF" "instrument=impact HD" "ionization=ESI" "ionization mode=negative" "ms level=MS2" "precursor m/z=455.3571" "isolation width=5" "collision gas=Nitrogen" "collision energy=20" "peak width=0.017" "date=2014-07-26 08:41:14+02:00" "column=Waters Acquity BEH C18 1.7um x 2.1 x 150 mm" "retention time=1946.4" "raw data file=C:\Data\Confirmed standards 24_July_2014\MSMS\Boswellic acid, alpha vial 66_1-B,6_01_495.d" "precursor type=[M-H]-" "mass accuracy=8.851523342967452" "mass error=0.004030604000035964" "cas number=471-66-9" "SMILES=C[C@@]12CC[C@@]3(C(=CC[C@H]4[C@]3(CC[C@@H]5[C@@]4(CC[C@H]([C@]5(C)C(=O)O)O)C)C)[C@@H]1CC(CC2)(C)C)C" "InChI=InChI=1S/C30H48O3/c1-25(2)14-15-26(3)16-17-28(5)19(20(26)18-25)8-9-21-27(4)12-11-23(31)30(7,24(32)33)22(27)10-13-29(21,28)6/h8,20-23,31H,9-18H2,1-7H3,(H,32,33)/t20-,21+,22+,23+,26+,27+,28+,29+,30+/m0/s1" "InChIKey=BZXULBWGROURAF-IKNLXHIFSA-N" "molecular formula=C30H48O3" "total exact mass=456.36034539599996" "SMILES=CC12CCC3(C(=CCC4C3(CCC5C4(CCC(C5(C)C(=O)O)O)C)C)C1CC(CC2)(C)C)C"
Num Peaks: 5
 453 28.528529; 
 454 10.410410; 
 455 100.000000; 
 456 29.329329; 
 457 2.102102; 


Name: Boswellic acid, alpha
SYNON: $:00in-source
DB#: MetaboBASE0139
InChIKey: BZXULBWGROURAF-IKNLXHIFSA-N
Precursor_type: [M-H]-
Spectrum_type: MS2
PrecursorMZ: 455.3565
Instrument_type: LC-ESI-TOF
Instrument: impact HD
Ion_mode: N
Collision_energy: 30
InChIKey: BZXULBWGROURAF-IKNLXHIFSA-N
Formula: C30H48O3
MW: 456
ExactMass: 456.36034539599996
Comments: "license=License CC-BY-NC-SA 4.0 International" "author=Plant Biology, The Noble Foundation, Ardmore, OK, US/Dennis Fine, Daniel Wherritt, and Lloyd Sumner" "instrument type=LC-ESI-TOF" "instrument=impact HD" "ionization=ESI" "ionization mode=negative" "ms level=MS2" "precursor m/z=455.3565" "isolation width=5" "collision gas=Nitrogen" "collision energy=30" "peak width=0.017" "date=2014-07-26 08:41:14+02:00" "column=Waters Acquity BEH C18 1.7um x 2.1 x 150 mm" "retention time=1946.4" "raw data file=C:\Data\Confirmed standards 24_July_2014\MSMS\Boswellic acid, alpha vial 66_1-B,6_01_495.d" "precursor type=[M-H]-" "mass accuracy=7.533886087090107" "mass error=0.0034306040000160465" "cas number=471-66-9" "SMILES=C[C@@]12CC[C@@]3(C(=CC[C@H]4[C@]3(CC[C@@H]5[C@@]4(CC[C@H]([C@]5(C)C(=O)O)O)C)C)[C@@H]1CC(CC2)(C)C)C" "InChI=InChI=1S/C30H48O3/c1-25(2)14-15-26(3)16-17-28(5)19(20(26)18-25)8-9-21-27(4)12-11-23(31)30(7,24(32)33)22(27)10-13-29(21,28)6/h8,20-23,31H,9-18H2,1-7H3,(H,32,33)/t20-,21+,22+,23+,26+,27+,28+,29+,30+/m0/s1" "InChIKey=BZXULBWGROURAF-IKNLXHIFSA-N" "molecular formula=C30H48O3" "total exact mass=456.36034539599996" "SMILES=CC12CCC3(C(=CCC4C3(CCC5C4(CCC(C5(C)C(=O)O)O)C)C)C1CC(CC2)(C)C)C"
Num Peaks: 5
 453 19.519520; 
 454 7.507508; 
 455 100.000000; 
 456 30.030030; 
 457 2.302302; 


Name: Boswellic acid, alpha
SYNON: $:00in-source
DB#: MetaboBASE0140
InChIKey: BZXULBWGROURAF-IKNLXHIFSA-N
Instrument_type: LC-ESI-TOF
Instrument: impact HD
Ion_mode: N
InChIKey: BZXULBWGROURAF-IKNLXHIFSA-N
Formula: C30H48O3
MW: 456
ExactMass: 456.36034539599996
Comments: "license=License CC-BY-NC-SA 4.0 International" "author=Plant Biology, The Noble Foundation, Ardmore, OK, US/Dennis Fine, Daniel Wherritt, and Lloyd Sumner" "instrument type=LC-ESI-TOF" "instrument=impact HD" "ionization=ESI" "ionization mode=negative" "collision gas=Nitrogen" "peak width=0.019" "date=2013-09-05 14:18:32+02:00" "column=Waters Acquity BEH C18 1.7um x 2.1 x 150 mm" "retention time=1946.4" "raw data file=D:\Data\Confirmed Standards\Reinjection 2 uL\Boswellic acid, alpha-   .d" "cas number=471-66-9" "SMILES=C[C@@]12CC[C@@]3(C(=CC[C@H]4[C@]3(CC[C@@H]5[C@@]4(CC[C@H]([C@]5(C)C(=O)O)O)C)C)[C@@H]1CC(CC2)(C)C)C" "InChI=InChI=1S/C30H48O3/c1-25(2)14-15-26(3)16-17-28(5)19(20(26)18-25)8-9-21-27(4)12-11-23(31)30(7,24(32)33)22(27)10-13-29(21,28)6/h8,20-23,31H,9-18H2,1-7H3,(H,32,33)/t20-,21+,22+,23+,26+,27+,28+,29+,30+/m0/s1" "InChIKey=BZXULBWGROURAF-IKNLXHIFSA-N" "molecular formula=C30H48O3" "total exact mass=456.36034539599996" "SMILES=CC12CCC3(C(=CCC4C3(CCC5C4(CCC(C5(C)C(=O)O)O)C)C)C1CC(CC2)(C)C)C"
Num Peaks: 5
 455 100.000000; 
 456 29.029029; 
 457 4.004004; 
 523 5.505506; 
 524 1.801802; 


Name: Boswellic acid, alpha
SYNON: $:00in-source
DB#: MetaboBASE0141
InChIKey: BZXULBWGROURAF-IKNLXHIFSA-N
Precursor_type: [M-H]-
Spectrum_type: MS2
PrecursorMZ: 455.3573
Instrument_type: LC-ESI-TOF
Instrument: impact HD
Ion_mode: N
Collision_energy: 10
InChIKey: BZXULBWGROURAF-IKNLXHIFSA-N
Formula: C30H48O3
MW: 456
ExactMass: 456.36034539599996
Comments: "license=License CC-BY-NC-SA 4.0 International" "author=Plant Biology, The Noble Foundation, Ardmore, OK, US/Dennis Fine, Daniel Wherritt, and Lloyd Sumner" "instrument type=LC-ESI-TOF" "instrument=impact HD" "ionization=ESI" "ionization mode=negative" "ms level=MS2" "precursor m/z=455.3573" "isolation width=5" "collision gas=Nitrogen" "collision energy=10" "peak width=0.017" "date=2014-07-26 08:41:14+02:00" "column=Waters Acquity BEH C18 1.7um x 2.1 x 150 mm" "retention time=1946.4" "raw data file=C:\Data\Confirmed standards 24_July_2014\MSMS\Boswellic acid, alpha vial 66_1-B,6_01_495.d" "precursor type=[M-H]-" "mass accuracy=9.290734989957564" "mass error=0.004230604000042604" "cas number=471-66-9" "SMILES=C[C@@]12CC[C@@]3(C(=CC[C@H]4[C@]3(CC[C@@H]5[C@@]4(CC[C@H]([C@]5(C)C(=O)O)O)C)C)[C@@H]1CC(CC2)(C)C)C" "InChI=InChI=1S/C30H48O3/c1-25(2)14-15-26(3)16-17-28(5)19(20(26)18-25)8-9-21-27(4)12-11-23(31)30(7,24(32)33)22(27)10-13-29(21,28)6/h8,20-23,31H,9-18H2,1-7H3,(H,32,33)/t20-,21+,22+,23+,26+,27+,28+,29+,30+/m0/s1" "InChIKey=BZXULBWGROURAF-IKNLXHIFSA-N" "molecular formula=C30H48O3" "total exact mass=456.36034539599996" "SMILES=CC12CCC3(C(=CCC4C3(CCC5C4(CCC(C5(C)C(=O)O)O)C)C)C1CC(CC2)(C)C)C"
Num Peaks: 5
 453 34.434434; 
 454 11.611612; 
 455 100.000000; 
 456 29.629630; 
 457 1.601602; 


Name: Boswellic acid, alpha
SYNON: $:00in-source
DB#: MetaboBASE0142
InChIKey: BZXULBWGROURAF-IKNLXHIFSA-N
Precursor_type: [M-H]-
Spectrum_type: MS2
PrecursorMZ: 455.3568
Instrument_type: LC-ESI-TOF
Instrument: impact HD
Ion_mode: N
Collision_energy: 40
InChIKey: BZXULBWGROURAF-IKNLXHIFSA-N
Formula: C30H48O3
MW: 456
ExactMass: 456.36034539599996
Comments: "license=License CC-BY-NC-SA 4.0 International" "author=Plant Biology, The Noble Foundation, Ardmore, OK, US/Dennis Fine, Daniel Wherritt, and Lloyd Sumner" "instrument type=LC-ESI-TOF" "instrument=impact HD" "ionization=ESI" "ionization mode=negative" "ms level=MS2" "precursor m/z=455.3568" "isolation width=5" "collision gas=Nitrogen" "collision energy=40" "peak width=0.017" "date=2014-07-26 08:41:14+02:00" "column=Waters Acquity BEH C18 1.7um x 2.1 x 150 mm" "retention time=1946.4" "raw data file=C:\Data\Confirmed standards 24_July_2014\MSMS\Boswellic acid, alpha vial 66_1-B,6_01_495.d" "precursor type=[M-H]-" "mass accuracy=8.192705149136735" "mass error=0.003730604000054427" "cas number=471-66-9" "SMILES=C[C@@]12CC[C@@]3(C(=CC[C@H]4[C@]3(CC[C@@H]5[C@@]4(CC[C@H]([C@]5(C)C(=O)O)O)C)C)[C@@H]1CC(CC2)(C)C)C" "InChI=InChI=1S/C30H48O3/c1-25(2)14-15-26(3)16-17-28(5)19(20(26)18-25)8-9-21-27(4)12-11-23(31)30(7,24(32)33)22(27)10-13-29(21,28)6/h8,20-23,31H,9-18H2,1-7H3,(H,32,33)/t20-,21+,22+,23+,26+,27+,28+,29+,30+/m0/s1" "InChIKey=BZXULBWGROURAF-IKNLXHIFSA-N" "molecular formula=C30H48O3" "total exact mass=456.36034539599996" "SMILES=CC12CCC3(C(=CCC4C3(CCC5C4(CCC(C5(C)C(=O)O)O)C)C)C1CC(CC2)(C)C)C"
Num Peaks: 8
 375 6.106106; 
 377 7.707708; 
 409 6.206206; 
 409 6.806807; 
 437 6.806807; 
 453 7.007007; 
 455 100.000000; 
 456 28.128128; 


Name: Boswellic acid, alpha
SYNON: $:00in-source
DB#: MetaboBASE0143
InChIKey: BZXULBWGROURAF-IKNLXHIFSA-N
Precursor_type: [M-H]-
Spectrum_type: MS2
PrecursorMZ: 455.3593
Instrument_type: LC-ESI-TOF
Instrument: impact HD
Ion_mode: N
Collision_energy: 50
InChIKey: BZXULBWGROURAF-IKNLXHIFSA-N
Formula: C30H48O3
MW: 456
ExactMass: 456.36034539599996
Comments: "license=License CC-BY-NC-SA 4.0 International" "author=Plant Biology, The Noble Foundation, Ardmore, OK, US/Dennis Fine, Daniel Wherritt, and Lloyd Sumner" "instrument type=LC-ESI-TOF" "instrument=impact HD" "ionization=ESI" "ionization mode=negative" "ms level=MS2" "precursor m/z=455.3593" "isolation width=5" "collision gas=Nitrogen" "collision energy=50" "peak width=0.013" "date=2014-07-26 08:41:14+02:00" "column=Waters Acquity BEH C18 1.7um x 2.1 x 150 mm" "retention time=1946.4" "raw data file=C:\Data\Confirmed standards 24_July_2014\MSMS\Boswellic acid, alpha vial 66_1-B,6_01_495.d" "precursor type=[M-H]-" "mass accuracy=13.682830239883435" "mass error=0.006230604000052153" "cas number=471-66-9" "SMILES=C[C@@]12CC[C@@]3(C(=CC[C@H]4[C@]3(CC[C@@H]5[C@@]4(CC[C@H]([C@]5(C)C(=O)O)O)C)C)[C@@H]1CC(CC2)(C)C)C" "InChI=InChI=1S/C30H48O3/c1-25(2)14-15-26(3)16-17-28(5)19(20(26)18-25)8-9-21-27(4)12-11-23(31)30(7,24(32)33)22(27)10-13-29(21,28)6/h8,20-23,31H,9-18H2,1-7H3,(H,32,33)/t20-,21+,22+,23+,26+,27+,28+,29+,30+/m0/s1" "InChIKey=BZXULBWGROURAF-IKNLXHIFSA-N" "molecular formula=C30H48O3" "total exact mass=456.36034539599996" "SMILES=CC12CCC3(C(=CCC4C3(CCC5C4(CCC(C5(C)C(=O)O)O)C)C)C1CC(CC2)(C)C)C"
Num Peaks: 6
 377 41.141141; 
 409 24.424424; 
 409 52.252252; 
 437 59.959960; 
 455 100.000000; 
 456 23.123123; 


Name: Pygenic acid B b
SYNON: $:00in-source
DB#: MetaboBASE0144
InChIKey: JXSVIVRDWWRQRT-VULHWTOISA-N
Precursor_type: [M-H]-
Spectrum_type: MS2
PrecursorMZ: 487.3465
Instrument_type: LC-ESI-TOF
Instrument: impact HD
Ion_mode: N
Collision_energy: 50
InChIKey: JXSVIVRDWWRQRT-VULHWTOISA-N
Formula: C30H48O5
MW: 488
ExactMass: 488.35017463599996
Comments: "license=License CC-BY-NC-SA 4.0 International" "author=Plant Biology, The Noble Foundation, Ardmore, OK, US/Dennis Fine, Daniel Wherritt, and Lloyd Sumner" "instrument type=LC-ESI-TOF" "instrument=impact HD" "ionization=ESI" "ionization mode=negative" "ms level=MS2" "precursor m/z=487.3465" "isolation width=5" "collision gas=Nitrogen" "collision energy=50" "peak width=0.016" "date=2013-11-16 09:17:17+01:00" "column=Waters Acquity BEH C18 1.7um x 2.1 x 150 mm" "retention time=1143" "raw data file=C:\Data\Confirmed Standards\Confirmed stds MSMS 14Nov13\Pygenic acid B MSMS (vial 62).d" "precursor type=[M-H]-" "mass accuracy=7.389740154118687" "mass error=0.0036013640000192026" "cas number=89786-83-4" "SMILES=C[C@@H]1CC[C@@]2(CC[C@@]3(C(=CC[C@H]4[C@]3(CCC5[C@@]4(CC(C(C5(C)CO)O)O)C)C)[C@@H]2[C@H]1C)C)C(=O)O" "InChI=InChI=1S/C30H48O5/c1-17-9-12-30(25(34)35)14-13-28(5)19(23(30)18(17)2)7-8-22-26(3)15-20(32)24(33)27(4,16-31)21(26)10-11-29(22,28)6/h7,17-18,20-24,31-33H,8-16H2,1-6H3,(H,34,35)/t17-,18+,20?,21?,22-,23+,24?,26+,27?,28-,29-,30+/m1/s1" "InChIKey=JXSVIVRDWWRQRT-VULHWTOISA-N" "molecular formula=C30H48O5" "total exact mass=488.35017463599996" "SMILES=OC(=O)C12CCC(C)C(C)C1C3=CCC4C5(C)CC(O)C(O)C(C)(CO)C5CCC4(C)C3(C)CC2" "InChI=InChI=1S/C30H48O5/c1-17-9-12-30(25(34)35)14-13-28(5)19(23(30)18(17)2)7-8-22-26(3)15-20(32)24(33)27(4,16-31)21(26)10-11-29(22,28)6/h7,17-18,20-24,31-33H,8-16H2,1-6H3,(H,34,35)/t17-,18+,20-,21-,22-,23+,24-,26+,27-,28-,29-,30+/m1/s1" "InChIKey=JXSVIVRDWWRQRT-UMCOSQRYSA-N"
Num Peaks: 2
 487 100.000000; 
 488 41.041041; 


Name: Pygenic acid B b
SYNON: $:00in-source
DB#: MetaboBASE0145
InChIKey: JXSVIVRDWWRQRT-VULHWTOISA-N
Precursor_type: [M-H]-
Spectrum_type: MS2
PrecursorMZ: 487.343
Instrument_type: LC-ESI-TOF
Instrument: impact HD
Ion_mode: N
Collision_energy: 10
InChIKey: JXSVIVRDWWRQRT-VULHWTOISA-N
Formula: C30H48O5
MW: 488
ExactMass: 488.35017463599996
Comments: "license=License CC-BY-NC-SA 4.0 International" "author=Plant Biology, The Noble Foundation, Ardmore, OK, US/Dennis Fine, Daniel Wherritt, and Lloyd Sumner" "instrument type=LC-ESI-TOF" "instrument=impact HD" "ionization=ESI" "ionization mode=negative" "ms level=MS2" "precursor m/z=487.343" "isolation width=5" "collision gas=Nitrogen" "collision energy=10" "peak width=0.013" "date=2014-07-25 22:27:39+02:00" "column=Waters Acquity BEH C18 1.7um x 2.1 x 150 mm" "retention time=1143" "raw data file=C:\Data\Confirmed standards 24_July_2014\MSMS\Z Lei std 28 May 2014_1-F,8_01_480.d" "precursor type=[M-H]-" "mass accuracy=0.20799313839559253" "mass error=1.0136400004512325E-4" "cas number=89786-83-4" "SMILES=C[C@@H]1CC[C@@]2(CC[C@@]3(C(=CC[C@H]4[C@]3(CCC5[C@@]4(CC(C(C5(C)CO)O)O)C)C)[C@@H]2[C@H]1C)C)C(=O)O" "InChI=InChI=1S/C30H48O5/c1-17-9-12-30(25(34)35)14-13-28(5)19(23(30)18(17)2)7-8-22-26(3)15-20(32)24(33)27(4,16-31)21(26)10-11-29(22,28)6/h7,17-18,20-24,31-33H,8-16H2,1-6H3,(H,34,35)/t17-,18+,20?,21?,22-,23+,24?,26+,27?,28-,29-,30+/m1/s1" "InChIKey=JXSVIVRDWWRQRT-VULHWTOISA-N" "molecular formula=C30H48O5" "total exact mass=488.35017463599996" "SMILES=OC(=O)C12CCC(C)C(C)C1C3=CCC4C5(C)CC(O)C(O)C(C)(CO)C5CCC4(C)C3(C)CC2" "InChI=InChI=1S/C30H48O5/c1-17-9-12-30(25(34)35)14-13-28(5)19(23(30)18(17)2)7-8-22-26(3)15-20(32)24(33)27(4,16-31)21(26)10-11-29(22,28)6/h7,17-18,20-24,31-33H,8-16H2,1-6H3,(H,34,35)/t17-,18+,20-,21-,22-,23+,24-,26+,27-,28-,29-,30+/m1/s1" "InChIKey=JXSVIVRDWWRQRT-UMCOSQRYSA-N"
Num Peaks: 6
 485 0.200200; 
 487 0.100100; 
 487 100.000000; 
 488 26.926927; 
 489 1.901902; 
 490 0.200200; 


Name: Pygenic acid B b
SYNON: $:00in-source
DB#: MetaboBASE0146
InChIKey: JXSVIVRDWWRQRT-VULHWTOISA-N
Precursor_type: [M-H]-
Spectrum_type: MS2
PrecursorMZ: 487.3433
Instrument_type: LC-ESI-TOF
Instrument: impact HD
Ion_mode: N
Collision_energy: 20
InChIKey: JXSVIVRDWWRQRT-VULHWTOISA-N
Formula: C30H48O5
MW: 488
ExactMass: 488.35017463599996
Comments: "license=License CC-BY-NC-SA 4.0 International" "author=Plant Biology, The Noble Foundation, Ardmore, OK, US/Dennis Fine, Daniel Wherritt, and Lloyd Sumner" "instrument type=LC-ESI-TOF" "instrument=impact HD" "ionization=ESI" "ionization mode=negative" "ms level=MS2" "precursor m/z=487.3433" "isolation width=5" "collision gas=Nitrogen" "collision energy=20" "peak width=0.013" "date=2014-07-25 22:27:39+02:00" "column=Waters Acquity BEH C18 1.7um x 2.1 x 150 mm" "retention time=1143" "raw data file=C:\Data\Confirmed standards 24_July_2014\MSMS\Z Lei std 28 May 2014_1-F,8_01_480.d" "precursor type=[M-H]-" "mass accuracy=0.823575496014125" "mass error=4.013640000266605E-4" "cas number=89786-83-4" "SMILES=C[C@@H]1CC[C@@]2(CC[C@@]3(C(=CC[C@H]4[C@]3(CCC5[C@@]4(CC(C(C5(C)CO)O)O)C)C)[C@@H]2[C@H]1C)C)C(=O)O" "InChI=InChI=1S/C30H48O5/c1-17-9-12-30(25(34)35)14-13-28(5)19(23(30)18(17)2)7-8-22-26(3)15-20(32)24(33)27(4,16-31)21(26)10-11-29(22,28)6/h7,17-18,20-24,31-33H,8-16H2,1-6H3,(H,34,35)/t17-,18+,20?,21?,22-,23+,24?,26+,27?,28-,29-,30+/m1/s1" "InChIKey=JXSVIVRDWWRQRT-VULHWTOISA-N" "molecular formula=C30H48O5" "total exact mass=488.35017463599996" "SMILES=OC(=O)C12CCC(C)C(C)C1C3=CCC4C5(C)CC(O)C(O)C(C)(CO)C5CCC4(C)C3(C)CC2" "InChI=InChI=1S/C30H48O5/c1-17-9-12-30(25(34)35)14-13-28(5)19(23(30)18(17)2)7-8-22-26(3)15-20(32)24(33)27(4,16-31)21(26)10-11-29(22,28)6/h7,17-18,20-24,31-33H,8-16H2,1-6H3,(H,34,35)/t17-,18+,20-,21-,22-,23+,24-,26+,27-,28-,29-,30+/m1/s1" "InChIKey=JXSVIVRDWWRQRT-UMCOSQRYSA-N"
Num Peaks: 5
 485 0.300300; 
 487 100.000000; 
 488 26.126126; 
 489 1.701702; 
 490 0.100100; 


Name: Pygenic acid B b
SYNON: $:00in-source
DB#: MetaboBASE0147
InChIKey: JXSVIVRDWWRQRT-VULHWTOISA-N
Precursor_type: [M-H]-
Spectrum_type: MS2
PrecursorMZ: 487.3432
Instrument_type: LC-ESI-TOF
Instrument: impact HD
Ion_mode: N
Collision_energy: 30
InChIKey: JXSVIVRDWWRQRT-VULHWTOISA-N
Formula: C30H48O5
MW: 488
ExactMass: 488.350174636
Comments: "license=License CC-BY-NC-SA 4.0 International" "author=Plant Biology, The Noble Foundation, Ardmore, OK, US/Dennis Fine, Daniel Wherritt, and Lloyd Sumner" "instrument type=LC-ESI-TOF" "instrument=impact HD" "ionization=ESI" "ionization mode=negative" "ms level=MS2" "precursor m/z=487.3432" "isolation width=5" "collision gas=Nitrogen" "collision energy=30" "peak width=0.013" "date=2014-07-25 22:27:39+02:00" "column=Waters Acquity BEH C18 1.7um x 2.1 x 150 mm" "retention time=1143" "raw data file=C:\Data\Confirmed standards 24_July_2014\MSMS\Z Lei std 28 May 2014_1-F,8_01_480.d" "precursor type=[M-H]-" "mass accuracy=0.6183814609394758" "mass error=3.0136399999491914E-4" "cas number=89786-83-4" "SMILES=C[C@@H]1CC[C@@]2(CC[C@@]3(C(=CC[C@H]4[C@]3(CCC5[C@@]4(CC(C(C5(C)CO)O)O)C)C)[C@@H]2[C@H]1C)C)C(=O)O" "InChI=InChI=1S/C30H48O5/c1-17-9-12-30(25(34)35)14-13-28(5)19(23(30)18(17)2)7-8-22-26(3)15-20(32)24(33)27(4,16-31)21(26)10-11-29(22,28)6/h7,17-18,20-24,31-33H,8-16H2,1-6H3,(H,34,35)/t17-,18+,20?,21?,22-,23+,24?,26+,27?,28-,29-,30+/m1/s1" "InChIKey=JXSVIVRDWWRQRT-VULHWTOISA-N" "molecular formula=C30H48O5" "total exact mass=488.350174636" "SMILES=OC(=O)C12CCC(C)C(C)C1C3=CCC4C5(C)CC(O)C(O)C(C)(CO)C5CCC4(C)C3(C)CC2" "InChI=InChI=1S/C30H48O5/c1-17-9-12-30(25(34)35)14-13-28(5)19(23(30)18(17)2)7-8-22-26(3)15-20(32)24(33)27(4,16-31)21(26)10-11-29(22,28)6/h7,17-18,20-24,31-33H,8-16H2,1-6H3,(H,34,35)/t17-,18+,20-,21-,22-,23+,24-,26+,27-,28-,29-,30+/m1/s1" "InChIKey=JXSVIVRDWWRQRT-UMCOSQRYSA-N"
Num Peaks: 6
 485 0.200200; 
 487 0.100100; 
 487 100.000000; 
 488 25.925926; 
 489 1.901902; 
 490 0.200200; 


Name: Pygenic acid B b
SYNON: $:00in-source
DB#: MetaboBASE0148
InChIKey: JXSVIVRDWWRQRT-VULHWTOISA-N
Precursor_type: [M-H]-
Spectrum_type: MS2
PrecursorMZ: 487.3427
Instrument_type: LC-ESI-TOF
Instrument: impact HD
Ion_mode: N
Collision_energy: 40
InChIKey: JXSVIVRDWWRQRT-VULHWTOISA-N
Formula: C30H48O5
MW: 488
ExactMass: 488.35017463599996
Comments: "license=License CC-BY-NC-SA 4.0 International" "author=Plant Biology, The Noble Foundation, Ardmore, OK, US/Dennis Fine, Daniel Wherritt, and Lloyd Sumner" "instrument type=LC-ESI-TOF" "instrument=impact HD" "ionization=ESI" "ionization mode=negative" "ms level=MS2" "precursor m/z=487.3427" "isolation width=5" "collision gas=Nitrogen" "collision energy=40" "peak width=0.014" "date=2014-07-25 22:27:39+02:00" "column=Waters Acquity BEH C18 1.7um x 2.1 x 150 mm" "retention time=1143" "raw data file=C:\Data\Confirmed standards 24_July_2014\MSMS\Z Lei std 28 May 2014_1-F,8_01_480.d" "precursor type=[M-H]-" "mass accuracy=0.40758997722394824" "mass error=-1.9863599999325743E-4" "cas number=89786-83-4" "SMILES=C[C@@H]1CC[C@@]2(CC[C@@]3(C(=CC[C@H]4[C@]3(CCC5[C@@]4(CC(C(C5(C)CO)O)O)C)C)[C@@H]2[C@H]1C)C)C(=O)O" "InChI=InChI=1S/C30H48O5/c1-17-9-12-30(25(34)35)14-13-28(5)19(23(30)18(17)2)7-8-22-26(3)15-20(32)24(33)27(4,16-31)21(26)10-11-29(22,28)6/h7,17-18,20-24,31-33H,8-16H2,1-6H3,(H,34,35)/t17-,18+,20?,21?,22-,23+,24?,26+,27?,28-,29-,30+/m1/s1" "InChIKey=JXSVIVRDWWRQRT-VULHWTOISA-N" "molecular formula=C30H48O5" "total exact mass=488.35017463599996" "SMILES=OC(=O)C12CCC(C)C(C)C1C3=CCC4C5(C)CC(O)C(O)C(C)(CO)C5CCC4(C)C3(C)CC2" "InChI=InChI=1S/C30H48O5/c1-17-9-12-30(25(34)35)14-13-28(5)19(23(30)18(17)2)7-8-22-26(3)15-20(32)24(33)27(4,16-31)21(26)10-11-29(22,28)6/h7,17-18,20-24,31-33H,8-16H2,1-6H3,(H,34,35)/t17-,18+,20-,21-,22-,23+,24-,26+,27-,28-,29-,30+/m1/s1" "InChIKey=JXSVIVRDWWRQRT-UMCOSQRYSA-N"
Num Peaks: 8
 407 0.100100; 
 485 0.200200; 
 487 0.100100; 
 487 100.000000; 
 487 0.200200; 
 488 27.427427; 
 489 2.102102; 
 490 0.200200; 


Name: Pygenic acid B b
SYNON: $:00in-source
DB#: MetaboBASE0149
InChIKey: JXSVIVRDWWRQRT-VULHWTOISA-N
Precursor_type: [M-H]-
Spectrum_type: MS2
PrecursorMZ: 487.3426
Instrument_type: LC-ESI-TOF
Instrument: impact HD
Ion_mode: N
Collision_energy: 50
InChIKey: JXSVIVRDWWRQRT-VULHWTOISA-N
Formula: C30H48O5
MW: 488
ExactMass: 488.35017463599996
Comments: "license=License CC-BY-NC-SA 4.0 International" "author=Plant Biology, The Noble Foundation, Ardmore, OK, US/Dennis Fine, Daniel Wherritt, and Lloyd Sumner" "instrument type=LC-ESI-TOF" "instrument=impact HD" "ionization=ESI" "ionization mode=negative" "ms level=MS2" "precursor m/z=487.3426" "isolation width=5" "collision gas=Nitrogen" "collision energy=50" "peak width=0.016" "date=2014-07-25 22:27:39+02:00" "column=Waters Acquity BEH C18 1.7um x 2.1 x 150 mm" "retention time=1143" "raw data file=C:\Data\Confirmed standards 24_July_2014\MSMS\Z Lei std 28 May 2014_1-F,8_01_480.d" "precursor type=[M-H]-" "mass accuracy=0.6127845174383593" "mass error=-2.986359999681554E-4" "cas number=89786-83-4" "SMILES=C[C@@H]1CC[C@@]2(CC[C@@]3(C(=CC[C@H]4[C@]3(CCC5[C@@]4(CC(C(C5(C)CO)O)O)C)C)[C@@H]2[C@H]1C)C)C(=O)O" "InChI=InChI=1S/C30H48O5/c1-17-9-12-30(25(34)35)14-13-28(5)19(23(30)18(17)2)7-8-22-26(3)15-20(32)24(33)27(4,16-31)21(26)10-11-29(22,28)6/h7,17-18,20-24,31-33H,8-16H2,1-6H3,(H,34,35)/t17-,18+,20?,21?,22-,23+,24?,26+,27?,28-,29-,30+/m1/s1" "InChIKey=JXSVIVRDWWRQRT-VULHWTOISA-N" "molecular formula=C30H48O5" "total exact mass=488.35017463599996" "SMILES=OC(=O)C12CCC(C)C(C)C1C3=CCC4C5(C)CC(O)C(O)C(C)(CO)C5CCC4(C)C3(C)CC2" "InChI=InChI=1S/C30H48O5/c1-17-9-12-30(25(34)35)14-13-28(5)19(23(30)18(17)2)7-8-22-26(3)15-20(32)24(33)27(4,16-31)21(26)10-11-29(22,28)6/h7,17-18,20-24,31-33H,8-16H2,1-6H3,(H,34,35)/t17-,18+,20-,21-,22-,23+,24-,26+,27-,28-,29-,30+/m1/s1" "InChIKey=JXSVIVRDWWRQRT-UMCOSQRYSA-N"
Num Peaks: 6
 373 0.300300; 
 407 0.400400; 
 409 0.400400; 
 487 100.000000; 
 488 28.128128; 
 489 2.102102; 


Name: Pygenic acid B b
SYNON: $:00in-source
DB#: MetaboBASE0150
InChIKey: JXSVIVRDWWRQRT-VULHWTOISA-N
Instrument_type: LC-ESI-TOF
Instrument: impact HD
Ion_mode: N
InChIKey: JXSVIVRDWWRQRT-VULHWTOISA-N
Formula: C30H48O5
MW: 488
ExactMass: 488.35017463599996
Comments: "license=License CC-BY-NC-SA 4.0 International" "author=Plant Biology, The Noble Foundation, Ardmore, OK, US/Dennis Fine, Daniel Wherritt, and Lloyd Sumner" "instrument type=LC-ESI-TOF" "instrument=impact HD" "ionization=ESI" "ionization mode=negative" "collision gas=Nitrogen" "peak width=0.028" "date=2013-09-05 11:35:29+02:00" "column=Waters Acquity BEH C18 1.7um x 2.1 x 150 mm" "retention time=1143" "raw data file=D:\Data\Confirmed Standards\Reinjection 2 uL\Pygenic acid B (vial 62).d" "cas number=89786-83-4" "SMILES=C[C@@H]1CC[C@@]2(CC[C@@]3(C(=CC[C@H]4[C@]3(CCC5[C@@]4(CC(C(C5(C)CO)O)O)C)C)[C@@H]2[C@H]1C)C)C(=O)O" "InChI=InChI=1S/C30H48O5/c1-17-9-12-30(25(34)35)14-13-28(5)19(23(30)18(17)2)7-8-22-26(3)15-20(32)24(33)27(4,16-31)21(26)10-11-29(22,28)6/h7,17-18,20-24,31-33H,8-16H2,1-6H3,(H,34,35)/t17-,18+,20?,21?,22-,23+,24?,26+,27?,28-,29-,30+/m1/s1" "InChIKey=JXSVIVRDWWRQRT-VULHWTOISA-N" "molecular formula=C30H48O5" "total exact mass=488.35017463599996" "SMILES=OC(=O)C12CCC(C)C(C)C1C3=CCC4C5(C)CC(O)C(O)C(C)(CO)C5CCC4(C)C3(C)CC2" "InChI=InChI=1S/C30H48O5/c1-17-9-12-30(25(34)35)14-13-28(5)19(23(30)18(17)2)7-8-22-26(3)15-20(32)24(33)27(4,16-31)21(26)10-11-29(22,28)6/h7,17-18,20-24,31-33H,8-16H2,1-6H3,(H,34,35)/t17-,18+,20-,21-,22-,23+,24-,26+,27-,28-,29-,30+/m1/s1" "InChIKey=JXSVIVRDWWRQRT-UMCOSQRYSA-N"
Num Peaks: 11
 487 100.000000; 
 488 29.429429; 
 489 4.704705; 
 555 9.209209; 
 623 2.202202; 
 975 12.612613; 
 976 7.907908; 
 977 2.302302; 
 997 3.503504; 
 998 2.202202; 
 1065 1.001001; 


Name: Pygenic acid C b
SYNON: $:00in-source
DB#: MetaboBASE0151
InChIKey: NFPZOORPDJBGME-LCRJMXSQSA-N
Spectrum_type: MS2
PrecursorMZ: 487.3433
Instrument_type: LC-ESI-TOF
Instrument: impact HD
Ion_mode: N
Collision_energy: 10
InChIKey: NFPZOORPDJBGME-LCRJMXSQSA-N
Formula: C30H48O6
MW: 504
ExactMass: 504.345089256
Comments: "license=License CC-BY-NC-SA 4.0 International" "author=Plant Biology, The Noble Foundation, Ardmore, OK, US/Dennis Fine, Daniel Wherritt, and Lloyd Sumner" "instrument type=LC-ESI-TOF" "instrument=impact HD" "ionization=ESI" "ionization mode=negative" "ms level=MS2" "precursor m/z=487.3433" "isolation width=5" "collision gas=Nitrogen" "collision energy=10" "peak width=0.015" "date=2014-07-26 07:19:23+02:00" "column=Waters Acquity BEH C18 1.7um x 2.1 x 150 mm" "retention time=1064.4" "raw data file=C:\Data\Confirmed standards 24_July_2014\MSMS\Pygenic Acid C vial 63_1-B,4_01_493.d" "cas number=254098-65-2" "molecular formula=C30H48O6" "total exact mass=504.345089256" "SMILES=C1(C(C(C2C(C1O)(C3C(CC2)(C4(C(=CC3)C5C(CC4)(CCC(C5C)C)C(=O)O)C)C)C)(C)CO)O)O" "InChI=InChI=1S/C30H48O6/c1-16-9-12-30(25(35)36)14-13-27(4)18(21(30)17(16)2)7-8-20-28(27,5)11-10-19-26(3,15-31)23(33)22(32)24(34)29(19,20)6/h7,16-17,19-24,31-34H,8-15H2,1-6H3,(H,35,36)/t16-,17+,19+,20+,21+,22+,23-,24-,26-,27-,28-,29+,30+/m1/s1" "InChIKey=NFPZOORPDJBGME-LCRJMXSQSA-N"
Num Peaks: 5
 487 100.000000; 
 488 27.227227; 
 489 1.501502; 
 1389 0.400400; 
 1430 0.400400; 


Name: Pygenic acid C b
SYNON: $:00in-source
DB#: MetaboBASE0152
InChIKey: NFPZOORPDJBGME-LCRJMXSQSA-N
Spectrum_type: MS2
PrecursorMZ: 487.3432
Instrument_type: LC-ESI-TOF
Instrument: impact HD
Ion_mode: N
Collision_energy: 40
InChIKey: NFPZOORPDJBGME-LCRJMXSQSA-N
Formula: C30H48O6
MW: 504
ExactMass: 504.34508925599994
Comments: "license=License CC-BY-NC-SA 4.0 International" "author=Plant Biology, The Noble Foundation, Ardmore, OK, US/Dennis Fine, Daniel Wherritt, and Lloyd Sumner" "instrument type=LC-ESI-TOF" "instrument=impact HD" "ionization=ESI" "ionization mode=negative" "ms level=MS2" "precursor m/z=487.3432" "isolation width=5" "collision gas=Nitrogen" "collision energy=40" "peak width=0.016" "date=2014-07-26 07:19:23+02:00" "column=Waters Acquity BEH C18 1.7um x 2.1 x 150 mm" "retention time=1064.4" "raw data file=C:\Data\Confirmed standards 24_July_2014\MSMS\Pygenic Acid C vial 63_1-B,4_01_493.d" "cas number=254098-65-2" "molecular formula=C30H48O6" "total exact mass=504.34508925599994" "SMILES=C1(C(C(C2C(C1O)(C3C(CC2)(C4(C(=CC3)C5C(CC4)(CCC(C5C)C)C(=O)O)C)C)C)(C)CO)O)O" "InChI=InChI=1S/C30H48O6/c1-16-9-12-30(25(35)36)14-13-27(4)18(21(30)17(16)2)7-8-20-28(27,5)11-10-19-26(3,15-31)23(33)22(32)24(34)29(19,20)6/h7,16-17,19-24,31-34H,8-15H2,1-6H3,(H,35,36)/t16-,17+,19+,20+,21+,22+,23-,24-,26-,27-,28-,29+,30+/m1/s1" "InChIKey=NFPZOORPDJBGME-LCRJMXSQSA-N"
Num Peaks: 3
 487 100.000000; 
 488 28.828829; 
 489 2.102102; 


Name: Pygenic acid C b
SYNON: $:00in-source
DB#: MetaboBASE0153
InChIKey: NFPZOORPDJBGME-LCRJMXSQSA-N
Spectrum_type: MS2
PrecursorMZ: 487.343
Instrument_type: LC-ESI-TOF
Instrument: impact HD
Ion_mode: N
Collision_energy: 20
InChIKey: NFPZOORPDJBGME-LCRJMXSQSA-N
Formula: C30H48O6
MW: 504
ExactMass: 504.345089256
Comments: "license=License CC-BY-NC-SA 4.0 International" "author=Plant Biology, The Noble Foundation, Ardmore, OK, US/Dennis Fine, Daniel Wherritt, and Lloyd Sumner" "instrument type=LC-ESI-TOF" "instrument=impact HD" "ionization=ESI" "ionization mode=negative" "ms level=MS2" "precursor m/z=487.343" "isolation width=5" "collision gas=Nitrogen" "collision energy=20" "peak width=0.016" "date=2014-07-26 07:19:23+02:00" "column=Waters Acquity BEH C18 1.7um x 2.1 x 150 mm" "retention time=1064.4" "raw data file=C:\Data\Confirmed standards 24_July_2014\MSMS\Pygenic Acid C vial 63_1-B,4_01_493.d" "cas number=254098-65-2" "molecular formula=C30H48O6" "total exact mass=504.345089256" "SMILES=C1(C(C(C2C(C1O)(C3C(CC2)(C4(C(=CC3)C5C(CC4)(CCC(C5C)C)C(=O)O)C)C)C)(C)CO)O)O" "InChI=InChI=1S/C30H48O6/c1-16-9-12-30(25(35)36)14-13-27(4)18(21(30)17(16)2)7-8-20-28(27,5)11-10-19-26(3,15-31)23(33)22(32)24(34)29(19,20)6/h7,16-17,19-24,31-34H,8-15H2,1-6H3,(H,35,36)/t16-,17+,19+,20+,21+,22+,23-,24-,26-,27-,28-,29+,30+/m1/s1" "InChIKey=NFPZOORPDJBGME-LCRJMXSQSA-N"
Num Peaks: 6
 487 100.000000; 
 487 0.400400; 
 488 26.726727; 
 489 1.901902; 
 1251 0.400400; 
 1411 0.300300; 


Name: Pygenic acid C b
SYNON: $:00in-source
DB#: MetaboBASE0154
InChIKey: NFPZOORPDJBGME-LCRJMXSQSA-N
Spectrum_type: MS2
PrecursorMZ: 487.3435
Instrument_type: LC-ESI-TOF
Instrument: impact HD
Ion_mode: N
Collision_energy: 30
InChIKey: NFPZOORPDJBGME-LCRJMXSQSA-N
Formula: C30H48O6
MW: 504
ExactMass: 504.34508925599994
Comments: "license=License CC-BY-NC-SA 4.0 International" "author=Plant Biology, The Noble Foundation, Ardmore, OK, US/Dennis Fine, Daniel Wherritt, and Lloyd Sumner" "instrument type=LC-ESI-TOF" "instrument=impact HD" "ionization=ESI" "ionization mode=negative" "ms level=MS2" "precursor m/z=487.3435" "isolation width=5" "collision gas=Nitrogen" "collision energy=30" "peak width=0.016" "date=2014-07-26 07:19:23+02:00" "column=Waters Acquity BEH C18 1.7um x 2.1 x 150 mm" "retention time=1064.4" "raw data file=C:\Data\Confirmed standards 24_July_2014\MSMS\Pygenic Acid C vial 63_1-B,4_01_493.d" "cas number=254098-65-2" "molecular formula=C30H48O6" "total exact mass=504.34508925599994" "SMILES=C1(C(C(C2C(C1O)(C3C(CC2)(C4(C(=CC3)C5C(CC4)(CCC(C5C)C)C(=O)O)C)C)C)(C)CO)O)O" "InChI=InChI=1S/C30H48O6/c1-16-9-12-30(25(35)36)14-13-27(4)18(21(30)17(16)2)7-8-20-28(27,5)11-10-19-26(3,15-31)23(33)22(32)24(34)29(19,20)6/h7,16-17,19-24,31-34H,8-15H2,1-6H3,(H,35,36)/t16-,17+,19+,20+,21+,22+,23-,24-,26-,27-,28-,29+,30+/m1/s1" "InChIKey=NFPZOORPDJBGME-LCRJMXSQSA-N"
Num Peaks: 6
 487 100.000000; 
 488 26.226226; 
 489 1.901902; 
 1268 0.400400; 
 1411 0.300300; 
 1478 0.300300; 


Name: Pygenic acid C b
SYNON: $:00in-source
DB#: MetaboBASE0155
InChIKey: NFPZOORPDJBGME-LCRJMXSQSA-N
Spectrum_type: MS2
PrecursorMZ: 487.3428
Instrument_type: LC-ESI-TOF
Instrument: impact HD
Ion_mode: N
Collision_energy: 50
InChIKey: NFPZOORPDJBGME-LCRJMXSQSA-N
Formula: C30H48O6
MW: 504
ExactMass: 504.34508925599994
Comments: "license=License CC-BY-NC-SA 4.0 International" "author=Plant Biology, The Noble Foundation, Ardmore, OK, US/Dennis Fine, Daniel Wherritt, and Lloyd Sumner" "instrument type=LC-ESI-TOF" "instrument=impact HD" "ionization=ESI" "ionization mode=negative" "ms level=MS2" "precursor m/z=487.3428" "isolation width=5" "collision gas=Nitrogen" "collision energy=50" "peak width=0.018" "date=2014-07-26 07:19:23+02:00" "column=Waters Acquity BEH C18 1.7um x 2.1 x 150 mm" "retention time=1064.4" "raw data file=C:\Data\Confirmed standards 24_July_2014\MSMS\Pygenic Acid C vial 63_1-B,4_01_493.d" "cas number=254098-65-2" "molecular formula=C30H48O6" "total exact mass=504.34508925599994" "SMILES=C1(C(C(C2C(C1O)(C3C(CC2)(C4(C(=CC3)C5C(CC4)(CCC(C5C)C)C(=O)O)C)C)C)(C)CO)O)O" "InChI=InChI=1S/C30H48O6/c1-16-9-12-30(25(35)36)14-13-27(4)18(21(30)17(16)2)7-8-20-28(27,5)11-10-19-26(3,15-31)23(33)22(32)24(34)29(19,20)6/h7,16-17,19-24,31-34H,8-15H2,1-6H3,(H,35,36)/t16-,17+,19+,20+,21+,22+,23-,24-,26-,27-,28-,29+,30+/m1/s1" "InChIKey=NFPZOORPDJBGME-LCRJMXSQSA-N"
Num Peaks: 3
 487 100.000000; 
 488 29.129129; 
 489 2.702703; 


Name: Pygenic acid C b
SYNON: $:00in-source
DB#: MetaboBASE0156
InChIKey: NFPZOORPDJBGME-LCRJMXSQSA-N
Instrument_type: LC-ESI-TOF
Instrument: impact HD
Ion_mode: N
InChIKey: NFPZOORPDJBGME-LCRJMXSQSA-N
Formula: C30H48O6
MW: 504
ExactMass: 504.345089256
Comments: "license=License CC-BY-NC-SA 4.0 International" "author=Plant Biology, The Noble Foundation, Ardmore, OK, US/Dennis Fine, Daniel Wherritt, and Lloyd Sumner" "instrument type=LC-ESI-TOF" "instrument=impact HD" "ionization=ESI" "ionization mode=negative" "collision gas=Nitrogen" "peak width=0.029" "date=2013-09-05 12:16:16+02:00" "column=Waters Acquity BEH C18 1.7um x 2.1 x 150 mm" "retention time=1064.4" "raw data file=D:\Data\Confirmed Standards\Reinjection 2 uL\Pygenic acid C (vial 63).d" "cas number=254098-65-2" "molecular formula=C30H48O6" "total exact mass=504.345089256" "SMILES=C1(C(C(C2C(C1O)(C3C(CC2)(C4(C(=CC3)C5C(CC4)(CCC(C5C)C)C(=O)O)C)C)C)(C)CO)O)O" "InChI=InChI=1S/C30H48O6/c1-16-9-12-30(25(35)36)14-13-27(4)18(21(30)17(16)2)7-8-20-28(27,5)11-10-19-26(3,15-31)23(33)22(32)24(34)29(19,20)6/h7,16-17,19-24,31-34H,8-15H2,1-6H3,(H,35,36)/t16-,17+,19+,20+,21+,22+,23-,24-,26-,27-,28-,29+,30+/m1/s1" "InChIKey=NFPZOORPDJBGME-LCRJMXSQSA-N"
Num Peaks: 14
 503 100.000000; 
 504 30.930931; 
 505 5.005005; 
 549 6.006006; 
 550 1.901902; 
 571 8.908909; 
 572 2.602603; 
 639 2.402402; 
 707 1.201201; 
 1007 8.808809; 
 1008 5.205205; 
 1009 1.701702; 
 1029 1.801802; 
 1030 1.201201; 


Name: Pygenic acid C a
SYNON: $:00in-source
DB#: MetaboBASE0157
InChIKey: NFPZOORPDJBGME-LCRJMXSQSA-N
Spectrum_type: MS2
PrecursorMZ: 487.3433
Instrument_type: LC-ESI-TOF
Instrument: impact HD
Ion_mode: N
Collision_energy: 10
InChIKey: NFPZOORPDJBGME-LCRJMXSQSA-N
Formula: C30H48O6
MW: 504
ExactMass: 504.34508925599994
Comments: "license=License CC-BY-NC-SA 4.0 International" "author=Plant Biology, The Noble Foundation, Ardmore, OK, US/Dennis Fine, Daniel Wherritt, and Lloyd Sumner" "instrument type=LC-ESI-TOF" "instrument=impact HD" "ionization=ESI" "ionization mode=negative" "ms level=MS2" "precursor m/z=487.3433" "isolation width=5" "collision gas=Nitrogen" "collision energy=10" "peak width=0.015" "date=2014-07-26 07:19:23+02:00" "column=Waters Acquity BEH C18 1.7um x 2.1 x 150 mm" "retention time=1049.4" "raw data file=C:\Data\Confirmed standards 24_July_2014\MSMS\Pygenic Acid C vial 63_1-B,4_01_493.d" "cas number=254098-65-2" "molecular formula=C30H48O6" "total exact mass=504.34508925599994" "SMILES=C1(C(C(C2C(C1O)(C3C(CC2)(C4(C(=CC3)C5C(CC4)(CCC(C5C)C)C(=O)O)C)C)C)(C)CO)O)O" "InChI=InChI=1S/C30H48O6/c1-16-9-12-30(25(35)36)14-13-27(4)18(21(30)17(16)2)7-8-20-28(27,5)11-10-19-26(3,15-31)23(33)22(32)24(34)29(19,20)6/h7,16-17,19-24,31-34H,8-15H2,1-6H3,(H,35,36)/t16-,17+,19+,20+,21+,22+,23-,24-,26-,27-,28-,29+,30+/m1/s1" "InChIKey=NFPZOORPDJBGME-LCRJMXSQSA-N"
Num Peaks: 5
 487 100.000000; 
 488 27.227227; 
 489 1.501502; 
 1389 0.400400; 
 1430 0.400400; 


Name: Pygenic acid C a
SYNON: $:00in-source
DB#: MetaboBASE0158
InChIKey: NFPZOORPDJBGME-LCRJMXSQSA-N
Spectrum_type: MS2
PrecursorMZ: 487.3428
Instrument_type: LC-ESI-TOF
Instrument: impact HD
Ion_mode: N
Collision_energy: 50
InChIKey: NFPZOORPDJBGME-LCRJMXSQSA-N
Formula: C30H48O6
MW: 504
ExactMass: 504.34508925599994
Comments: "license=License CC-BY-NC-SA 4.0 International" "author=Plant Biology, The Noble Foundation, Ardmore, OK, US/Dennis Fine, Daniel Wherritt, and Lloyd Sumner" "instrument type=LC-ESI-TOF" "instrument=impact HD" "ionization=ESI" "ionization mode=negative" "ms level=MS2" "precursor m/z=487.3428" "isolation width=5" "collision gas=Nitrogen" "collision energy=50" "peak width=0.018" "date=2014-07-26 07:19:23+02:00" "column=Waters Acquity BEH C18 1.7um x 2.1 x 150 mm" "retention time=1049.4" "raw data file=C:\Data\Confirmed standards 24_July_2014\MSMS\Pygenic Acid C vial 63_1-B,4_01_493.d" "cas number=254098-65-2" "molecular formula=C30H48O6" "total exact mass=504.34508925599994" "SMILES=C1(C(C(C2C(C1O)(C3C(CC2)(C4(C(=CC3)C5C(CC4)(CCC(C5C)C)C(=O)O)C)C)C)(C)CO)O)O" "InChI=InChI=1S/C30H48O6/c1-16-9-12-30(25(35)36)14-13-27(4)18(21(30)17(16)2)7-8-20-28(27,5)11-10-19-26(3,15-31)23(33)22(32)24(34)29(19,20)6/h7,16-17,19-24,31-34H,8-15H2,1-6H3,(H,35,36)/t16-,17+,19+,20+,21+,22+,23-,24-,26-,27-,28-,29+,30+/m1/s1" "InChIKey=NFPZOORPDJBGME-LCRJMXSQSA-N"
Num Peaks: 3
 487 100.000000; 
 488 29.129129; 
 489 2.702703; 


Name: Pygenic acid C a
SYNON: $:00in-source
DB#: MetaboBASE0159
InChIKey: NFPZOORPDJBGME-LCRJMXSQSA-N
Spectrum_type: MS2
PrecursorMZ: 487.3435
Instrument_type: LC-ESI-TOF
Instrument: impact HD
Ion_mode: N
Collision_energy: 30
InChIKey: NFPZOORPDJBGME-LCRJMXSQSA-N
Formula: C30H48O6
MW: 504
ExactMass: 504.345089256
Comments: "license=License CC-BY-NC-SA 4.0 International" "author=Plant Biology, The Noble Foundation, Ardmore, OK, US/Dennis Fine, Daniel Wherritt, and Lloyd Sumner" "instrument type=LC-ESI-TOF" "instrument=impact HD" "ionization=ESI" "ionization mode=negative" "ms level=MS2" "precursor m/z=487.3435" "isolation width=5" "collision gas=Nitrogen" "collision energy=30" "peak width=0.016" "date=2014-07-26 07:19:23+02:00" "column=Waters Acquity BEH C18 1.7um x 2.1 x 150 mm" "retention time=1049.4" "raw data file=C:\Data\Confirmed standards 24_July_2014\MSMS\Pygenic Acid C vial 63_1-B,4_01_493.d" "cas number=254098-65-2" "molecular formula=C30H48O6" "total exact mass=504.345089256" "SMILES=C1(C(C(C2C(C1O)(C3C(CC2)(C4(C(=CC3)C5C(CC4)(CCC(C5C)C)C(=O)O)C)C)C)(C)CO)O)O" "InChI=InChI=1S/C30H48O6/c1-16-9-12-30(25(35)36)14-13-27(4)18(21(30)17(16)2)7-8-20-28(27,5)11-10-19-26(3,15-31)23(33)22(32)24(34)29(19,20)6/h7,16-17,19-24,31-34H,8-15H2,1-6H3,(H,35,36)/t16-,17+,19+,20+,21+,22+,23-,24-,26-,27-,28-,29+,30+/m1/s1" "InChIKey=NFPZOORPDJBGME-LCRJMXSQSA-N"
Num Peaks: 6
 487 100.000000; 
 488 26.226226; 
 489 1.901902; 
 1268 0.400400; 
 1411 0.300300; 
 1478 0.300300; 


Name: Pygenic acid C a
SYNON: $:00in-source
DB#: MetaboBASE0160
InChIKey: NFPZOORPDJBGME-LCRJMXSQSA-N
Spectrum_type: MS2
PrecursorMZ: 487.3432
Instrument_type: LC-ESI-TOF
Instrument: impact HD
Ion_mode: N
Collision_energy: 40
InChIKey: NFPZOORPDJBGME-LCRJMXSQSA-N
Formula: C30H48O6
MW: 504
ExactMass: 504.34508925599994
Comments: "license=License CC-BY-NC-SA 4.0 International" "author=Plant Biology, The Noble Foundation, Ardmore, OK, US/Dennis Fine, Daniel Wherritt, and Lloyd Sumner" "instrument type=LC-ESI-TOF" "instrument=impact HD" "ionization=ESI" "ionization mode=negative" "ms level=MS2" "precursor m/z=487.3432" "isolation width=5" "collision gas=Nitrogen" "collision energy=40" "peak width=0.016" "date=2014-07-26 07:19:23+02:00" "column=Waters Acquity BEH C18 1.7um x 2.1 x 150 mm" "retention time=1049.4" "raw data file=C:\Data\Confirmed standards 24_July_2014\MSMS\Pygenic Acid C vial 63_1-B,4_01_493.d" "cas number=254098-65-2" "molecular formula=C30H48O6" "total exact mass=504.34508925599994" "SMILES=C1(C(C(C2C(C1O)(C3C(CC2)(C4(C(=CC3)C5C(CC4)(CCC(C5C)C)C(=O)O)C)C)C)(C)CO)O)O" "InChI=InChI=1S/C30H48O6/c1-16-9-12-30(25(35)36)14-13-27(4)18(21(30)17(16)2)7-8-20-28(27,5)11-10-19-26(3,15-31)23(33)22(32)24(34)29(19,20)6/h7,16-17,19-24,31-34H,8-15H2,1-6H3,(H,35,36)/t16-,17+,19+,20+,21+,22+,23-,24-,26-,27-,28-,29+,30+/m1/s1" "InChIKey=NFPZOORPDJBGME-LCRJMXSQSA-N"
Num Peaks: 3
 487 100.000000; 
 488 28.828829; 
 489 2.102102; 


Name: Pygenic acid C a
SYNON: $:00in-source
DB#: MetaboBASE0161
InChIKey: NFPZOORPDJBGME-LCRJMXSQSA-N
Spectrum_type: MS2
PrecursorMZ: 487.343
Instrument_type: LC-ESI-TOF
Instrument: impact HD
Ion_mode: N
Collision_energy: 20
InChIKey: NFPZOORPDJBGME-LCRJMXSQSA-N
Formula: C30H48O6
MW: 504
ExactMass: 504.34508925599994
Comments: "license=License CC-BY-NC-SA 4.0 International" "author=Plant Biology, The Noble Foundation, Ardmore, OK, US/Dennis Fine, Daniel Wherritt, and Lloyd Sumner" "instrument type=LC-ESI-TOF" "instrument=impact HD" "ionization=ESI" "ionization mode=negative" "ms level=MS2" "precursor m/z=487.343" "isolation width=5" "collision gas=Nitrogen" "collision energy=20" "peak width=0.016" "date=2014-07-26 07:19:23+02:00" "column=Waters Acquity BEH C18 1.7um x 2.1 x 150 mm" "retention time=1049.4" "raw data file=C:\Data\Confirmed standards 24_July_2014\MSMS\Pygenic Acid C vial 63_1-B,4_01_493.d" "cas number=254098-65-2" "molecular formula=C30H48O6" "total exact mass=504.34508925599994" "SMILES=C1(C(C(C2C(C1O)(C3C(CC2)(C4(C(=CC3)C5C(CC4)(CCC(C5C)C)C(=O)O)C)C)C)(C)CO)O)O" "InChI=InChI=1S/C30H48O6/c1-16-9-12-30(25(35)36)14-13-27(4)18(21(30)17(16)2)7-8-20-28(27,5)11-10-19-26(3,15-31)23(33)22(32)24(34)29(19,20)6/h7,16-17,19-24,31-34H,8-15H2,1-6H3,(H,35,36)/t16-,17+,19+,20+,21+,22+,23-,24-,26-,27-,28-,29+,30+/m1/s1" "InChIKey=NFPZOORPDJBGME-LCRJMXSQSA-N"
Num Peaks: 6
 487 100.000000; 
 487 0.400400; 
 488 26.726727; 
 489 1.901902; 
 1251 0.400400; 
 1411 0.300300; 


Name: Pygenic acid C a
SYNON: $:00in-source
DB#: MetaboBASE0162
InChIKey: NFPZOORPDJBGME-LCRJMXSQSA-N
Instrument_type: LC-ESI-TOF
Instrument: impact HD
Ion_mode: N
InChIKey: NFPZOORPDJBGME-LCRJMXSQSA-N
Formula: C30H48O6
MW: 504
ExactMass: 504.34508925599994
Comments: "license=License CC-BY-NC-SA 4.0 International" "author=Plant Biology, The Noble Foundation, Ardmore, OK, US/Dennis Fine, Daniel Wherritt, and Lloyd Sumner" "instrument type=LC-ESI-TOF" "instrument=impact HD" "ionization=ESI" "ionization mode=negative" "collision gas=Nitrogen" "peak width=0.024" "date=2013-09-05 12:16:16+02:00" "column=Waters Acquity BEH C18 1.7um x 2.1 x 150 mm" "retention time=1049.4" "raw data file=D:\Data\Confirmed Standards\Reinjection 2 uL\Pygenic acid C (vial 63).d" "cas number=254098-65-2" "molecular formula=C30H48O6" "total exact mass=504.34508925599994" "SMILES=C1(C(C(C2C(C1O)(C3C(CC2)(C4(C(=CC3)C5C(CC4)(CCC(C5C)C)C(=O)O)C)C)C)(C)CO)O)O" "InChI=InChI=1S/C30H48O6/c1-16-9-12-30(25(35)36)14-13-27(4)18(21(30)17(16)2)7-8-20-28(27,5)11-10-19-26(3,15-31)23(33)22(32)24(34)29(19,20)6/h7,16-17,19-24,31-34H,8-15H2,1-6H3,(H,35,36)/t16-,17+,19+,20+,21+,22+,23-,24-,26-,27-,28-,29+,30+/m1/s1" "InChIKey=NFPZOORPDJBGME-LCRJMXSQSA-N"
Num Peaks: 20
 112 2.402402; 
 146 1.101101; 
 174 2.402402; 
 242 1.001001; 
 248 1.201201; 
 503 100.000000; 
 504 29.029029; 
 505 4.604605; 
 549 4.604605; 
 550 1.501502; 
 571 13.013013; 
 572 3.703704; 
 639 3.803804; 
 640 1.301301; 
 707 2.702703; 
 708 1.301301; 
 775 1.501502; 
 843 1.001001; 
 1007 1.601602; 
 1008 1.401401; 


Name: Pygenic acid B a
SYNON: $:00in-source
DB#: MetaboBASE0163
InChIKey: InChI=1S/C30H48O5/c1-17-9
Precursor_type: [M-H]-
Spectrum_type: MS2
PrecursorMZ: 487.343
Instrument_type: LC-ESI-TOF
Instrument: impact HD
Ion_mode: N
Collision_energy: 10
InChIKey: InChI=1S/C30H48O5/c1-17-9
Formula: C30H48O5
MW: 488
ExactMass: 488.35017463599996
Comments: "license=License CC-BY-NC-SA 4.0 International" "author=Plant Biology, The Noble Foundation, Ardmore, OK, US/Dennis Fine, Daniel Wherritt, and Lloyd Sumner" "instrument type=LC-ESI-TOF" "instrument=impact HD" "ionization=ESI" "ionization mode=negative" "ms level=MS2" "precursor m/z=487.343" "isolation width=5" "collision gas=Nitrogen" "collision energy=10" "peak width=0.013" "date=2014-07-25 22:27:39+02:00" "column=Waters Acquity BEH C18 1.7um x 2.1 x 150 mm" "retention time=1134" "raw data file=C:\Data\Confirmed standards 24_July_2014\MSMS\Z Lei std 28 May 2014_1-F,8_01_480.d" "precursor type=[M-H]-" "mass accuracy=0.20799313839559253" "mass error=1.0136400004512325E-4" "cas number=89786-83-4" "SMILES=C[C@@H]1CC[C@@]2(CC[C@@]3(C(=CC[C@H]4[C@]3(CC[C@@H]5[C@@]4(C[C@H]([C@H]([C@]5(C)CO)O)O)C)C)[C@@H]2[C@H]1C)C)C(=O)O" "InChI=InChI=1S/C30H48O5/c1-17-9-12-30(25(34)35)14-13-28(5)19(23(30)18(17)2)7-8-22-26(3)15-20(32)24(33)27(4,16-31)21(26)10-11-29(22,28)6/h7,17-18,20-24,31-33H,8-16H2,1-6H3,(H,34,35)/t17-,18+,20-,21-,22-,23+,24-,26+,27-,28-,29-,30+/m1/s1" "InChIKey=InChI=1S/C30H48O5/c1-17-9" "molecular formula=C30H48O5" "total exact mass=488.35017463599996" "SMILES=C1(C(C(C2C(C1)(C3C(CC2)(C4(C(=CC3)C5C(CC4)(CCC(C5C)C)C(=O)O)C)C)C)(C)CO)O)O" "InChIKey=JXSVIVRDWWRQRT-UMCOSQRYSA-N"
Num Peaks: 6
 485 0.200200; 
 487 0.100100; 
 487 100.000000; 
 488 26.926927; 
 489 1.901902; 
 490 0.200200; 


Name: Pygenic acid B a
SYNON: $:00in-source
DB#: MetaboBASE0164
InChIKey: InChI=1S/C30H48O5/c1-17-9
Precursor_type: [M-H]-
Spectrum_type: MS2
PrecursorMZ: 487.3432
Instrument_type: LC-ESI-TOF
Instrument: impact HD
Ion_mode: N
Collision_energy: 30
InChIKey: InChI=1S/C30H48O5/c1-17-9
Formula: C30H48O5
MW: 488
ExactMass: 488.35017463599996
Comments: "license=License CC-BY-NC-SA 4.0 International" "author=Plant Biology, The Noble Foundation, Ardmore, OK, US/Dennis Fine, Daniel Wherritt, and Lloyd Sumner" "instrument type=LC-ESI-TOF" "instrument=impact HD" "ionization=ESI" "ionization mode=negative" "ms level=MS2" "precursor m/z=487.3432" "isolation width=5" "collision gas=Nitrogen" "collision energy=30" "peak width=0.013" "date=2014-07-25 22:27:39+02:00" "column=Waters Acquity BEH C18 1.7um x 2.1 x 150 mm" "retention time=1134" "raw data file=C:\Data\Confirmed standards 24_July_2014\MSMS\Z Lei std 28 May 2014_1-F,8_01_480.d" "precursor type=[M-H]-" "mass accuracy=0.6183814610561151" "mass error=3.0136400005176256E-4" "cas number=89786-83-4" "SMILES=C[C@@H]1CC[C@@]2(CC[C@@]3(C(=CC[C@H]4[C@]3(CC[C@@H]5[C@@]4(C[C@H]([C@H]([C@]5(C)CO)O)O)C)C)[C@@H]2[C@H]1C)C)C(=O)O" "InChI=InChI=1S/C30H48O5/c1-17-9-12-30(25(34)35)14-13-28(5)19(23(30)18(17)2)7-8-22-26(3)15-20(32)24(33)27(4,16-31)21(26)10-11-29(22,28)6/h7,17-18,20-24,31-33H,8-16H2,1-6H3,(H,34,35)/t17-,18+,20-,21-,22-,23+,24-,26+,27-,28-,29-,30+/m1/s1" "InChIKey=InChI=1S/C30H48O5/c1-17-9" "molecular formula=C30H48O5" "total exact mass=488.35017463599996" "SMILES=C1(C(C(C2C(C1)(C3C(CC2)(C4(C(=CC3)C5C(CC4)(CCC(C5C)C)C(=O)O)C)C)C)(C)CO)O)O" "InChIKey=JXSVIVRDWWRQRT-UMCOSQRYSA-N"
Num Peaks: 6
 485 0.200200; 
 487 0.100100; 
 487 100.000000; 
 488 25.925926; 
 489 1.901902; 
 490 0.200200; 


Name: Pygenic acid B a
SYNON: $:00in-source
DB#: MetaboBASE0165
InChIKey: InChI=1S/C30H48O5/c1-17-9
Precursor_type: [M-H]-
Spectrum_type: MS2
PrecursorMZ: 487.3427
Instrument_type: LC-ESI-TOF
Instrument: impact HD
Ion_mode: N
Collision_energy: 40
InChIKey: InChI=1S/C30H48O5/c1-17-9
Formula: C30H48O5
MW: 488
ExactMass: 488.35017463599996
Comments: "license=License CC-BY-NC-SA 4.0 International" "author=Plant Biology, The Noble Foundation, Ardmore, OK, US/Dennis Fine, Daniel Wherritt, and Lloyd Sumner" "instrument type=LC-ESI-TOF" "instrument=impact HD" "ionization=ESI" "ionization mode=negative" "ms level=MS2" "precursor m/z=487.3427" "isolation width=5" "collision gas=Nitrogen" "collision energy=40" "peak width=0.014" "date=2014-07-25 22:27:39+02:00" "column=Waters Acquity BEH C18 1.7um x 2.1 x 150 mm" "retention time=1134" "raw data file=C:\Data\Confirmed standards 24_July_2014\MSMS\Z Lei std 28 May 2014_1-F,8_01_480.d" "precursor type=[M-H]-" "mass accuracy=0.40758997722394824" "mass error=-1.9863599999325743E-4" "cas number=89786-83-4" "SMILES=C[C@@H]1CC[C@@]2(CC[C@@]3(C(=CC[C@H]4[C@]3(CC[C@@H]5[C@@]4(C[C@H]([C@H]([C@]5(C)CO)O)O)C)C)[C@@H]2[C@H]1C)C)C(=O)O" "InChI=InChI=1S/C30H48O5/c1-17-9-12-30(25(34)35)14-13-28(5)19(23(30)18(17)2)7-8-22-26(3)15-20(32)24(33)27(4,16-31)21(26)10-11-29(22,28)6/h7,17-18,20-24,31-33H,8-16H2,1-6H3,(H,34,35)/t17-,18+,20-,21-,22-,23+,24-,26+,27-,28-,29-,30+/m1/s1" "InChIKey=InChI=1S/C30H48O5/c1-17-9" "molecular formula=C30H48O5" "total exact mass=488.35017463599996" "SMILES=C1(C(C(C2C(C1)(C3C(CC2)(C4(C(=CC3)C5C(CC4)(CCC(C5C)C)C(=O)O)C)C)C)(C)CO)O)O" "InChIKey=JXSVIVRDWWRQRT-UMCOSQRYSA-N"
Num Peaks: 8
 407 0.100100; 
 485 0.200200; 
 487 0.100100; 
 487 100.000000; 
 487 0.200200; 
 488 27.427427; 
 489 2.102102; 
 490 0.200200; 


Name: Pygenic acid B a
SYNON: $:00in-source
DB#: MetaboBASE0166
InChIKey: InChI=1S/C30H48O5/c1-17-9
Precursor_type: [M-H]-
Spectrum_type: MS2
PrecursorMZ: 487.3426
Instrument_type: LC-ESI-TOF
Instrument: impact HD
Ion_mode: N
Collision_energy: 50
InChIKey: InChI=1S/C30H48O5/c1-17-9
Formula: C30H48O5
MW: 488
ExactMass: 488.35017463599996
Comments: "license=License CC-BY-NC-SA 4.0 International" "author=Plant Biology, The Noble Foundation, Ardmore, OK, US/Dennis Fine, Daniel Wherritt, and Lloyd Sumner" "instrument type=LC-ESI-TOF" "instrument=impact HD" "ionization=ESI" "ionization mode=negative" "ms level=MS2" "precursor m/z=487.3426" "isolation width=5" "collision gas=Nitrogen" "collision energy=50" "peak width=0.016" "date=2014-07-25 22:27:39+02:00" "column=Waters Acquity BEH C18 1.7um x 2.1 x 150 mm" "retention time=1134" "raw data file=C:\Data\Confirmed standards 24_July_2014\MSMS\Z Lei std 28 May 2014_1-F,8_01_480.d" "precursor type=[M-H]-" "mass accuracy=0.6127845174383593" "mass error=-2.986359999681554E-4" "cas number=89786-83-4" "SMILES=C[C@@H]1CC[C@@]2(CC[C@@]3(C(=CC[C@H]4[C@]3(CC[C@@H]5[C@@]4(C[C@H]([C@H]([C@]5(C)CO)O)O)C)C)[C@@H]2[C@H]1C)C)C(=O)O" "InChI=InChI=1S/C30H48O5/c1-17-9-12-30(25(34)35)14-13-28(5)19(23(30)18(17)2)7-8-22-26(3)15-20(32)24(33)27(4,16-31)21(26)10-11-29(22,28)6/h7,17-18,20-24,31-33H,8-16H2,1-6H3,(H,34,35)/t17-,18+,20-,21-,22-,23+,24-,26+,27-,28-,29-,30+/m1/s1" "InChIKey=InChI=1S/C30H48O5/c1-17-9" "molecular formula=C30H48O5" "total exact mass=488.35017463599996" "SMILES=C1(C(C(C2C(C1)(C3C(CC2)(C4(C(=CC3)C5C(CC4)(CCC(C5C)C)C(=O)O)C)C)C)(C)CO)O)O" "InChIKey=JXSVIVRDWWRQRT-UMCOSQRYSA-N"
Num Peaks: 6
 373 0.300300; 
 407 0.400400; 
 409 0.400400; 
 487 100.000000; 
 488 28.128128; 
 489 2.102102; 


Name: Pygenic acid B a
SYNON: $:00in-source
DB#: MetaboBASE0167
InChIKey: InChI=1S/C30H48O5/c1-17-9
Precursor_type: [M-H]-
Spectrum_type: MS2
PrecursorMZ: 487.3433
Instrument_type: LC-ESI-TOF
Instrument: impact HD
Ion_mode: N
Collision_energy: 20
InChIKey: InChI=1S/C30H48O5/c1-17-9
Formula: C30H48O5
MW: 488
ExactMass: 488.350174636
Comments: "license=License CC-BY-NC-SA 4.0 International" "author=Plant Biology, The Noble Foundation, Ardmore, OK, US/Dennis Fine, Daniel Wherritt, and Lloyd Sumner" "instrument type=LC-ESI-TOF" "instrument=impact HD" "ionization=ESI" "ionization mode=negative" "ms level=MS2" "precursor m/z=487.3433" "isolation width=5" "collision gas=Nitrogen" "collision energy=20" "peak width=0.013" "date=2014-07-25 22:27:39+02:00" "column=Waters Acquity BEH C18 1.7um x 2.1 x 150 mm" "retention time=1134" "raw data file=C:\Data\Confirmed standards 24_July_2014\MSMS\Z Lei std 28 May 2014_1-F,8_01_480.d" "precursor type=[M-H]-" "mass accuracy=0.8235754958974856" "mass error=4.013639999698171E-4" "cas number=89786-83-4" "SMILES=C[C@@H]1CC[C@@]2(CC[C@@]3(C(=CC[C@H]4[C@]3(CC[C@@H]5[C@@]4(C[C@H]([C@H]([C@]5(C)CO)O)O)C)C)[C@@H]2[C@H]1C)C)C(=O)O" "InChI=InChI=1S/C30H48O5/c1-17-9-12-30(25(34)35)14-13-28(5)19(23(30)18(17)2)7-8-22-26(3)15-20(32)24(33)27(4,16-31)21(26)10-11-29(22,28)6/h7,17-18,20-24,31-33H,8-16H2,1-6H3,(H,34,35)/t17-,18+,20-,21-,22-,23+,24-,26+,27-,28-,29-,30+/m1/s1" "InChIKey=InChI=1S/C30H48O5/c1-17-9" "molecular formula=C30H48O5" "total exact mass=488.350174636" "SMILES=C1(C(C(C2C(C1)(C3C(CC2)(C4(C(=CC3)C5C(CC4)(CCC(C5C)C)C(=O)O)C)C)C)(C)CO)O)O" "InChIKey=JXSVIVRDWWRQRT-UMCOSQRYSA-N"
Num Peaks: 5
 485 0.300300; 
 487 100.000000; 
 488 26.126126; 
 489 1.701702; 
 490 0.100100; 


Name: Pygenic acid B a
SYNON: $:00in-source
DB#: MetaboBASE0168
InChIKey: InChI=1S/C30H48O5/c1-17-9
Instrument_type: LC-ESI-TOF
Instrument: impact HD
Ion_mode: N
InChIKey: InChI=1S/C30H48O5/c1-17-9
Formula: C30H48O5
MW: 488
ExactMass: 488.35017463599996
Comments: "license=License CC-BY-NC-SA 4.0 International" "author=Plant Biology, The Noble Foundation, Ardmore, OK, US/Dennis Fine, Daniel Wherritt, and Lloyd Sumner" "instrument type=LC-ESI-TOF" "instrument=impact HD" "ionization=ESI" "ionization mode=negative" "collision gas=Nitrogen" "peak width=0.029" "date=2013-09-05 11:35:29+02:00" "column=Waters Acquity BEH C18 1.7um x 2.1 x 150 mm" "retention time=1134" "raw data file=D:\Data\Confirmed Standards\Reinjection 2 uL\Pygenic acid B (vial 62).d" "cas number=89786-83-4" "SMILES=C[C@@H]1CC[C@@]2(CC[C@@]3(C(=CC[C@H]4[C@]3(CC[C@@H]5[C@@]4(C[C@H]([C@H]([C@]5(C)CO)O)O)C)C)[C@@H]2[C@H]1C)C)C(=O)O" "InChI=InChI=1S/C30H48O5/c1-17-9-12-30(25(34)35)14-13-28(5)19(23(30)18(17)2)7-8-22-26(3)15-20(32)24(33)27(4,16-31)21(26)10-11-29(22,28)6/h7,17-18,20-24,31-33H,8-16H2,1-6H3,(H,34,35)/t17-,18+,20-,21-,22-,23+,24-,26+,27-,28-,29-,30+/m1/s1" "InChIKey=InChI=1S/C30H48O5/c1-17-9" "molecular formula=C30H48O5" "total exact mass=488.35017463599996" "SMILES=C1(C(C(C2C(C1)(C3C(CC2)(C4(C(=CC3)C5C(CC4)(CCC(C5C)C)C(=O)O)C)C)C)(C)CO)O)O" "InChIKey=JXSVIVRDWWRQRT-UMCOSQRYSA-N"
Num Peaks: 13
 487 100.000000; 
 488 28.028028; 
 489 4.704705; 
 555 11.911912; 
 556 3.703704; 
 623 3.403403; 
 624 1.201201; 
 691 1.901902; 
 975 10.610611; 
 976 6.606607; 
 977 1.901902; 
 997 2.602603; 
 998 1.501502; 


Name: Ursolic acid
SYNON: $:00in-source
DB#: MetaboBASE0169
InChIKey: WCGUUGGRBIKTOS-GPOJBZKASA-N
Instrument_type: LC-ESI-TOF
Instrument: impact HD
Ion_mode: N
InChIKey: WCGUUGGRBIKTOS-GPOJBZKASA-N
Formula: C30H48O3
MW: 456
ExactMass: 456.36034539599996
Comments: "license=License CC-BY-NC-SA 4.0 International" "author=Plant Biology, The Noble Foundation, Ardmore, OK, US/Dennis Fine, Daniel Wherritt, and Lloyd Sumner" "instrument type=LC-ESI-TOF" "instrument=impact HD" "ionization=ESI" "ionization mode=negative" "collision gas=Nitrogen" "peak width=0.028" "date=2013-09-05 13:37:46+02:00" "column=Waters Acquity BEH C18 1.7um x 2.1 x 150 mm" "retention time=1693.8" "raw data file=D:\Data\Confirmed Standards\Reinjection 2 uL\Ursolic acid (vial 65).d" "cas number=77-52-1" "SMILES=C[C@@H]1CC[C@@]2(CC[C@@]3(C(=CC[C@H]4[C@]3(CC[C@@H]5[C@@]4(CC[C@@H](C5(C)C)O)C)C)[C@@H]2[C@H]1C)C)C(=O)O" "InChI=InChI=1S/C30H48O3/c1-18-10-15-30(25(32)33)17-16-28(6)20(24(30)19(18)2)8-9-22-27(5)13-12-23(31)26(3,4)21(27)11-14-29(22,28)7/h8,18-19,21-24,31H,9-17H2,1-7H3,(H,32,33)/t18-,19+,21+,22-,23+,24+,27+,28-,29-,30+/m1/s1" "InChIKey=WCGUUGGRBIKTOS-GPOJBZKASA-N" "molecular formula=C30H48O3" "total exact mass=456.36034539599996" "SMILES=CC1CCC2(CCC3(C(=CCC4C3(CCC5C4(CCC(C5(C)C)O)C)C)C2C1C)C)C(=O)O"
Num Peaks: 20
 248 2.102102; 
 293 1.101101; 
 455 100.000000; 
 456 29.529530; 
 457 4.904905; 
 513 1.101101; 
 523 26.226226; 
 524 8.008008; 
 525 1.401401; 
 551 1.401401; 
 585 1.701702; 
 591 7.707708; 
 592 2.502503; 
 653 1.401401; 
 659 3.103103; 
 660 1.101101; 
 727 1.201201; 
 911 3.503504; 
 912 2.502503; 
 933 1.501502; 


Name: Ursolic acid
SYNON: $:00in-source
DB#: MetaboBASE0170
InChIKey: WCGUUGGRBIKTOS-GPOJBZKASA-N
Precursor_type: [M-H]-
Spectrum_type: MS2
PrecursorMZ: 455.3521
Instrument_type: LC-ESI-TOF
Instrument: impact HD
Ion_mode: N
Collision_energy: 30
InChIKey: WCGUUGGRBIKTOS-GPOJBZKASA-N
Formula: C30H48O3
MW: 456
ExactMass: 456.36034539599996
Comments: "license=License CC-BY-NC-SA 4.0 International" "author=Plant Biology, The Noble Foundation, Ardmore, OK, US/Dennis Fine, Daniel Wherritt, and Lloyd Sumner" "instrument type=LC-ESI-TOF" "instrument=impact HD" "ionization=ESI" "ionization mode=negative" "ms level=MS2" "precursor m/z=455.3521" "isolation width=5" "collision gas=Nitrogen" "collision energy=30" "peak width=0.016" "date=2014-07-26 08:00:18+02:00" "column=Waters Acquity BEH C18 1.7um x 2.1 x 150 mm" "retention time=1693.8" "raw data file=G:\Sumner Lab Data Management Workspace Jun2013\Projects\NSF-JST Metabolomics Nov2011-Sep2014\UPLC-MS-MSMS\Confirmed standards 24_July_2014\Ursolic Acid vial 65_1-B,5_01_494.d" "precursor type=[M-H]-" "mass accuracy=2.1288932234187303" "mass error=-9.693959999594881E-4" "cas number=77-52-1" "SMILES=C[C@@H]1CC[C@@]2(CC[C@@]3(C(=CC[C@H]4[C@]3(CC[C@@H]5[C@@]4(CC[C@@H](C5(C)C)O)C)C)[C@@H]2[C@H]1C)C)C(=O)O" "InChI=InChI=1S/C30H48O3/c1-18-10-15-30(25(32)33)17-16-28(6)20(24(30)19(18)2)8-9-22-27(5)13-12-23(31)26(3,4)21(27)11-14-29(22,28)7/h8,18-19,21-24,31H,9-17H2,1-7H3,(H,32,33)/t18-,19+,21+,22-,23+,24+,27+,28-,29-,30+/m1/s1" "InChIKey=WCGUUGGRBIKTOS-GPOJBZKASA-N" "molecular formula=C30H48O3" "total exact mass=456.36034539599996" "SMILES=CC1CCC2(CCC3(C(=CCC4C3(CCC5C4(CCC(C5(C)C)O)C)C)C2C1C)C)C(=O)O"
Num Peaks: 5
 453 2.302302; 
 454 0.900901; 
 455 100.000000; 
 456 28.328328; 
 457 2.202202; 


Name: Ursolic acid
SYNON: $:00in-source
DB#: MetaboBASE0171
InChIKey: WCGUUGGRBIKTOS-GPOJBZKASA-N
Precursor_type: [M-H]-
Spectrum_type: MS2
PrecursorMZ: 455.352
Instrument_type: LC-ESI-TOF
Instrument: impact HD
Ion_mode: N
Collision_energy: 20
InChIKey: WCGUUGGRBIKTOS-GPOJBZKASA-N
Formula: C30H48O3
MW: 456
ExactMass: 456.36034539599996
Comments: "license=License CC-BY-NC-SA 4.0 International" "author=Plant Biology, The Noble Foundation, Ardmore, OK, US/Dennis Fine, Daniel Wherritt, and Lloyd Sumner" "instrument type=LC-ESI-TOF" "instrument=impact HD" "ionization=ESI" "ionization mode=negative" "ms level=MS2" "precursor m/z=455.352" "isolation width=5" "collision gas=Nitrogen" "collision energy=20" "peak width=0.016" "date=2014-07-26 08:00:18+02:00" "column=Waters Acquity BEH C18 1.7um x 2.1 x 150 mm" "retention time=1693.8" "raw data file=G:\Sumner Lab Data Management Workspace Jun2013\Projects\NSF-JST Metabolomics Nov2011-Sep2014\UPLC-MS-MSMS\Confirmed standards 24_July_2014\Ursolic Acid vial 65_1-B,5_01_494.d" "precursor type=[M-H]-" "mass accuracy=2.3485040144574514" "mass error=-0.0010693959999912295" "cas number=77-52-1" "SMILES=C[C@@H]1CC[C@@]2(CC[C@@]3(C(=CC[C@H]4[C@]3(CC[C@@H]5[C@@]4(CC[C@@H](C5(C)C)O)C)C)[C@@H]2[C@H]1C)C)C(=O)O" "InChI=InChI=1S/C30H48O3/c1-18-10-15-30(25(32)33)17-16-28(6)20(24(30)19(18)2)8-9-22-27(5)13-12-23(31)26(3,4)21(27)11-14-29(22,28)7/h8,18-19,21-24,31H,9-17H2,1-7H3,(H,32,33)/t18-,19+,21+,22-,23+,24+,27+,28-,29-,30+/m1/s1" "InChIKey=WCGUUGGRBIKTOS-GPOJBZKASA-N" "molecular formula=C30H48O3" "total exact mass=456.36034539599996" "SMILES=CC1CCC2(CCC3(C(=CCC4C3(CCC5C4(CCC(C5(C)C)O)C)C)C2C1C)C)C(=O)O"
Num Peaks: 5
 453 2.002002; 
 454 0.700701; 
 455 100.000000; 
 456 30.030030; 
 457 2.002002; 


Name: Ursolic acid
SYNON: $:00in-source
DB#: MetaboBASE0172
InChIKey: WCGUUGGRBIKTOS-GPOJBZKASA-N
Precursor_type: [M-H]-
Spectrum_type: MS2
PrecursorMZ: 455.3511
Instrument_type: LC-ESI-TOF
Instrument: impact HD
Ion_mode: N
Collision_energy: 50
InChIKey: WCGUUGGRBIKTOS-GPOJBZKASA-N
Formula: C30H48O3
MW: 456
ExactMass: 456.36034539599996
Comments: "license=License CC-BY-NC-SA 4.0 International" "author=Plant Biology, The Noble Foundation, Ardmore, OK, US/Dennis Fine, Daniel Wherritt, and Lloyd Sumner" "instrument type=LC-ESI-TOF" "instrument=impact HD" "ionization=ESI" "ionization mode=negative" "ms level=MS2" "precursor m/z=455.3511" "isolation width=5" "collision gas=Nitrogen" "collision energy=50" "peak width=0.017" "date=2014-07-26 08:00:18+02:00" "column=Waters Acquity BEH C18 1.7um x 2.1 x 150 mm" "retention time=1693.8" "raw data file=G:\Sumner Lab Data Management Workspace Jun2013\Projects\NSF-JST Metabolomics Nov2011-Sep2014\UPLC-MS-MSMS\Confirmed standards 24_July_2014\Ursolic Acid vial 65_1-B,5_01_494.d" "precursor type=[M-H]-" "mass accuracy=4.325005473782065" "mass error=-0.0019693959999926847" "cas number=77-52-1" "SMILES=C[C@@H]1CC[C@@]2(CC[C@@]3(C(=CC[C@H]4[C@]3(CC[C@@H]5[C@@]4(CC[C@@H](C5(C)C)O)C)C)[C@@H]2[C@H]1C)C)C(=O)O" "InChI=InChI=1S/C30H48O3/c1-18-10-15-30(25(32)33)17-16-28(6)20(24(30)19(18)2)8-9-22-27(5)13-12-23(31)26(3,4)21(27)11-14-29(22,28)7/h8,18-19,21-24,31H,9-17H2,1-7H3,(H,32,33)/t18-,19+,21+,22-,23+,24+,27+,28-,29-,30+/m1/s1" "InChIKey=WCGUUGGRBIKTOS-GPOJBZKASA-N" "molecular formula=C30H48O3" "total exact mass=456.36034539599996" "SMILES=CC1CCC2(CCC3(C(=CCC4C3(CCC5C4(CCC(C5(C)C)O)C)C)C2C1C)C)C(=O)O"
Num Peaks: 4
 407 2.602603; 
 455 100.000000; 
 456 28.828829; 
 457 1.601602; 


Name: Ursolic acid
SYNON: $:00in-source
DB#: MetaboBASE0173
InChIKey: WCGUUGGRBIKTOS-GPOJBZKASA-N
Precursor_type: [M-H]-
Spectrum_type: MS2
PrecursorMZ: 455.3521
Instrument_type: LC-ESI-TOF
Instrument: impact HD
Ion_mode: N
Collision_energy: 10
InChIKey: WCGUUGGRBIKTOS-GPOJBZKASA-N
Formula: C30H48O3
MW: 456
ExactMass: 456.36034539599996
Comments: "license=License CC-BY-NC-SA 4.0 International" "author=Plant Biology, The Noble Foundation, Ardmore, OK, US/Dennis Fine, Daniel Wherritt, and Lloyd Sumner" "instrument type=LC-ESI-TOF" "instrument=impact HD" "ionization=ESI" "ionization mode=negative" "ms level=MS2" "precursor m/z=455.3521" "isolation width=5" "collision gas=Nitrogen" "collision energy=10" "peak width=0.016" "date=2014-07-26 08:00:18+02:00" "column=Waters Acquity BEH C18 1.7um x 2.1 x 150 mm" "retention time=1693.8" "raw data file=G:\Sumner Lab Data Management Workspace Jun2013\Projects\NSF-JST Metabolomics Nov2011-Sep2014\UPLC-MS-MSMS\Confirmed standards 24_July_2014\Ursolic Acid vial 65_1-B,5_01_494.d" "precursor type=[M-H]-" "mass accuracy=2.1288932234187303" "mass error=-9.693959999594881E-4" "cas number=77-52-1" "SMILES=C[C@@H]1CC[C@@]2(CC[C@@]3(C(=CC[C@H]4[C@]3(CC[C@@H]5[C@@]4(CC[C@@H](C5(C)C)O)C)C)[C@@H]2[C@H]1C)C)C(=O)O" "InChI=InChI=1S/C30H48O3/c1-18-10-15-30(25(32)33)17-16-28(6)20(24(30)19(18)2)8-9-22-27(5)13-12-23(31)26(3,4)21(27)11-14-29(22,28)7/h8,18-19,21-24,31H,9-17H2,1-7H3,(H,32,33)/t18-,19+,21+,22-,23+,24+,27+,28-,29-,30+/m1/s1" "InChIKey=WCGUUGGRBIKTOS-GPOJBZKASA-N" "molecular formula=C30H48O3" "total exact mass=456.36034539599996" "SMILES=CC1CCC2(CCC3(C(=CCC4C3(CCC5C4(CCC(C5(C)C)O)C)C)C2C1C)C)C(=O)O"
Num Peaks: 5
 453 1.901902; 
 454 0.700701; 
 455 100.000000; 
 456 28.528529; 
 457 2.002002; 


Name: Ursolic acid
SYNON: $:00in-source
DB#: MetaboBASE0174
InChIKey: WCGUUGGRBIKTOS-GPOJBZKASA-N
Precursor_type: [M-H]-
Spectrum_type: MS2
PrecursorMZ: 455.3522
Instrument_type: LC-ESI-TOF
Instrument: impact HD
Ion_mode: N
Collision_energy: 40
InChIKey: WCGUUGGRBIKTOS-GPOJBZKASA-N
Formula: C30H48O3
MW: 456
ExactMass: 456.36034539599996
Comments: "license=License CC-BY-NC-SA 4.0 International" "author=Plant Biology, The Noble Foundation, Ardmore, OK, US/Dennis Fine, Daniel Wherritt, and Lloyd Sumner" "instrument type=LC-ESI-TOF" "instrument=impact HD" "ionization=ESI" "ionization mode=negative" "ms level=MS2" "precursor m/z=455.3522" "isolation width=5" "collision gas=Nitrogen" "collision energy=40" "peak width=0.017" "date=2014-07-26 08:00:18+02:00" "column=Waters Acquity BEH C18 1.7um x 2.1 x 150 mm" "retention time=1693.8" "raw data file=G:\Sumner Lab Data Management Workspace Jun2013\Projects\NSF-JST Metabolomics Nov2011-Sep2014\UPLC-MS-MSMS\Confirmed standards 24_July_2014\Ursolic Acid vial 65_1-B,5_01_494.d" "precursor type=[M-H]-" "mass accuracy=1.909282528962395" "mass error=-8.693959999845902E-4" "cas number=77-52-1" "SMILES=C[C@@H]1CC[C@@]2(CC[C@@]3(C(=CC[C@H]4[C@]3(CC[C@@H]5[C@@]4(CC[C@@H](C5(C)C)O)C)C)[C@@H]2[C@H]1C)C)C(=O)O" "InChI=InChI=1S/C30H48O3/c1-18-10-15-30(25(32)33)17-16-28(6)20(24(30)19(18)2)8-9-22-27(5)13-12-23(31)26(3,4)21(27)11-14-29(22,28)7/h8,18-19,21-24,31H,9-17H2,1-7H3,(H,32,33)/t18-,19+,21+,22-,23+,24+,27+,28-,29-,30+/m1/s1" "InChIKey=WCGUUGGRBIKTOS-GPOJBZKASA-N" "molecular formula=C30H48O3" "total exact mass=456.36034539599996" "SMILES=CC1CCC2(CCC3(C(=CCC4C3(CCC5C4(CCC(C5(C)C)O)C)C)C2C1C)C)C(=O)O"
Num Peaks: 4
 453 1.601602; 
 455 100.000000; 
 456 27.427427; 
 457 1.901902; 


Name: 18-Beta-glycyrrhetinic acid
SYNON: $:00in-source
DB#: MetaboBASE0175
InChIKey: MPDGHEJMBKOTSU-YKLVYJNSSA-N
Precursor_type: [M]-
Spectrum_type: MS2
PrecursorMZ: 470.3373
Instrument_type: LC-ESI-TOF
Instrument: impact HD
Ion_mode: N
Collision_energy: 10
InChIKey: MPDGHEJMBKOTSU-YKLVYJNSSA-N
Formula: C30H46O4
MW: 470
ExactMass: 470.339609952
Comments: "license=License CC-BY-NC-SA 4.0 International" "author=Plant Biology, The Noble Foundation, Ardmore, OK, US/Dennis Fine, Daniel Wherritt, and Lloyd Sumner" "instrument type=LC-ESI-TOF" "instrument=impact HD" "ionization=ESI" "ionization mode=negative" "ms level=MS2" "precursor m/z=470.3373" "isolation width=5" "collision gas=Nitrogen" "collision energy=10" "peak width=0.011" "date=2014-08-07 02:53:36+02:00" "column=Waters Acquity BEH C18 1.7um x 2.1 x 150 mm" "retention time=1449" "raw data file=C:\Data\Confirmed standards 24_July_2014\MSMS\Z Lei std 28 May 2014_1-F,8_01_562.d" "precursor type=[M]-" "mass accuracy=3.7449126202140506" "mass error=-0.0017613720905274022" "cas number=471-53-4" "SMILES=C[C@]12CC[C@](C[C@H]1C3=CC(=O)[C@@H]4[C@]5(CC[C@@H](C([C@@H]5CC[C@]4([C@@]3(CC2)C)C)(C)C)O)C)(C)C(=O)O" "InChI=InChI=1S/C30H46O4/c1-25(2)21-8-11-30(7)23(28(21,5)10-9-22(25)32)20(31)16-18-19-17-27(4,24(33)34)13-12-26(19,3)14-15-29(18,30)6/h16,19,21-23,32H,8-15,17H2,1-7H3,(H,33,34)/t19-,21-,22-,23+,26+,27-,28-,29+,30+/m0/s1" "InChIKey=MPDGHEJMBKOTSU-YKLVYJNSSA-N" "molecular formula=C30H46O4" "total exact mass=470.339609952" "SMILES=CC12CCC(CC1C3=CC(=O)C4C5(CCC(C(C5CCC4(C3(CC2)C)C)(C)C)O)C)(C)C(=O)O" "InChI=InChI=1S/C30H46O4/c1-25(2)21-8-11-30(7)23(28(21,5)10-9-22(25)32)20(31)16-18-19-17-27(4,24(33)34)13-12-26(19,3)14-15-29(18,30)6/h16,19,21-23,32H,8-15,17H2,1-7H3,(H,33,34)/t19-,21-,22-,23?,26+,27+,28-,29+,30+/m0/s1" "InChIKey=MPDGHEJMBKOTSU-HDCNTZMNSA-N"
Num Peaks: 4
 469 100.000000; 
 470 34.434434; 
 471 4.404404; 
 472 0.500501; 


Name: 18-Beta-glycyrrhetinic acid
SYNON: $:00in-source
DB#: MetaboBASE0176
InChIKey: MPDGHEJMBKOTSU-YKLVYJNSSA-N
Precursor_type: [M]-
Spectrum_type: MS2
PrecursorMZ: 470.3374
Instrument_type: LC-ESI-TOF
Instrument: impact HD
Ion_mode: N
Collision_energy: 20
InChIKey: MPDGHEJMBKOTSU-YKLVYJNSSA-N
Formula: C30H46O4
MW: 470
ExactMass: 470.339609952
Comments: "license=License CC-BY-NC-SA 4.0 International" "author=Plant Biology, The Noble Foundation, Ardmore, OK, US/Dennis Fine, Daniel Wherritt, and Lloyd Sumner" "instrument type=LC-ESI-TOF" "instrument=impact HD" "ionization=ESI" "ionization mode=negative" "ms level=MS2" "precursor m/z=470.3374" "isolation width=5" "collision gas=Nitrogen" "collision energy=20" "peak width=0.011" "date=2014-08-07 02:53:36+02:00" "column=Waters Acquity BEH C18 1.7um x 2.1 x 150 mm" "retention time=1449" "raw data file=C:\Data\Confirmed standards 24_July_2014\MSMS\Z Lei std 28 May 2014_1-F,8_01_562.d" "precursor type=[M]-" "mass accuracy=3.5322984958298114" "mass error=-0.0016613720905525042" "cas number=471-53-4" "SMILES=C[C@]12CC[C@](C[C@H]1C3=CC(=O)[C@@H]4[C@]5(CC[C@@H](C([C@@H]5CC[C@]4([C@@]3(CC2)C)C)(C)C)O)C)(C)C(=O)O" "InChI=InChI=1S/C30H46O4/c1-25(2)21-8-11-30(7)23(28(21,5)10-9-22(25)32)20(31)16-18-19-17-27(4,24(33)34)13-12-26(19,3)14-15-29(18,30)6/h16,19,21-23,32H,8-15,17H2,1-7H3,(H,33,34)/t19-,21-,22-,23+,26+,27-,28-,29+,30+/m0/s1" "InChIKey=MPDGHEJMBKOTSU-YKLVYJNSSA-N" "molecular formula=C30H46O4" "total exact mass=470.339609952" "SMILES=CC12CCC(CC1C3=CC(=O)C4C5(CCC(C(C5CCC4(C3(CC2)C)C)(C)C)O)C)(C)C(=O)O" "InChI=InChI=1S/C30H46O4/c1-25(2)21-8-11-30(7)23(28(21,5)10-9-22(25)32)20(31)16-18-19-17-27(4,24(33)34)13-12-26(19,3)14-15-29(18,30)6/h16,19,21-23,32H,8-15,17H2,1-7H3,(H,33,34)/t19-,21-,22-,23?,26+,27+,28-,29+,30+/m0/s1" "InChIKey=MPDGHEJMBKOTSU-HDCNTZMNSA-N"
Num Peaks: 5
 425 0.300300; 
 469 100.000000; 
 470 34.234234; 
 471 4.404404; 
 472 0.600601; 


Name: 18-Beta-glycyrrhetinic acid
SYNON: $:00in-source
DB#: MetaboBASE0177
InChIKey: MPDGHEJMBKOTSU-YKLVYJNSSA-N
Precursor_type: [M]-
Spectrum_type: MS2
PrecursorMZ: 470.3369
Instrument_type: LC-ESI-TOF
Instrument: impact HD
Ion_mode: N
Collision_energy: 50
InChIKey: MPDGHEJMBKOTSU-YKLVYJNSSA-N
Formula: C30H46O4
MW: 470
ExactMass: 470.339609952
Comments: "license=License CC-BY-NC-SA 4.0 International" "author=Plant Biology, The Noble Foundation, Ardmore, OK, US/Dennis Fine, Daniel Wherritt, and Lloyd Sumner" "instrument type=LC-ESI-TOF" "instrument=impact HD" "ionization=ESI" "ionization mode=negative" "ms level=MS2" "precursor m/z=470.3369" "isolation width=5" "collision gas=Nitrogen" "collision energy=50" "peak width=0.015" "date=2014-08-07 02:53:36+02:00" "column=Waters Acquity BEH C18 1.7um x 2.1 x 150 mm" "retention time=1449" "raw data file=C:\Data\Confirmed standards 24_July_2014\MSMS\Z Lei std 28 May 2014_1-F,8_01_562.d" "precursor type=[M]-" "mass accuracy=4.595370022085617" "mass error=-0.002161372090540681" "cas number=471-53-4" "SMILES=C[C@]12CC[C@](C[C@H]1C3=CC(=O)[C@@H]4[C@]5(CC[C@@H](C([C@@H]5CC[C@]4([C@@]3(CC2)C)C)(C)C)O)C)(C)C(=O)O" "InChI=InChI=1S/C30H46O4/c1-25(2)21-8-11-30(7)23(28(21,5)10-9-22(25)32)20(31)16-18-19-17-27(4,24(33)34)13-12-26(19,3)14-15-29(18,30)6/h16,19,21-23,32H,8-15,17H2,1-7H3,(H,33,34)/t19-,21-,22-,23+,26+,27-,28-,29+,30+/m0/s1" "InChIKey=MPDGHEJMBKOTSU-YKLVYJNSSA-N" "molecular formula=C30H46O4" "total exact mass=470.339609952" "SMILES=CC12CCC(CC1C3=CC(=O)C4C5(CCC(C(C5CCC4(C3(CC2)C)C)(C)C)O)C)(C)C(=O)O" "InChI=InChI=1S/C30H46O4/c1-25(2)21-8-11-30(7)23(28(21,5)10-9-22(25)32)20(31)16-18-19-17-27(4,24(33)34)13-12-26(19,3)14-15-29(18,30)6/h16,19,21-23,32H,8-15,17H2,1-7H3,(H,33,34)/t19-,21-,22-,23?,26+,27+,28-,29+,30+/m0/s1" "InChIKey=MPDGHEJMBKOTSU-HDCNTZMNSA-N"
Num Peaks: 67
 325 0.300300; 
 339 0.300300; 
 341 0.300300; 
 353 0.700701; 
 354 0.200200; 
 355 18.718719; 
 356 4.604605; 
 357 0.600601; 
 393 0.500501; 
 394 0.200200; 
 395 0.200200; 
 407 0.300300; 
 409 10.410410; 
 410 2.902903; 
 411 0.500501; 
 423 3.703704; 
 424 1.301301; 
 425 0.100100; 
 425 75.975976; 
 426 26.526527; 
 427 3.603604; 
 428 0.400400; 
 453 0.200200; 
 469 0.200200; 
 469 100.000000; 
 470 37.637638; 
 471 5.205205; 
 472 0.600601; 
 1217 0.200200; 
 1223 0.200200; 
 1237 0.200200; 
 1261 0.200200; 
 1264 0.100100; 
 1272 0.100100; 
 1290 0.100100; 
 1296 0.200200; 
 1297 0.200200; 
 1302 0.200200; 
 1307 0.200200; 
 1333 0.100100; 
 1335 0.100100; 
 1336 0.100100; 
 1348 0.100100; 
 1355 0.100100; 
 1392 0.200200; 
 1400 0.100100; 
 1402 0.100100; 
 1404 0.200200; 
 1411 0.100100; 
 1416 0.100100; 
 1430 0.200200; 
 1440 0.200200; 
 1457 0.100100; 
 1464 0.200200; 
 1465 0.100100; 
 1467 0.100100; 
 1470 0.200200; 
 1478 0.200200; 
 1481 0.100100; 
 1483 0.200200; 
 1488 0.100100; 
 1490 0.200200; 
 1491 0.200200; 
 1491 0.200200; 
 1491 0.200200; 
 1495 0.200200; 
 1501 0.100100; 


Name: 18-Beta-glycyrrhetinic acid
SYNON: $:00in-source
DB#: MetaboBASE0178
InChIKey: MPDGHEJMBKOTSU-YKLVYJNSSA-N
Precursor_type: [M]-
Spectrum_type: MS2
PrecursorMZ: 470.3373
Instrument_type: LC-ESI-TOF
Instrument: impact HD
Ion_mode: N
Collision_energy: 40
InChIKey: MPDGHEJMBKOTSU-YKLVYJNSSA-N
Formula: C30H46O4
MW: 470
ExactMass: 470.339609952
Comments: "license=License CC-BY-NC-SA 4.0 International" "author=Plant Biology, The Noble Foundation, Ardmore, OK, US/Dennis Fine, Daniel Wherritt, and Lloyd Sumner" "instrument type=LC-ESI-TOF" "instrument=impact HD" "ionization=ESI" "ionization mode=negative" "ms level=MS2" "precursor m/z=470.3373" "isolation width=5" "collision gas=Nitrogen" "collision energy=40" "peak width=0.015" "date=2014-08-07 02:53:36+02:00" "column=Waters Acquity BEH C18 1.7um x 2.1 x 150 mm" "retention time=1449" "raw data file=C:\Data\Confirmed standards 24_July_2014\MSMS\Z Lei std 28 May 2014_1-F,8_01_562.d" "precursor type=[M]-" "mass accuracy=3.7449126202140506" "mass error=-0.0017613720905274022" "cas number=471-53-4" "SMILES=C[C@]12CC[C@](C[C@H]1C3=CC(=O)[C@@H]4[C@]5(CC[C@@H](C([C@@H]5CC[C@]4([C@@]3(CC2)C)C)(C)C)O)C)(C)C(=O)O" "InChI=InChI=1S/C30H46O4/c1-25(2)21-8-11-30(7)23(28(21,5)10-9-22(25)32)20(31)16-18-19-17-27(4,24(33)34)13-12-26(19,3)14-15-29(18,30)6/h16,19,21-23,32H,8-15,17H2,1-7H3,(H,33,34)/t19-,21-,22-,23+,26+,27-,28-,29+,30+/m0/s1" "InChIKey=MPDGHEJMBKOTSU-YKLVYJNSSA-N" "molecular formula=C30H46O4" "total exact mass=470.339609952" "SMILES=CC12CCC(CC1C3=CC(=O)C4C5(CCC(C(C5CCC4(C3(CC2)C)C)(C)C)O)C)(C)C(=O)O" "InChI=InChI=1S/C30H46O4/c1-25(2)21-8-11-30(7)23(28(21,5)10-9-22(25)32)20(31)16-18-19-17-27(4,24(33)34)13-12-26(19,3)14-15-29(18,30)6/h16,19,21-23,32H,8-15,17H2,1-7H3,(H,33,34)/t19-,21-,22-,23?,26+,27+,28-,29+,30+/m0/s1" "InChIKey=MPDGHEJMBKOTSU-HDCNTZMNSA-N"
Num Peaks: 15
 353 0.100100; 
 355 1.601602; 
 356 0.300300; 
 409 0.800801; 
 410 0.200200; 
 423 0.500501; 
 424 0.200200; 
 425 17.117117; 
 426 5.705706; 
 427 0.800801; 
 469 100.000000; 
 469 0.100100; 
 470 34.134134; 
 471 4.804805; 
 472 0.600601; 


Name: 18-Beta-glycyrrhetinic acid
SYNON: $:00in-source
DB#: MetaboBASE0179
InChIKey: MPDGHEJMBKOTSU-YKLVYJNSSA-N
Instrument_type: LC-ESI-TOF
Instrument: impact HD
Ion_mode: N
InChIKey: MPDGHEJMBKOTSU-YKLVYJNSSA-N
Formula: C30H46O4
MW: 470
ExactMass: 470.339609952
Comments: "license=License CC-BY-NC-SA 4.0 International" "author=Plant Biology, The Noble Foundation, Ardmore, OK, US/Dennis Fine, Daniel Wherritt, and Lloyd Sumner" "instrument type=LC-ESI-TOF" "instrument=impact HD" "ionization=ESI" "ionization mode=negative" "collision gas=Nitrogen" "peak width=0.023" "date=2013-09-05 14:59:17+02:00" "column=Waters Acquity BEH C18 1.7um x 2.1 x 150 mm" "retention time=1449" "raw data file=D:\Data\Confirmed Standards\Reinjection 2 uL\Glycyrrhetinic acid, 18 beta- .d" "cas number=471-53-4" "SMILES=C[C@]12CC[C@](C[C@H]1C3=CC(=O)[C@@H]4[C@]5(CC[C@@H](C([C@@H]5CC[C@]4([C@@]3(CC2)C)C)(C)C)O)C)(C)C(=O)O" "InChI=InChI=1S/C30H46O4/c1-25(2)21-8-11-30(7)23(28(21,5)10-9-22(25)32)20(31)16-18-19-17-27(4,24(33)34)13-12-26(19,3)14-15-29(18,30)6/h16,19,21-23,32H,8-15,17H2,1-7H3,(H,33,34)/t19-,21-,22-,23+,26+,27-,28-,29+,30+/m0/s1" "InChIKey=MPDGHEJMBKOTSU-YKLVYJNSSA-N" "molecular formula=C30H46O4" "total exact mass=470.339609952" "SMILES=CC12CCC(CC1C3=CC(=O)C4C5(CCC(C(C5CCC4(C3(CC2)C)C)(C)C)O)C)(C)C(=O)O" "InChI=InChI=1S/C30H46O4/c1-25(2)21-8-11-30(7)23(28(21,5)10-9-22(25)32)20(31)16-18-19-17-27(4,24(33)34)13-12-26(19,3)14-15-29(18,30)6/h16,19,21-23,32H,8-15,17H2,1-7H3,(H,33,34)/t19-,21-,22-,23?,26+,27+,28-,29+,30+/m0/s1" "InChIKey=MPDGHEJMBKOTSU-HDCNTZMNSA-N"
Num Peaks: 20
 112 2.702703; 
 151 1.101101; 
 161 1.501502; 
 174 2.302302; 
 242 1.201201; 
 248 2.002002; 
 265 1.701702; 
 469 100.000000; 
 470 31.631632; 
 471 5.905906; 
 537 17.917918; 
 538 6.506507; 
 605 8.308308; 
 606 2.802803; 
 673 4.004004; 
 674 2.302302; 
 741 3.203203; 
 809 2.102102; 
 939 5.405405; 
 940 2.802803; 


Name: 18-Beta-glycyrrhetinic acid
SYNON: $:00in-source
DB#: MetaboBASE0180
InChIKey: MPDGHEJMBKOTSU-YKLVYJNSSA-N
Instrument_type: LC-ESI-TOF
Instrument: impact HD
Ion_mode: N
Collision_energy: 10
InChIKey: MPDGHEJMBKOTSU-YKLVYJNSSA-N
Formula: C30H46O4
MW: 470
ExactMass: 470.339609952
Comments: "license=License CC-BY-NC-SA 4.0 International" "author=Plant Biology, The Noble Foundation, Ardmore, OK, US/Dennis Fine, Daniel Wherritt, and Lloyd Sumner" "instrument type=LC-ESI-TOF" "instrument=impact HD" "ionization=ESI" "ionization mode=negative" "collision gas=Nitrogen" "collision energy=10" "peak width=0.017" "date=2013-11-12 19:07:40+01:00" "column=Waters Acquity BEH C18 1.7um x 2.1 x 150 mm" "retention time=1449" "raw data file=C:\Data\Confirmed Standards\Confirmed std 11Nov13\ZLei_Std_Mix_30_Oct_13_1966.d" "cas number=471-53-4" "SMILES=C[C@]12CC[C@](C[C@H]1C3=CC(=O)[C@@H]4[C@]5(CC[C@@H](C([C@@H]5CC[C@]4([C@@]3(CC2)C)C)(C)C)O)C)(C)C(=O)O" "InChI=InChI=1S/C30H46O4/c1-25(2)21-8-11-30(7)23(28(21,5)10-9-22(25)32)20(31)16-18-19-17-27(4,24(33)34)13-12-26(19,3)14-15-29(18,30)6/h16,19,21-23,32H,8-15,17H2,1-7H3,(H,33,34)/t19-,21-,22-,23+,26+,27-,28-,29+,30+/m0/s1" "InChIKey=MPDGHEJMBKOTSU-YKLVYJNSSA-N" "molecular formula=C30H46O4" "total exact mass=470.339609952" "SMILES=CC12CCC(CC1C3=CC(=O)C4C5(CCC(C(C5CCC4(C3(CC2)C)C)(C)C)O)C)(C)C(=O)O" "InChI=InChI=1S/C30H46O4/c1-25(2)21-8-11-30(7)23(28(21,5)10-9-22(25)32)20(31)16-18-19-17-27(4,24(33)34)13-12-26(19,3)14-15-29(18,30)6/h16,19,21-23,32H,8-15,17H2,1-7H3,(H,33,34)/t19-,21-,22-,23?,26+,27+,28-,29+,30+/m0/s1" "InChIKey=MPDGHEJMBKOTSU-HDCNTZMNSA-N"
Num Peaks: 14
 469 100.000000; 
 470 26.426426; 
 471 3.703704; 
 537 1.801802; 
 939 85.085085; 
 940 52.952953; 
 941 15.915916; 
 942 2.902903; 
 961 2.002002; 
 962 1.201201; 
 1410 1.301301; 
 1411 1.301301; 
 1432 1.101101; 
 1433 1.101101; 


Name: 18-Beta-glycyrrhetinic acid
SYNON: $:00in-source
DB#: MetaboBASE0181
InChIKey: MPDGHEJMBKOTSU-YKLVYJNSSA-N
Precursor_type: [M]-
Spectrum_type: MS2
PrecursorMZ: 470.3375
Instrument_type: LC-ESI-TOF
Instrument: impact HD
Ion_mode: N
Collision_energy: 30
InChIKey: MPDGHEJMBKOTSU-YKLVYJNSSA-N
Formula: C30H46O4
MW: 470
ExactMass: 470.339609952
Comments: "license=License CC-BY-NC-SA 4.0 International" "author=Plant Biology, The Noble Foundation, Ardmore, OK, US/Dennis Fine, Daniel Wherritt, and Lloyd Sumner" "instrument type=LC-ESI-TOF" "instrument=impact HD" "ionization=ESI" "ionization mode=negative" "ms level=MS2" "precursor m/z=470.3375" "isolation width=5" "collision gas=Nitrogen" "collision energy=30" "peak width=0.011" "date=2014-08-07 02:53:36+02:00" "column=Waters Acquity BEH C18 1.7um x 2.1 x 150 mm" "retention time=1449" "raw data file=C:\Data\Confirmed standards 24_July_2014\MSMS\Z Lei std 28 May 2014_1-F,8_01_562.d" "precursor type=[M]-" "mass accuracy=3.3196844618547456" "mass error=-0.0015613720905776063" "cas number=471-53-4" "SMILES=C[C@]12CC[C@](C[C@H]1C3=CC(=O)[C@@H]4[C@]5(CC[C@@H](C([C@@H]5CC[C@]4([C@@]3(CC2)C)C)(C)C)O)C)(C)C(=O)O" "InChI=InChI=1S/C30H46O4/c1-25(2)21-8-11-30(7)23(28(21,5)10-9-22(25)32)20(31)16-18-19-17-27(4,24(33)34)13-12-26(19,3)14-15-29(18,30)6/h16,19,21-23,32H,8-15,17H2,1-7H3,(H,33,34)/t19-,21-,22-,23+,26+,27-,28-,29+,30+/m0/s1" "InChIKey=MPDGHEJMBKOTSU-YKLVYJNSSA-N" "molecular formula=C30H46O4" "total exact mass=470.339609952" "SMILES=CC12CCC(CC1C3=CC(=O)C4C5(CCC(C(C5CCC4(C3(CC2)C)C)(C)C)O)C)(C)C(=O)O" "InChI=InChI=1S/C30H46O4/c1-25(2)21-8-11-30(7)23(28(21,5)10-9-22(25)32)20(31)16-18-19-17-27(4,24(33)34)13-12-26(19,3)14-15-29(18,30)6/h16,19,21-23,32H,8-15,17H2,1-7H3,(H,33,34)/t19-,21-,22-,23?,26+,27+,28-,29+,30+/m0/s1" "InChIKey=MPDGHEJMBKOTSU-HDCNTZMNSA-N"
Num Peaks: 8
 355 0.100100; 
 409 0.100100; 
 425 2.202202; 
 426 0.600601; 
 469 100.000000; 
 470 33.533534; 
 471 4.304304; 
 472 0.400400; 


Name: Diosmetin
SYNON: $:00in-source
DB#: MetaboBASE0182
InChIKey: MBNGWHIJMBWFHU-UHFFFAOYSA-N
Precursor_type: [M-H]-
Spectrum_type: MS2
PrecursorMZ: 299.058
Instrument_type: LC-ESI-TOF
Instrument: impact HD
Ion_mode: N
Collision_energy: 20
InChIKey: MBNGWHIJMBWFHU-UHFFFAOYSA-N
Formula: C16H12O6
MW: 300
ExactMass: 300.06338810399996
Comments: "license=License CC-BY-NC-SA 4.0 International" "author=Plant Biology, The Noble Foundation, Ardmore, OK, US/Dennis Fine, Daniel Wherritt, and Lloyd Sumner" "instrument type=LC-ESI-TOF" "instrument=impact HD" "ionization=ESI" "ionization mode=negative" "ms level=MS2" "precursor m/z=299.058" "isolation width=5" "collision gas=Nitrogen" "collision energy=20" "peak width=0.012" "date=2013-11-16 07:14:37+01:00" "column=Waters Acquity BEH C18 1.7um x 2.1 x 150 mm" "retention time=634.2" "raw data file=C:\Data\Confirmed Standards\Confirmed stds MSMS 14Nov13\Diosmetin MSMS (vial 58).d" "precursor type=[M-H]-" "mass accuracy=6.3128088866638645" "mass error=0.0018878960000279221" "cas number=520-34-3" "SMILES=COc1ccc(cc1O)c2cc(=O)c3c(cc(cc3o2)O)O" "InChI=InChI=1S/C16H12O6/c1-21-13-3-2-8(4-10(13)18)14-7-12(20)16-11(19)5-9(17)6-15(16)22-14/h2-7,17-19H,1H3" "InChIKey=MBNGWHIJMBWFHU-UHFFFAOYSA-N" "molecular formula=C16H12O6" "total exact mass=300.06338810399996" "SMILES=COC1=C(C=C(C=C1)C2=CC(=O)C3=C(C=C(C=C3O2)O)O)O"
Num Peaks: 4
 284 100.000000; 
 285 12.912913; 
 299 30.030030; 
 300 3.403403; 


Name: Diosmetin
SYNON: $:00in-source
DB#: MetaboBASE0183
InChIKey: MBNGWHIJMBWFHU-UHFFFAOYSA-N
Instrument_type: LC-ESI-TOF
Instrument: impact HD
Ion_mode: N
Collision_energy: 10
InChIKey: MBNGWHIJMBWFHU-UHFFFAOYSA-N
Formula: C16H12O6
MW: 300
ExactMass: 300.06338810399996
Comments: "license=License CC-BY-NC-SA 4.0 International" "author=Plant Biology, The Noble Foundation, Ardmore, OK, US/Dennis Fine, Daniel Wherritt, and Lloyd Sumner" "instrument type=LC-ESI-TOF" "instrument=impact HD" "ionization=ESI" "ionization mode=negative" "collision gas=Nitrogen" "collision energy=10" "peak width=0.021" "date=2013-09-05 08:52:28+02:00" "column=Waters Acquity BEH C18 1.7um x 2.1 x 150 mm" "retention time=634.2" "raw data file=D:\Data\Confirmed Standards\Reinjection 2 uL\Diosmetin (vial 58).d" "cas number=520-34-3" "SMILES=COc1ccc(cc1O)c2cc(=O)c3c(cc(cc3o2)O)O" "InChI=InChI=1S/C16H12O6/c1-21-13-3-2-8(4-10(13)18)14-7-12(20)16-11(19)5-9(17)6-15(16)22-14/h2-7,17-19H,1H3" "InChIKey=MBNGWHIJMBWFHU-UHFFFAOYSA-N" "molecular formula=C16H12O6" "total exact mass=300.06338810399996" "SMILES=COC1=C(C=C(C=C1)C2=CC(=O)C3=C(C=C(C=C3O2)O)O)O"
Num Peaks: 5
 284 16.516517; 
 285 2.302302; 
 299 100.000000; 
 300 16.616617; 
 301 2.102102; 


Name: Diosmetin
SYNON: $:00in-source
DB#: MetaboBASE0184
InChIKey: MBNGWHIJMBWFHU-UHFFFAOYSA-N
Precursor_type: [M-H]-
Spectrum_type: MS2
PrecursorMZ: 299.1
Instrument_type: LC-ESI-TOF
Instrument: impact HD
Ion_mode: N
Collision_energy: 50
InChIKey: MBNGWHIJMBWFHU-UHFFFAOYSA-N
Formula: C16H12O6
MW: 300
ExactMass: 300.06338810399996
Comments: "license=License CC-BY-NC-SA 4.0 International" "author=Plant Biology, The Noble Foundation, Ardmore, OK, US/Dennis Fine, Daniel Wherritt, and Lloyd Sumner" "instrument type=LC-ESI-TOF" "instrument=impact HD" "ionization=ESI" "ionization mode=negative" "ms level=MS2" "precursor m/z=299.1" "isolation width=5" "collision gas=Nitrogen" "collision energy=50" "peak width=0.017" "date=2013-11-16 07:14:37+01:00" "column=Waters Acquity BEH C18 1.7um x 2.1 x 150 mm" "retention time=634.2" "raw data file=C:\Data\Confirmed Standards\Confirmed stds MSMS 14Nov13\Diosmetin MSMS (vial 58).d" "precursor type=[M-H]-" "mass accuracy=146.7331862255364" "mass error=0.043887896000057935" "cas number=520-34-3" "SMILES=COc1ccc(cc1O)c2cc(=O)c3c(cc(cc3o2)O)O" "InChI=InChI=1S/C16H12O6/c1-21-13-3-2-8(4-10(13)18)14-7-12(20)16-11(19)5-9(17)6-15(16)22-14/h2-7,17-19H,1H3" "InChIKey=MBNGWHIJMBWFHU-UHFFFAOYSA-N" "molecular formula=C16H12O6" "total exact mass=300.06338810399996" "SMILES=COC1=C(C=C(C=C1)C2=CC(=O)C3=C(C=C(C=C3O2)O)O)O"
Num Peaks: 11
 107 36.536537; 
 133 37.837838; 
 151 35.335335; 
 199 18.518519; 
 211 25.225225; 
 227 100.000000; 
 228 19.119119; 
 239 16.116116; 
 255 49.249249; 
 256 25.025025; 
 284 40.440440; 


Name: Diosmetin
SYNON: $:00in-source
DB#: MetaboBASE0185
InChIKey: MBNGWHIJMBWFHU-UHFFFAOYSA-N
Precursor_type: [M-H]-
Spectrum_type: MS2
PrecursorMZ: 299.1
Instrument_type: LC-ESI-TOF
Instrument: impact HD
Ion_mode: N
Collision_energy: 40
InChIKey: MBNGWHIJMBWFHU-UHFFFAOYSA-N
Formula: C16H12O6
MW: 300
ExactMass: 300.06338810399996
Comments: "license=License CC-BY-NC-SA 4.0 International" "author=Plant Biology, The Noble Foundation, Ardmore, OK, US/Dennis Fine, Daniel Wherritt, and Lloyd Sumner" "instrument type=LC-ESI-TOF" "instrument=impact HD" "ionization=ESI" "ionization mode=negative" "ms level=MS2" "precursor m/z=299.1" "isolation width=5" "collision gas=Nitrogen" "collision energy=40" "peak width=0.017" "date=2013-11-16 07:14:37+01:00" "column=Waters Acquity BEH C18 1.7um x 2.1 x 150 mm" "retention time=634.2" "raw data file=C:\Data\Confirmed Standards\Confirmed stds MSMS 14Nov13\Diosmetin MSMS (vial 58).d" "precursor type=[M-H]-" "mass accuracy=146.7331862255364" "mass error=0.043887896000057935" "cas number=520-34-3" "SMILES=COc1ccc(cc1O)c2cc(=O)c3c(cc(cc3o2)O)O" "InChI=InChI=1S/C16H12O6/c1-21-13-3-2-8(4-10(13)18)14-7-12(20)16-11(19)5-9(17)6-15(16)22-14/h2-7,17-19H,1H3" "InChIKey=MBNGWHIJMBWFHU-UHFFFAOYSA-N" "molecular formula=C16H12O6" "total exact mass=300.06338810399996" "SMILES=COC1=C(C=C(C=C1)C2=CC(=O)C3=C(C=C(C=C3O2)O)O)O"
Num Peaks: 21
 107 3.603604; 
 123 3.603604; 
 132 4.604605; 
 133 5.705706; 
 134 3.403403; 
 150 3.203203; 
 151 15.515516; 
 188 2.802803; 
 200 4.104104; 
 211 6.306306; 
 227 27.027027; 
 228 9.509510; 
 239 5.605606; 
 240 2.302302; 
 255 15.415415; 
 256 33.433433; 
 257 5.605606; 
 283 7.707708; 
 284 100.000000; 
 285 14.814815; 
 286 3.303303; 


Name: Corosolic acid
SYNON: $:00in-source
DB#: MetaboBASE0186
InChIKey: HFGSQOYIOKBQOW-ZSDYHTTISA-N
Precursor_type: [M-H]-
Spectrum_type: MS2
PrecursorMZ: 471.3528
Instrument_type: LC-ESI-TOF
Instrument: impact HD
Ion_mode: N
Collision_energy: 20
InChIKey: HFGSQOYIOKBQOW-ZSDYHTTISA-N
Formula: C30H48O4
MW: 472
ExactMass: 472.355260016
Comments: "license=License CC-BY-NC-SA 4.0 International" "author=Plant Biology, The Noble Foundation, Ardmore, OK, US/Dennis Fine, Daniel Wherritt, and Lloyd Sumner" "instrument type=LC-ESI-TOF" "instrument=impact HD" "ionization=ESI" "ionization mode=negative" "ms level=MS2" "precursor m/z=471.3528" "isolation width=5" "collision gas=Nitrogen" "collision energy=20" "peak width=0.013" "date=2014-07-26 05:16:40+02:00" "column=Waters Acquity BEH C18 1.7um x 2.1 x 150 mm" "retention time=1407" "raw data file=C:\Data\Confirmed standards 24_July_2014\MSMS\Corosolic acid vial 60_1-B,1_01_490.d" "precursor type=[M-H]-" "mass accuracy=10.217365845718826" "mass error=0.004815984000003937" "cas number=4547-24-4" "SMILES=C[C@@H]1CC[C@@]2(CC[C@@]3(C(=CC[C@H]4[C@]3(CC[C@@H]5[C@@]4(C[C@H]([C@@H](C5(C)C)O)O)C)C)[C@@H]2[C@H]1C)C)C(=O)O" "InChI=InChI=1S/C30H48O4/c1-17-10-13-30(25(33)34)15-14-28(6)19(23(30)18(17)2)8-9-22-27(5)16-20(31)24(32)26(3,4)21(27)11-12-29(22,28)7/h8,17-18,20-24,31-32H,9-16H2,1-7H3,(H,33,34)/t17-,18+,20-,21+,22-,23+,24+,27+,28-,29-,30+/m1/s1" "InChIKey=HFGSQOYIOKBQOW-ZSDYHTTISA-N" "molecular formula=C30H48O4" "total exact mass=472.355260016" "SMILES=CC1CCC2(CCC3(C(=CCC4C3(CCC5C4(CC(C(C5(C)C)O)O)C)C)C2C1C)C)C(=O)O"
Num Peaks: 4
 471 100.000000; 
 472 25.225225; 
 473 1.801802; 
 474 0.100100; 


Name: Corosolic acid
SYNON: $:00in-source
DB#: MetaboBASE0187
InChIKey: HFGSQOYIOKBQOW-ZSDYHTTISA-N
Precursor_type: [M-H]-
Spectrum_type: MS2
PrecursorMZ: 471.3524
Instrument_type: LC-ESI-TOF
Instrument: impact HD
Ion_mode: N
Collision_energy: 10
InChIKey: HFGSQOYIOKBQOW-ZSDYHTTISA-N
Formula: C30H48O4
MW: 472
ExactMass: 472.355260016
Comments: "license=License CC-BY-NC-SA 4.0 International" "author=Plant Biology, The Noble Foundation, Ardmore, OK, US/Dennis Fine, Daniel Wherritt, and Lloyd Sumner" "instrument type=LC-ESI-TOF" "instrument=impact HD" "ionization=ESI" "ionization mode=negative" "ms level=MS2" "precursor m/z=471.3524" "isolation width=5" "collision gas=Nitrogen" "collision energy=10" "peak width=0.013" "date=2014-07-26 05:16:40+02:00" "column=Waters Acquity BEH C18 1.7um x 2.1 x 150 mm" "retention time=1407" "raw data file=C:\Data\Confirmed standards 24_July_2014\MSMS\Corosolic acid vial 60_1-B,1_01_490.d" "precursor type=[M-H]-" "mass accuracy=9.368752551149964" "mass error=0.004415983999990658" "cas number=4547-24-4" "SMILES=C[C@@H]1CC[C@@]2(CC[C@@]3(C(=CC[C@H]4[C@]3(CC[C@@H]5[C@@]4(C[C@H]([C@@H](C5(C)C)O)O)C)C)[C@@H]2[C@H]1C)C)C(=O)O" "InChI=InChI=1S/C30H48O4/c1-17-10-13-30(25(33)34)15-14-28(6)19(23(30)18(17)2)8-9-22-27(5)16-20(31)24(32)26(3,4)21(27)11-12-29(22,28)7/h8,17-18,20-24,31-32H,9-16H2,1-7H3,(H,33,34)/t17-,18+,20-,21+,22-,23+,24+,27+,28-,29-,30+/m1/s1" "InChIKey=HFGSQOYIOKBQOW-ZSDYHTTISA-N" "molecular formula=C30H48O4" "total exact mass=472.355260016" "SMILES=CC1CCC2(CCC3(C(=CCC4C3(CCC5C4(CC(C(C5(C)C)O)O)C)C)C2C1C)C)C(=O)O"
Num Peaks: 5
 471 100.000000; 
 471 0.200200; 
 472 26.526527; 
 473 1.901902; 
 474 0.200200; 


Name: Corosolic acid
SYNON: $:00in-source
DB#: MetaboBASE0188
InChIKey: HFGSQOYIOKBQOW-ZSDYHTTISA-N
Precursor_type: [M-H]-
Spectrum_type: MS2
PrecursorMZ: 471.3524
Instrument_type: LC-ESI-TOF
Instrument: impact HD
Ion_mode: N
Collision_energy: 40
InChIKey: HFGSQOYIOKBQOW-ZSDYHTTISA-N
Formula: C30H48O4
MW: 472
ExactMass: 472.355260016
Comments: "license=License CC-BY-NC-SA 4.0 International" "author=Plant Biology, The Noble Foundation, Ardmore, OK, US/Dennis Fine, Daniel Wherritt, and Lloyd Sumner" "instrument type=LC-ESI-TOF" "instrument=impact HD" "ionization=ESI" "ionization mode=negative" "ms level=MS2" "precursor m/z=471.3524" "isolation width=5" "collision gas=Nitrogen" "collision energy=40" "peak width=0.014" "date=2014-07-26 05:16:40+02:00" "column=Waters Acquity BEH C18 1.7um x 2.1 x 150 mm" "retention time=1407" "raw data file=C:\Data\Confirmed standards 24_July_2014\MSMS\Corosolic acid vial 60_1-B,1_01_490.d" "precursor type=[M-H]-" "mass accuracy=9.368752551149964" "mass error=0.004415983999990658" "cas number=4547-24-4" "SMILES=C[C@@H]1CC[C@@]2(CC[C@@]3(C(=CC[C@H]4[C@]3(CC[C@@H]5[C@@]4(C[C@H]([C@@H](C5(C)C)O)O)C)C)[C@@H]2[C@H]1C)C)C(=O)O" "InChI=InChI=1S/C30H48O4/c1-17-10-13-30(25(33)34)15-14-28(6)19(23(30)18(17)2)8-9-22-27(5)16-20(31)24(32)26(3,4)21(27)11-12-29(22,28)7/h8,17-18,20-24,31-32H,9-16H2,1-7H3,(H,33,34)/t17-,18+,20-,21+,22-,23+,24+,27+,28-,29-,30+/m1/s1" "InChIKey=HFGSQOYIOKBQOW-ZSDYHTTISA-N" "molecular formula=C30H48O4" "total exact mass=472.355260016" "SMILES=CC1CCC2(CCC3(C(=CCC4C3(CCC5C4(CC(C(C5(C)C)O)O)C)C)C2C1C)C)C(=O)O"
Num Peaks: 11
 393 0.100100; 
 423 0.500501; 
 471 100.000000; 
 472 27.227227; 
 473 2.002002; 
 474 0.100100; 
 1334 0.100100; 
 1344 0.100100; 
 1421 0.100100; 
 1427 0.100100; 
 1430 0.100100; 


Name: Corosolic acid
SYNON: $:00in-source
DB#: MetaboBASE0189
InChIKey: HFGSQOYIOKBQOW-ZSDYHTTISA-N
Instrument_type: LC-ESI-TOF
Instrument: impact HD
Ion_mode: N
Collision_energy: 10
InChIKey: HFGSQOYIOKBQOW-ZSDYHTTISA-N
Formula: C30H48O4
MW: 472
ExactMass: 472.355260016
Comments: "license=License CC-BY-NC-SA 4.0 International" "author=Plant Biology, The Noble Foundation, Ardmore, OK, US/Dennis Fine, Daniel Wherritt, and Lloyd Sumner" "instrument type=LC-ESI-TOF" "instrument=impact HD" "ionization=ESI" "ionization mode=negative" "collision gas=Nitrogen" "collision energy=10" "peak width=0.024" "date=2013-09-05 10:13:58+02:00" "column=Waters Acquity BEH C18 1.7um x 2.1 x 150 mm" "retention time=1407" "raw data file=C:\Data\Confirmed Standards\Reinjection 2 uL\Corosolic acid   (vial 60).d" "cas number=4547-24-4" "SMILES=C[C@@H]1CC[C@@]2(CC[C@@]3(C(=CC[C@H]4[C@]3(CC[C@@H]5[C@@]4(C[C@H]([C@@H](C5(C)C)O)O)C)C)[C@@H]2[C@H]1C)C)C(=O)O" "InChI=InChI=1S/C30H48O4/c1-17-10-13-30(25(33)34)15-14-28(6)19(23(30)18(17)2)8-9-22-27(5)16-20(31)24(32)26(3,4)21(27)11-12-29(22,28)7/h8,17-18,20-24,31-32H,9-16H2,1-7H3,(H,33,34)/t17-,18+,20-,21+,22-,23+,24+,27+,28-,29-,30+/m1/s1" "InChIKey=HFGSQOYIOKBQOW-ZSDYHTTISA-N" "molecular formula=C30H48O4" "total exact mass=472.355260016" "SMILES=CC1CCC2(CCC3(C(=CCC4C3(CCC5C4(CC(C(C5(C)C)O)O)C)C)C2C1C)C)C(=O)O"
Num Peaks: 12
 297 1.401401; 
 471 100.000000; 
 472 31.031031; 
 473 4.804805; 
 539 9.309309; 
 540 2.802803; 
 607 1.201201; 
 943 13.813814; 
 944 8.808809; 
 945 2.302302; 
 965 2.202202; 
 966 1.601602; 


Name: Corosolic acid
SYNON: $:00in-source
DB#: MetaboBASE0190
InChIKey: HFGSQOYIOKBQOW-ZSDYHTTISA-N
Precursor_type: [M-H]-
Spectrum_type: MS2
PrecursorMZ: 471.3514
Instrument_type: LC-ESI-TOF
Instrument: impact HD
Ion_mode: N
Collision_energy: 50
InChIKey: HFGSQOYIOKBQOW-ZSDYHTTISA-N
Formula: C30H48O4
MW: 472
ExactMass: 472.355260016
Comments: "license=License CC-BY-NC-SA 4.0 International" "author=Plant Biology, The Noble Foundation, Ardmore, OK, US/Dennis Fine, Daniel Wherritt, and Lloyd Sumner" "instrument type=LC-ESI-TOF" "instrument=impact HD" "ionization=ESI" "ionization mode=negative" "ms level=MS2" "precursor m/z=471.3514" "isolation width=5" "collision gas=Nitrogen" "collision energy=50" "peak width=0.016" "date=2014-07-26 05:16:40+02:00" "column=Waters Acquity BEH C18 1.7um x 2.1 x 150 mm" "retention time=1407" "raw data file=C:\Data\Confirmed standards 24_July_2014\MSMS\Corosolic acid vial 60_1-B,1_01_490.d" "precursor type=[M-H]-" "mass accuracy=7.2472130135060695" "mass error=0.003415984000014305" "cas number=4547-24-4" "SMILES=C[C@@H]1CC[C@@]2(CC[C@@]3(C(=CC[C@H]4[C@]3(CC[C@@H]5[C@@]4(C[C@H]([C@@H](C5(C)C)O)O)C)C)[C@@H]2[C@H]1C)C)C(=O)O" "InChI=InChI=1S/C30H48O4/c1-17-10-13-30(25(33)34)15-14-28(6)19(23(30)18(17)2)8-9-22-27(5)16-20(31)24(32)26(3,4)21(27)11-12-29(22,28)7/h8,17-18,20-24,31-32H,9-16H2,1-7H3,(H,33,34)/t17-,18+,20-,21+,22-,23+,24+,27+,28-,29-,30+/m1/s1" "InChIKey=HFGSQOYIOKBQOW-ZSDYHTTISA-N" "molecular formula=C30H48O4" "total exact mass=472.355260016" "SMILES=CC1CCC2(CCC3(C(=CCC4C3(CCC5C4(CC(C(C5(C)C)O)O)C)C)C2C1C)C)C(=O)O"
Num Peaks: 7
 393 1.101101; 
 405 0.400400; 
 423 1.501502; 
 424 0.400400; 
 471 100.000000; 
 472 28.828829; 
 473 1.901902; 


Name: Corosolic acid
SYNON: $:00in-source
DB#: MetaboBASE0191
InChIKey: HFGSQOYIOKBQOW-ZSDYHTTISA-N
Precursor_type: [M-H]-
Spectrum_type: MS2
PrecursorMZ: 471.3525
Instrument_type: LC-ESI-TOF
Instrument: impact HD
Ion_mode: N
Collision_energy: 30
InChIKey: HFGSQOYIOKBQOW-ZSDYHTTISA-N
Formula: C30H48O4
MW: 472
ExactMass: 472.355260016
Comments: "license=License CC-BY-NC-SA 4.0 International" "author=Plant Biology, The Noble Foundation, Ardmore, OK, US/Dennis Fine, Daniel Wherritt, and Lloyd Sumner" "instrument type=LC-ESI-TOF" "instrument=impact HD" "ionization=ESI" "ionization mode=negative" "ms level=MS2" "precursor m/z=471.3525" "isolation width=5" "collision gas=Nitrogen" "collision energy=30" "peak width=0.013" "date=2014-07-26 05:16:40+02:00" "column=Waters Acquity BEH C18 1.7um x 2.1 x 150 mm" "retention time=1407" "raw data file=C:\Data\Confirmed standards 24_July_2014\MSMS\Corosolic acid vial 60_1-B,1_01_490.d" "precursor type=[M-H]-" "mass accuracy=9.580906009880925" "mass error=0.004515984000022399" "cas number=4547-24-4" "SMILES=C[C@@H]1CC[C@@]2(CC[C@@]3(C(=CC[C@H]4[C@]3(CC[C@@H]5[C@@]4(C[C@H]([C@@H](C5(C)C)O)O)C)C)[C@@H]2[C@H]1C)C)C(=O)O" "InChI=InChI=1S/C30H48O4/c1-17-10-13-30(25(33)34)15-14-28(6)19(23(30)18(17)2)8-9-22-27(5)16-20(31)24(32)26(3,4)21(27)11-12-29(22,28)7/h8,17-18,20-24,31-32H,9-16H2,1-7H3,(H,33,34)/t17-,18+,20-,21+,22-,23+,24+,27+,28-,29-,30+/m1/s1" "InChIKey=HFGSQOYIOKBQOW-ZSDYHTTISA-N" "molecular formula=C30H48O4" "total exact mass=472.355260016" "SMILES=CC1CCC2(CCC3(C(=CCC4C3(CCC5C4(CC(C(C5(C)C)O)O)C)C)C2C1C)C)C(=O)O"
Num Peaks: 6
 469 0.100100; 
 471 100.000000; 
 471 0.200200; 
 472 27.127127; 
 473 2.002002; 
 474 0.100100; 


Name: Pygenic acid A b
SYNON: $:00in-source
DB#: MetaboBASE0192
InChIKey: HFGSQOYIOKBQOW-RFMFWNHYSA-N
Precursor_type: [M-H]-
Spectrum_type: MS2
PrecursorMZ: 471.3475
Instrument_type: LC-ESI-TOF
Instrument: impact HD
Ion_mode: N
Collision_energy: 20
InChIKey: HFGSQOYIOKBQOW-RFMFWNHYSA-N
Formula: C30H48O4
MW: 472
ExactMass: 472.355260016
Comments: "license=License CC-BY-NC-SA 4.0 International" "author=Plant Biology, The Noble Foundation, Ardmore, OK, US/Dennis Fine, Daniel Wherritt, and Lloyd Sumner" "instrument type=LC-ESI-TOF" "instrument=impact HD" "ionization=ESI" "ionization mode=negative" "ms level=MS2" "precursor m/z=471.3475" "isolation width=5" "collision gas=Nitrogen" "collision energy=20" "peak width=0.015" "date=2014-07-26 05:57:36+02:00" "column=Waters Acquity BEH C18 1.7um x 2.1 x 150 mm" "retention time=1355.4" "raw data file=C:\Data\Confirmed standards 24_July_2014\MSMS\Pygenic Acid A vial 61_1-B,2_01_491.d" "precursor type=[M-H]-" "mass accuracy=1.0268771977639704" "mass error=-4.840159999730531E-4" "cas number=52213-27-1" "SMILES=C[C@H]1[C@@H]([C@@H]2[C@@](CC[C@@]3(C2=CC[C@H]4[C@]3(CC[C@@H]5[C@@]4(C[C@H]([C@H]([C@]5(C)C)O)O)C)C)C)(CC1)C(=O)O)C" "InChI=InChI=1S/C30H48O4/c1-17-10-13-30(25(33)34)15-14-28(6)19(23(30)18(17)2)8-9-22-27(5)16-20(31)24(32)26(3,4)21(27)11-12-29(22,28)7/h8,17-18,20-24,31-32H,9-16H2,1-7H3,(H,33,34)/t17-,18+,20-,21+,22-,23+,24-,27+,28-,29-,30+/m1/s1" "InChIKey=HFGSQOYIOKBQOW-RFMFWNHYSA-N" "molecular formula=C30H48O4" "total exact mass=472.355260016" "SMILES=CC1CCC2(CCC3(C(=CCC4C3(CCC5C4(CC(C(C5(C)C)O)O)C)C)C2C1C)C)C(=O)O"
Num Peaks: 9
 469 2.002002; 
 470 0.700701; 
 471 100.000000; 
 471 0.200200; 
 472 26.726727; 
 473 2.002002; 
 474 0.200200; 
 1468 0.200200; 
 1482 0.200200; 


Name: Pygenic acid A b
SYNON: $:00in-source
DB#: MetaboBASE0193
InChIKey: HFGSQOYIOKBQOW-RFMFWNHYSA-N
Precursor_type: [M-H]-
Spectrum_type: MS2
PrecursorMZ: 471.3476
Instrument_type: LC-ESI-TOF
Instrument: impact HD
Ion_mode: N
Collision_energy: 10
InChIKey: HFGSQOYIOKBQOW-RFMFWNHYSA-N
Formula: C30H48O4
MW: 472
ExactMass: 472.355260016
Comments: "license=License CC-BY-NC-SA 4.0 International" "author=Plant Biology, The Noble Foundation, Ardmore, OK, US/Dennis Fine, Daniel Wherritt, and Lloyd Sumner" "instrument type=LC-ESI-TOF" "instrument=impact HD" "ionization=ESI" "ionization mode=negative" "ms level=MS2" "precursor m/z=471.3476" "isolation width=5" "collision gas=Nitrogen" "collision energy=10" "peak width=0.015" "date=2014-07-26 05:57:36+02:00" "column=Waters Acquity BEH C18 1.7um x 2.1 x 150 mm" "retention time=1355.4" "raw data file=C:\Data\Confirmed standards 24_July_2014\MSMS\Pygenic Acid A vial 61_1-B,2_01_491.d" "precursor type=[M-H]-" "mass accuracy=0.8147193281522068" "mass error=-3.8401599999815517E-4" "cas number=52213-27-1" "SMILES=C[C@H]1[C@@H]([C@@H]2[C@@](CC[C@@]3(C2=CC[C@H]4[C@]3(CC[C@@H]5[C@@]4(C[C@H]([C@H]([C@]5(C)C)O)O)C)C)C)(CC1)C(=O)O)C" "InChI=InChI=1S/C30H48O4/c1-17-10-13-30(25(33)34)15-14-28(6)19(23(30)18(17)2)8-9-22-27(5)16-20(31)24(32)26(3,4)21(27)11-12-29(22,28)7/h8,17-18,20-24,31-32H,9-16H2,1-7H3,(H,33,34)/t17-,18+,20-,21+,22-,23+,24-,27+,28-,29-,30+/m1/s1" "InChIKey=HFGSQOYIOKBQOW-RFMFWNHYSA-N" "molecular formula=C30H48O4" "total exact mass=472.355260016" "SMILES=CC1CCC2(CCC3(C(=CCC4C3(CCC5C4(CC(C(C5(C)C)O)O)C)C)C2C1C)C)C(=O)O"
Num Peaks: 6
 469 1.801802; 
 470 0.800801; 
 471 100.000000; 
 472 27.127127; 
 473 2.302302; 
 474 0.200200; 


Name: Pygenic acid A b
SYNON: $:00in-source
DB#: MetaboBASE0194
InChIKey: HFGSQOYIOKBQOW-RFMFWNHYSA-N
Precursor_type: [M-H]-
Spectrum_type: MS2
PrecursorMZ: 471.3476
Instrument_type: LC-ESI-TOF
Instrument: impact HD
Ion_mode: N
Collision_energy: 50
InChIKey: HFGSQOYIOKBQOW-RFMFWNHYSA-N
Formula: C30H48O4
MW: 472
ExactMass: 472.355260016
Comments: "license=License CC-BY-NC-SA 4.0 International" "author=Plant Biology, The Noble Foundation, Ardmore, OK, US/Dennis Fine, Daniel Wherritt, and Lloyd Sumner" "instrument type=LC-ESI-TOF" "instrument=impact HD" "ionization=ESI" "ionization mode=negative" "ms level=MS2" "precursor m/z=471.3476" "isolation width=5" "collision gas=Nitrogen" "collision energy=50" "peak width=0.018" "date=2014-07-26 05:57:36+02:00" "column=Waters Acquity BEH C18 1.7um x 2.1 x 150 mm" "retention time=1355.4" "raw data file=C:\Data\Confirmed standards 24_July_2014\MSMS\Pygenic Acid A vial 61_1-B,2_01_491.d" "precursor type=[M-H]-" "mass accuracy=0.8147193281522068" "mass error=-3.8401599999815517E-4" "cas number=52213-27-1" "SMILES=C[C@H]1[C@@H]([C@@H]2[C@@](CC[C@@]3(C2=CC[C@H]4[C@]3(CC[C@@H]5[C@@]4(C[C@H]([C@H]([C@]5(C)C)O)O)C)C)C)(CC1)C(=O)O)C" "InChI=InChI=1S/C30H48O4/c1-17-10-13-30(25(33)34)15-14-28(6)19(23(30)18(17)2)8-9-22-27(5)16-20(31)24(32)26(3,4)21(27)11-12-29(22,28)7/h8,17-18,20-24,31-32H,9-16H2,1-7H3,(H,33,34)/t17-,18+,20-,21+,22-,23+,24-,27+,28-,29-,30+/m1/s1" "InChIKey=HFGSQOYIOKBQOW-RFMFWNHYSA-N" "molecular formula=C30H48O4" "total exact mass=472.355260016" "SMILES=CC1CCC2(CCC3(C(=CCC4C3(CCC5C4(CC(C(C5(C)C)O)O)C)C)C2C1C)C)C(=O)O"
Num Peaks: 7
 407 1.601602; 
 423 3.603604; 
 424 1.701702; 
 425 0.900901; 
 471 100.000000; 
 472 29.129129; 
 473 2.202202; 


Name: Pygenic acid A b
SYNON: $:00in-source
DB#: MetaboBASE0195
InChIKey: HFGSQOYIOKBQOW-RFMFWNHYSA-N
Instrument_type: LC-ESI-TOF
Instrument: impact HD
Ion_mode: N
InChIKey: HFGSQOYIOKBQOW-RFMFWNHYSA-N
Formula: C30H48O4
MW: 472
ExactMass: 472.355260016
Comments: "license=License CC-BY-NC-SA 4.0 International" "author=Plant Biology, The Noble Foundation, Ardmore, OK, US/Dennis Fine, Daniel Wherritt, and Lloyd Sumner" "instrument type=LC-ESI-TOF" "instrument=impact HD" "ionization=ESI" "ionization mode=negative" "collision gas=Nitrogen" "peak width=0.029" "date=2013-09-05 10:54:44+02:00" "column=Waters Acquity BEH C18 1.7um x 2.1 x 150 mm" "retention time=1355.4" "raw data file=D:\Data\Confirmed Standards\Reinjection 2 uL\Pygenic acid A (vial 61).d" "cas number=52213-27-1" "SMILES=C[C@H]1[C@@H]([C@@H]2[C@@](CC[C@@]3(C2=CC[C@H]4[C@]3(CC[C@@H]5[C@@]4(C[C@H]([C@H]([C@]5(C)C)O)O)C)C)C)(CC1)C(=O)O)C" "InChI=InChI=1S/C30H48O4/c1-17-10-13-30(25(33)34)15-14-28(6)19(23(30)18(17)2)8-9-22-27(5)16-20(31)24(32)26(3,4)21(27)11-12-29(22,28)7/h8,17-18,20-24,31-32H,9-16H2,1-7H3,(H,33,34)/t17-,18+,20-,21+,22-,23+,24-,27+,28-,29-,30+/m1/s1" "InChIKey=HFGSQOYIOKBQOW-RFMFWNHYSA-N" "molecular formula=C30H48O4" "total exact mass=472.355260016" "SMILES=CC1CCC2(CCC3(C(=CCC4C3(CCC5C4(CC(C(C5(C)C)O)O)C)C)C2C1C)C)C(=O)O"
Num Peaks: 31
 112 1.501502; 
 174 1.301301; 
 248 1.201201; 
 265 2.702703; 
 469 1.801802; 
 471 100.000000; 
 472 29.029029; 
 473 4.704705; 
 529 1.201201; 
 539 26.726727; 
 540 8.408408; 
 541 1.601602; 
 567 1.401401; 
 601 1.801802; 
 607 9.609610; 
 608 3.303303; 
 669 1.801802; 
 675 5.905906; 
 676 2.302302; 
 737 1.401401; 
 743 3.403403; 
 744 1.101101; 
 805 1.301301; 
 811 1.801802; 
 879 1.001001; 
 943 10.010010; 
 944 6.106106; 
 945 2.002002; 
 965 2.702703; 
 966 2.002002; 
 1033 1.101101; 


Name: Pygenic acid A b
SYNON: $:00in-source
DB#: MetaboBASE0196
InChIKey: HFGSQOYIOKBQOW-RFMFWNHYSA-N
Precursor_type: [M-H]-
Spectrum_type: MS2
PrecursorMZ: 471.3479
Instrument_type: LC-ESI-TOF
Instrument: impact HD
Ion_mode: N
Collision_energy: 30
InChIKey: HFGSQOYIOKBQOW-RFMFWNHYSA-N
Formula: C30H48O4
MW: 472
ExactMass: 472.355260016
Comments: "license=License CC-BY-NC-SA 4.0 International" "author=Plant Biology, The Noble Foundation, Ardmore, OK, US/Dennis Fine, Daniel Wherritt, and Lloyd Sumner" "instrument type=LC-ESI-TOF" "instrument=impact HD" "ionization=ESI" "ionization mode=negative" "ms level=MS2" "precursor m/z=471.3479" "isolation width=5" "collision gas=Nitrogen" "collision energy=30" "peak width=0.015" "date=2014-07-26 05:57:36+02:00" "column=Waters Acquity BEH C18 1.7um x 2.1 x 150 mm" "retention time=1355.4" "raw data file=C:\Data\Confirmed standards 24_July_2014\MSMS\Pygenic Acid A vial 61_1-B,2_01_491.d" "precursor type=[M-H]-" "mass accuracy=0.1782462593269598" "mass error=-8.401600001661791E-5" "cas number=52213-27-1" "SMILES=C[C@H]1[C@@H]([C@@H]2[C@@](CC[C@@]3(C2=CC[C@H]4[C@]3(CC[C@@H]5[C@@]4(C[C@H]([C@H]([C@]5(C)C)O)O)C)C)C)(CC1)C(=O)O)C" "InChI=InChI=1S/C30H48O4/c1-17-10-13-30(25(33)34)15-14-28(6)19(23(30)18(17)2)8-9-22-27(5)16-20(31)24(32)26(3,4)21(27)11-12-29(22,28)7/h8,17-18,20-24,31-32H,9-16H2,1-7H3,(H,33,34)/t17-,18+,20-,21+,22-,23+,24-,27+,28-,29-,30+/m1/s1" "InChIKey=HFGSQOYIOKBQOW-RFMFWNHYSA-N" "molecular formula=C30H48O4" "total exact mass=472.355260016" "SMILES=CC1CCC2(CCC3(C(=CCC4C3(CCC5C4(CC(C(C5(C)C)O)O)C)C)C2C1C)C)C(=O)O"
Num Peaks: 9
 423 0.400400; 
 469 1.601602; 
 470 0.700701; 
 471 0.200200; 
 471 100.000000; 
 472 27.427427; 
 473 2.102102; 
 474 0.200200; 
 1410 0.200200; 


Name: Pygenic acid A b
SYNON: $:00in-source
DB#: MetaboBASE0197
InChIKey: HFGSQOYIOKBQOW-RFMFWNHYSA-N
Precursor_type: [M-H]-
Spectrum_type: MS2
PrecursorMZ: 471.3478
Instrument_type: LC-ESI-TOF
Instrument: impact HD
Ion_mode: N
Collision_energy: 40
InChIKey: HFGSQOYIOKBQOW-RFMFWNHYSA-N
Formula: C30H48O4
MW: 472
ExactMass: 472.355260016
Comments: "license=License CC-BY-NC-SA 4.0 International" "author=Plant Biology, The Noble Foundation, Ardmore, OK, US/Dennis Fine, Daniel Wherritt, and Lloyd Sumner" "instrument type=LC-ESI-TOF" "instrument=impact HD" "ionization=ESI" "ionization mode=negative" "ms level=MS2" "precursor m/z=471.3478" "isolation width=5" "collision gas=Nitrogen" "collision energy=40" "peak width=0.016" "date=2014-07-26 05:57:36+02:00" "column=Waters Acquity BEH C18 1.7um x 2.1 x 150 mm" "retention time=1355.4" "raw data file=C:\Data\Confirmed standards 24_July_2014\MSMS\Pygenic Acid A vial 61_1-B,2_01_491.d" "precursor type=[M-H]-" "mass accuracy=0.39040385887346" "mass error=-1.8401599999151586E-4" "cas number=52213-27-1" "SMILES=C[C@H]1[C@@H]([C@@H]2[C@@](CC[C@@]3(C2=CC[C@H]4[C@]3(CC[C@@H]5[C@@]4(C[C@H]([C@H]([C@]5(C)C)O)O)C)C)C)(CC1)C(=O)O)C" "InChI=InChI=1S/C30H48O4/c1-17-10-13-30(25(33)34)15-14-28(6)19(23(30)18(17)2)8-9-22-27(5)16-20(31)24(32)26(3,4)21(27)11-12-29(22,28)7/h8,17-18,20-24,31-32H,9-16H2,1-7H3,(H,33,34)/t17-,18+,20-,21+,22-,23+,24-,27+,28-,29-,30+/m1/s1" "InChIKey=HFGSQOYIOKBQOW-RFMFWNHYSA-N" "molecular formula=C30H48O4" "total exact mass=472.355260016" "SMILES=CC1CCC2(CCC3(C(=CCC4C3(CCC5C4(CC(C(C5(C)C)O)O)C)C)C2C1C)C)C(=O)O"
Num Peaks: 10
 407 0.400400; 
 423 1.501502; 
 424 0.400400; 
 425 0.300300; 
 469 0.700701; 
 470 0.400400; 
 471 100.000000; 
 472 28.428428; 
 473 1.801802; 
 1503 0.200200; 


Name: Pygenic acid A a
SYNON: $:00in-source
DB#: MetaboBASE0198
InChIKey: HFGSQOYIOKBQOW-RFMFWNHYSA-N
Instrument_type: LC-ESI-TOF
Instrument: impact HD
Ion_mode: N
InChIKey: HFGSQOYIOKBQOW-RFMFWNHYSA-N
Formula: C30H48O4
MW: 472
ExactMass: 472.355260016
Comments: "license=License CC-BY-NC-SA 4.0 International" "author=Plant Biology, The Noble Foundation, Ardmore, OK, US/Dennis Fine, Daniel Wherritt, and Lloyd Sumner" "instrument type=LC-ESI-TOF" "instrument=impact HD" "ionization=ESI" "ionization mode=negative" "collision gas=Nitrogen" "peak width=0.022" "date=2013-09-05 10:54:44+02:00" "column=Waters Acquity BEH C18 1.7um x 2.1 x 150 mm" "retention time=1371" "raw data file=D:\Data\Confirmed Standards\Reinjection 2 uL\Pygenic acid A (vial 61).d" "cas number=52213-27-1" "SMILES=C[C@H]1[C@@H]([C@@H]2[C@@](CC[C@@]3(C2=CC[C@H]4[C@]3(CC[C@@H]5[C@@]4(C[C@H]([C@H]([C@]5(C)C)O)O)C)C)C)(CC1)C(=O)O)C" "InChI=InChI=1S/C30H48O4/c1-17-10-13-30(25(33)34)15-14-28(6)19(23(30)18(17)2)8-9-22-27(5)16-20(31)24(32)26(3,4)21(27)11-12-29(22,28)7/h8,17-18,20-24,31-32H,9-16H2,1-7H3,(H,33,34)/t17-,18+,20-,21+,22-,23+,24-,27+,28-,29-,30+/m1/s1" "InChIKey=HFGSQOYIOKBQOW-RFMFWNHYSA-N" "molecular formula=C30H48O4" "total exact mass=472.355260016" "SMILES=CC1CCC2(CCC3(C(=CCC4C3(CCC5C4(CC(C(C5(C)C)O)O)C)C)C2C1C)C)C(=O)O"
Num Peaks: 48
 112 5.105105; 
 129 1.201201; 
 130 1.701702; 
 136 1.201201; 
 146 1.501502; 
 151 2.002002; 
 157 2.802803; 
 161 1.501502; 
 164 1.601602; 
 224 2.202202; 
 242 1.601602; 
 242 1.301301; 
 248 3.603604; 
 254 2.002002; 
 269 1.601602; 
 271 2.502503; 
 295 1.501502; 
 297 1.201201; 
 330 1.901902; 
 342 2.002002; 
 346 1.501502; 
 352 1.701702; 
 354 1.501502; 
 384 1.601602; 
 388 1.301301; 
 428 1.701702; 
 454 1.401401; 
 468 1.701702; 
 471 100.000000; 
 472 31.931932; 
 473 5.605606; 
 529 1.701702; 
 539 37.837838; 
 540 11.511512; 
 541 2.502503; 
 567 2.302302; 
 601 3.503504; 
 607 17.517518; 
 608 4.904905; 
 611 2.202202; 
 669 3.603604; 
 675 12.812813; 
 676 5.005005; 
 737 2.702703; 
 743 7.507508; 
 744 2.702703; 
 805 3.203203; 
 811 4.304304; 


Name: Pygenic acid A a
SYNON: $:00in-source
DB#: MetaboBASE0199
InChIKey: HFGSQOYIOKBQOW-RFMFWNHYSA-N
Precursor_type: [M-H]-
Spectrum_type: MS2
PrecursorMZ: 471.3476
Instrument_type: LC-ESI-TOF
Instrument: impact HD
Ion_mode: N
Collision_energy: 10
InChIKey: HFGSQOYIOKBQOW-RFMFWNHYSA-N
Formula: C30H48O4
MW: 472
ExactMass: 472.355260016
Comments: "license=License CC-BY-NC-SA 4.0 International" "author=Plant Biology, The Noble Foundation, Ardmore, OK, US/Dennis Fine, Daniel Wherritt, and Lloyd Sumner" "instrument type=LC-ESI-TOF" "instrument=impact HD" "ionization=ESI" "ionization mode=negative" "ms level=MS2" "precursor m/z=471.3476" "isolation width=5" "collision gas=Nitrogen" "collision energy=10" "peak width=0.015" "date=2014-07-26 05:57:36+02:00" "column=Waters Acquity BEH C18 1.7um x 2.1 x 150 mm" "retention time=1371" "raw data file=C:\Data\Confirmed standards 24_July_2014\MSMS\Pygenic Acid A vial 61_1-B,2_01_491.d" "precursor type=[M-H]-" "mass accuracy=0.8147193281522068" "mass error=-3.8401599999815517E-4" "cas number=52213-27-1" "SMILES=C[C@H]1[C@@H]([C@@H]2[C@@](CC[C@@]3(C2=CC[C@H]4[C@]3(CC[C@@H]5[C@@]4(C[C@H]([C@H]([C@]5(C)C)O)O)C)C)C)(CC1)C(=O)O)C" "InChI=InChI=1S/C30H48O4/c1-17-10-13-30(25(33)34)15-14-28(6)19(23(30)18(17)2)8-9-22-27(5)16-20(31)24(32)26(3,4)21(27)11-12-29(22,28)7/h8,17-18,20-24,31-32H,9-16H2,1-7H3,(H,33,34)/t17-,18+,20-,21+,22-,23+,24-,27+,28-,29-,30+/m1/s1" "InChIKey=HFGSQOYIOKBQOW-RFMFWNHYSA-N" "molecular formula=C30H48O4" "total exact mass=472.355260016" "SMILES=CC1CCC2(CCC3(C(=CCC4C3(CCC5C4(CC(C(C5(C)C)O)O)C)C)C2C1C)C)C(=O)O"
Num Peaks: 6
 469 1.801802; 
 470 0.800801; 
 471 100.000000; 
 472 27.127127; 
 473 2.302302; 
 474 0.200200; 


Name: Pygenic acid A a
SYNON: $:00in-source
DB#: MetaboBASE0200
InChIKey: HFGSQOYIOKBQOW-RFMFWNHYSA-N
Precursor_type: [M-H]-
Spectrum_type: MS2
PrecursorMZ: 471.3475
Instrument_type: LC-ESI-TOF
Instrument: impact HD
Ion_mode: N
Collision_energy: 20
InChIKey: HFGSQOYIOKBQOW-RFMFWNHYSA-N
Formula: C30H48O4
MW: 472
ExactMass: 472.355260016
Comments: "license=License CC-BY-NC-SA 4.0 International" "author=Plant Biology, The Noble Foundation, Ardmore, OK, US/Dennis Fine, Daniel Wherritt, and Lloyd Sumner" "instrument type=LC-ESI-TOF" "instrument=impact HD" "ionization=ESI" "ionization mode=negative" "ms level=MS2" "precursor m/z=471.3475" "isolation width=5" "collision gas=Nitrogen" "collision energy=20" "peak width=0.015" "date=2014-07-26 05:57:36+02:00" "column=Waters Acquity BEH C18 1.7um x 2.1 x 150 mm" "retention time=1371" "raw data file=C:\Data\Confirmed standards 24_July_2014\MSMS\Pygenic Acid A vial 61_1-B,2_01_491.d" "precursor type=[M-H]-" "mass accuracy=1.0268771977639704" "mass error=-4.840159999730531E-4" "cas number=52213-27-1" "SMILES=C[C@H]1[C@@H]([C@@H]2[C@@](CC[C@@]3(C2=CC[C@H]4[C@]3(CC[C@@H]5[C@@]4(C[C@H]([C@H]([C@]5(C)C)O)O)C)C)C)(CC1)C(=O)O)C" "InChI=InChI=1S/C30H48O4/c1-17-10-13-30(25(33)34)15-14-28(6)19(23(30)18(17)2)8-9-22-27(5)16-20(31)24(32)26(3,4)21(27)11-12-29(22,28)7/h8,17-18,20-24,31-32H,9-16H2,1-7H3,(H,33,34)/t17-,18+,20-,21+,22-,23+,24-,27+,28-,29-,30+/m1/s1" "InChIKey=HFGSQOYIOKBQOW-RFMFWNHYSA-N" "molecular formula=C30H48O4" "total exact mass=472.355260016" "SMILES=CC1CCC2(CCC3(C(=CCC4C3(CCC5C4(CC(C(C5(C)C)O)O)C)C)C2C1C)C)C(=O)O"
Num Peaks: 9
 469 2.002002; 
 470 0.700701; 
 471 100.000000; 
 471 0.200200; 
 472 26.726727; 
 473 2.002002; 
 474 0.200200; 
 1468 0.200200; 
 1482 0.200200; 


Name: Pygenic acid A a
SYNON: $:00in-source
DB#: MetaboBASE0201
InChIKey: HFGSQOYIOKBQOW-RFMFWNHYSA-N
Precursor_type: [M-H]-
Spectrum_type: MS2
PrecursorMZ: 471.3476
Instrument_type: LC-ESI-TOF
Instrument: impact HD
Ion_mode: N
Collision_energy: 50
InChIKey: HFGSQOYIOKBQOW-RFMFWNHYSA-N
Formula: C30H48O4
MW: 472
ExactMass: 472.355260016
Comments: "license=License CC-BY-NC-SA 4.0 International" "author=Plant Biology, The Noble Foundation, Ardmore, OK, US/Dennis Fine, Daniel Wherritt, and Lloyd Sumner" "instrument type=LC-ESI-TOF" "instrument=impact HD" "ionization=ESI" "ionization mode=negative" "ms level=MS2" "precursor m/z=471.3476" "isolation width=5" "collision gas=Nitrogen" "collision energy=50" "peak width=0.018" "date=2014-07-26 05:57:36+02:00" "column=Waters Acquity BEH C18 1.7um x 2.1 x 150 mm" "retention time=1371" "raw data file=C:\Data\Confirmed standards 24_July_2014\MSMS\Pygenic Acid A vial 61_1-B,2_01_491.d" "precursor type=[M-H]-" "mass accuracy=0.8147193281522068" "mass error=-3.8401599999815517E-4" "cas number=52213-27-1" "SMILES=C[C@H]1[C@@H]([C@@H]2[C@@](CC[C@@]3(C2=CC[C@H]4[C@]3(CC[C@@H]5[C@@]4(C[C@H]([C@H]([C@]5(C)C)O)O)C)C)C)(CC1)C(=O)O)C" "InChI=InChI=1S/C30H48O4/c1-17-10-13-30(25(33)34)15-14-28(6)19(23(30)18(17)2)8-9-22-27(5)16-20(31)24(32)26(3,4)21(27)11-12-29(22,28)7/h8,17-18,20-24,31-32H,9-16H2,1-7H3,(H,33,34)/t17-,18+,20-,21+,22-,23+,24-,27+,28-,29-,30+/m1/s1" "InChIKey=HFGSQOYIOKBQOW-RFMFWNHYSA-N" "molecular formula=C30H48O4" "total exact mass=472.355260016" "SMILES=CC1CCC2(CCC3(C(=CCC4C3(CCC5C4(CC(C(C5(C)C)O)O)C)C)C2C1C)C)C(=O)O"
Num Peaks: 7
 407 1.601602; 
 423 3.603604; 
 424 1.701702; 
 425 0.900901; 
 471 100.000000; 
 472 29.129129; 
 473 2.202202; 


Name: Pygenic acid A a
SYNON: $:00in-source
DB#: MetaboBASE0202
InChIKey: HFGSQOYIOKBQOW-RFMFWNHYSA-N
Precursor_type: [M-H]-
Spectrum_type: MS2
PrecursorMZ: 471.3479
Instrument_type: LC-ESI-TOF
Instrument: impact HD
Ion_mode: N
Collision_energy: 30
InChIKey: HFGSQOYIOKBQOW-RFMFWNHYSA-N
Formula: C30H48O4
MW: 472
ExactMass: 472.355260016
Comments: "license=License CC-BY-NC-SA 4.0 International" "author=Plant Biology, The Noble Foundation, Ardmore, OK, US/Dennis Fine, Daniel Wherritt, and Lloyd Sumner" "instrument type=LC-ESI-TOF" "instrument=impact HD" "ionization=ESI" "ionization mode=negative" "ms level=MS2" "precursor m/z=471.3479" "isolation width=5" "collision gas=Nitrogen" "collision energy=30" "peak width=0.015" "date=2014-07-26 05:57:36+02:00" "column=Waters Acquity BEH C18 1.7um x 2.1 x 150 mm" "retention time=1371" "raw data file=C:\Data\Confirmed standards 24_July_2014\MSMS\Pygenic Acid A vial 61_1-B,2_01_491.d" "precursor type=[M-H]-" "mass accuracy=0.1782462593269598" "mass error=-8.401600001661791E-5" "cas number=52213-27-1" "SMILES=C[C@H]1[C@@H]([C@@H]2[C@@](CC[C@@]3(C2=CC[C@H]4[C@]3(CC[C@@H]5[C@@]4(C[C@H]([C@H]([C@]5(C)C)O)O)C)C)C)(CC1)C(=O)O)C" "InChI=InChI=1S/C30H48O4/c1-17-10-13-30(25(33)34)15-14-28(6)19(23(30)18(17)2)8-9-22-27(5)16-20(31)24(32)26(3,4)21(27)11-12-29(22,28)7/h8,17-18,20-24,31-32H,9-16H2,1-7H3,(H,33,34)/t17-,18+,20-,21+,22-,23+,24-,27+,28-,29-,30+/m1/s1" "InChIKey=HFGSQOYIOKBQOW-RFMFWNHYSA-N" "molecular formula=C30H48O4" "total exact mass=472.355260016" "SMILES=CC1CCC2(CCC3(C(=CCC4C3(CCC5C4(CC(C(C5(C)C)O)O)C)C)C2C1C)C)C(=O)O"
Num Peaks: 9
 423 0.400400; 
 469 1.601602; 
 470 0.700701; 
 471 0.200200; 
 471 100.000000; 
 472 27.427427; 
 473 2.102102; 
 474 0.200200; 
 1410 0.200200; 


Name: Pygenic acid A a
SYNON: $:00in-source
DB#: MetaboBASE0203
InChIKey: HFGSQOYIOKBQOW-RFMFWNHYSA-N
Precursor_type: [M-H]-
Spectrum_type: MS2
PrecursorMZ: 471.3478
Instrument_type: LC-ESI-TOF
Instrument: impact HD
Ion_mode: N
Collision_energy: 40
InChIKey: HFGSQOYIOKBQOW-RFMFWNHYSA-N
Formula: C30H48O4
MW: 472
ExactMass: 472.355260016
Comments: "license=License CC-BY-NC-SA 4.0 International" "author=Plant Biology, The Noble Foundation, Ardmore, OK, US/Dennis Fine, Daniel Wherritt, and Lloyd Sumner" "instrument type=LC-ESI-TOF" "instrument=impact HD" "ionization=ESI" "ionization mode=negative" "ms level=MS2" "precursor m/z=471.3478" "isolation width=5" "collision gas=Nitrogen" "collision energy=40" "peak width=0.016" "date=2014-07-26 05:57:36+02:00" "column=Waters Acquity BEH C18 1.7um x 2.1 x 150 mm" "retention time=1371" "raw data file=C:\Data\Confirmed standards 24_July_2014\MSMS\Pygenic Acid A vial 61_1-B,2_01_491.d" "precursor type=[M-H]-" "mass accuracy=0.39040385887346" "mass error=-1.8401599999151586E-4" "cas number=52213-27-1" "SMILES=C[C@H]1[C@@H]([C@@H]2[C@@](CC[C@@]3(C2=CC[C@H]4[C@]3(CC[C@@H]5[C@@]4(C[C@H]([C@H]([C@]5(C)C)O)O)C)C)C)(CC1)C(=O)O)C" "InChI=InChI=1S/C30H48O4/c1-17-10-13-30(25(33)34)15-14-28(6)19(23(30)18(17)2)8-9-22-27(5)16-20(31)24(32)26(3,4)21(27)11-12-29(22,28)7/h8,17-18,20-24,31-32H,9-16H2,1-7H3,(H,33,34)/t17-,18+,20-,21+,22-,23+,24-,27+,28-,29-,30+/m1/s1" "InChIKey=HFGSQOYIOKBQOW-RFMFWNHYSA-N" "molecular formula=C30H48O4" "total exact mass=472.355260016" "SMILES=CC1CCC2(CCC3(C(=CCC4C3(CCC5C4(CC(C(C5(C)C)O)O)C)C)C2C1C)C)C(=O)O"
Num Peaks: 10
 407 0.400400; 
 423 1.501502; 
 424 0.400400; 
 425 0.300300; 
 469 0.700701; 
 470 0.400400; 
 471 100.000000; 
 472 28.428428; 
 473 1.801802; 
 1503 0.200200; 


Name: Quercitrin
SYNON: $:00in-source
DB#: MetaboBASE0204
InChIKey: OXGUCUVFOIWWQJ-HQBVPOQASA-N
Spectrum_type: MS2
PrecursorMZ: 445.0826
Instrument_type: LC-ESI-TOF
Instrument: impact HD
Ion_mode: N
Collision_energy: 20
InChIKey: OXGUCUVFOIWWQJ-HQBVPOQASA-N
Formula: C21H20O11
MW: 448
ExactMass: 448.10056146
Comments: "license=License CC-BY-NC-SA 4.0 International" "author=Plant Biology, The Noble Foundation, Ardmore, OK, US/Dennis Fine, Daniel Wherritt, and Lloyd Sumner" "instrument type=LC-ESI-TOF" "instrument=impact HD" "ionization=ESI" "ionization mode=negative" "ms level=MS2" "precursor m/z=445.0826" "isolation width=5" "collision gas=Nitrogen" "collision energy=20" "peak width=0.013" "date=2013-11-16 03:50:06+01:00" "column=Waters Acquity BEH C18 1.7um x 2.1 x 150 mm" "retention time=366.6" "raw data file=C:\Data\Confirmed Standards\Confirmed stds MSMS 14Nov13\Quercitrin MSMS (vial 53).d" "cas number=522-12-3" "SMILES=C[C@H]1[C@@H]([C@H]([C@H]([C@@H](O1)Oc2c(=O)c3c(cc(cc3oc2c4ccc(c(c4)O)O)O)O)O)O)O" "InChI=InChI=1S/C21H20O11/c1-7-15(26)17(28)18(29)21(30-7)32-20-16(27)14-12(25)5-9(22)6-13(14)31-19(20)8-2-3-10(23)11(24)4-8/h2-7,15,17-18,21-26,28-29H,1H3/t7-,15-,17+,18+,21-/m0/s1" "InChIKey=OXGUCUVFOIWWQJ-HQBVPOQASA-N" "molecular formula=C21H20O11" "total exact mass=448.10056146" "SMILES=CC1C(C(C(C(O1)OC2=C(OC3=CC(=CC(=C3C2=O)O)O)C4=CC(=C(C=C4)O)O)O)O)O" "InChI=InChI=1S/C21H20O11/c1-7-15(26)17(28)18(29)21(30-7)32-20-16(27)14-12(25)5-9(22)6-13(14)31-19(20)8-2-3-10(23)11(24)4-8/h2-7,15,17-18,21-26,28-29H,1H3" "InChIKey=OXGUCUVFOIWWQJ-UHFFFAOYSA-N"
Num Peaks: 11
 270 3.803804; 
 271 2.602603; 
 298 16.516517; 
 299 28.428428; 
 300 46.846847; 
 301 49.449449; 
 302 2.402402; 
 445 63.363363; 
 446 8.608609; 
 447 100.000000; 
 448 9.809810; 


Name: Quercitrin
SYNON: $:00in-source
DB#: MetaboBASE0205
InChIKey: OXGUCUVFOIWWQJ-HQBVPOQASA-N
Instrument_type: LC-ESI-TOF
Instrument: impact HD
Ion_mode: N
Collision_energy: 10
InChIKey: OXGUCUVFOIWWQJ-HQBVPOQASA-N
Formula: C21H20O11
MW: 448
ExactMass: 448.10056146
Comments: "license=License CC-BY-NC-SA 4.0 International" "author=Plant Biology, The Noble Foundation, Ardmore, OK, US/Dennis Fine, Daniel Wherritt, and Lloyd Sumner" "instrument type=LC-ESI-TOF" "instrument=impact HD" "ionization=ESI" "ionization mode=negative" "collision gas=Nitrogen" "collision energy=10" "peak width=0.026" "date=2013-09-05 05:28:37+02:00" "column=Waters Acquity BEH C18 1.7um x 2.1 x 150 mm" "retention time=366.6" "raw data file=C:\Data\Confirmed Standards\Reinjection 2 uL\Quercitrin (vial 53).d" "cas number=522-12-3" "SMILES=C[C@H]1[C@@H]([C@H]([C@H]([C@@H](O1)Oc2c(=O)c3c(cc(cc3oc2c4ccc(c(c4)O)O)O)O)O)O)O" "InChI=InChI=1S/C21H20O11/c1-7-15(26)17(28)18(29)21(30-7)32-20-16(27)14-12(25)5-9(22)6-13(14)31-19(20)8-2-3-10(23)11(24)4-8/h2-7,15,17-18,21-26,28-29H,1H3/t7-,15-,17+,18+,21-/m0/s1" "InChIKey=OXGUCUVFOIWWQJ-HQBVPOQASA-N" "molecular formula=C21H20O11" "total exact mass=448.10056146" "SMILES=CC1C(C(C(C(O1)OC2=C(OC3=CC(=CC(=C3C2=O)O)O)C4=CC(=C(C=C4)O)O)O)O)O" "InChI=InChI=1S/C21H20O11/c1-7-15(26)17(28)18(29)21(30-7)32-20-16(27)14-12(25)5-9(22)6-13(14)31-19(20)8-2-3-10(23)11(24)4-8/h2-7,15,17-18,21-26,28-29H,1H3" "InChIKey=OXGUCUVFOIWWQJ-UHFFFAOYSA-N"
Num Peaks: 18
 299 1.801802; 
 300 1.201201; 
 301 1.201201; 
 445 100.000000; 
 446 20.220220; 
 447 88.788789; 
 448 15.115115; 
 449 2.502503; 
 463 7.807808; 
 464 1.501502; 
 891 2.702703; 
 892 1.201201; 
 893 16.516517; 
 894 7.007007; 
 895 11.511512; 
 896 4.104104; 
 897 1.201201; 
 1341 1.001001; 


Name: Quercitrin
SYNON: $:00in-source
DB#: MetaboBASE0206
InChIKey: OXGUCUVFOIWWQJ-HQBVPOQASA-N
Spectrum_type: MS2
PrecursorMZ: 445.1
Instrument_type: LC-ESI-TOF
Instrument: impact HD
Ion_mode: N
Collision_energy: 40
InChIKey: OXGUCUVFOIWWQJ-HQBVPOQASA-N
Formula: C21H20O11
MW: 448
ExactMass: 448.10056146
Comments: "license=License CC-BY-NC-SA 4.0 International" "author=Plant Biology, The Noble Foundation, Ardmore, OK, US/Dennis Fine, Daniel Wherritt, and Lloyd Sumner" "instrument type=LC-ESI-TOF" "instrument=impact HD" "ionization=ESI" "ionization mode=negative" "ms level=MS2" "precursor m/z=445.1" "isolation width=5" "collision gas=Nitrogen" "collision energy=40" "peak width=0.015" "date=2013-11-16 03:50:06+01:00" "column=Waters Acquity BEH C18 1.7um x 2.1 x 150 mm" "retention time=366.6" "raw data file=C:\Data\Confirmed Standards\Confirmed stds MSMS 14Nov13\Quercitrin MSMS (vial 53).d" "cas number=522-12-3" "SMILES=C[C@H]1[C@@H]([C@H]([C@H]([C@@H](O1)Oc2c(=O)c3c(cc(cc3oc2c4ccc(c(c4)O)O)O)O)O)O)O" "InChI=InChI=1S/C21H20O11/c1-7-15(26)17(28)18(29)21(30-7)32-20-16(27)14-12(25)5-9(22)6-13(14)31-19(20)8-2-3-10(23)11(24)4-8/h2-7,15,17-18,21-26,28-29H,1H3/t7-,15-,17+,18+,21-/m0/s1" "InChIKey=OXGUCUVFOIWWQJ-HQBVPOQASA-N" "molecular formula=C21H20O11" "total exact mass=448.10056146" "SMILES=CC1C(C(C(C(O1)OC2=C(OC3=CC(=CC(=C3C2=O)O)O)C4=CC(=C(C=C4)O)O)O)O)O" "InChI=InChI=1S/C21H20O11/c1-7-15(26)17(28)18(29)21(30-7)32-20-16(27)14-12(25)5-9(22)6-13(14)31-19(20)8-2-3-10(23)11(24)4-8/h2-7,15,17-18,21-26,28-29H,1H3" "InChIKey=OXGUCUVFOIWWQJ-UHFFFAOYSA-N"
Num Peaks: 18
 151 4.404404; 
 179 2.002002; 
 227 2.102102; 
 241 11.811812; 
 242 15.915916; 
 243 8.508509; 
 245 15.015015; 
 255 19.019019; 
 270 39.339339; 
 271 74.374374; 
 272 7.607608; 
 273 2.902903; 
 283 3.403403; 
 298 4.604605; 
 299 10.210210; 
 300 100.000000; 
 301 35.035035; 
 302 2.102102; 


Name: Quercitrin
SYNON: $:00in-source
DB#: MetaboBASE0207
InChIKey: OXGUCUVFOIWWQJ-HQBVPOQASA-N
Spectrum_type: MS2
PrecursorMZ: 445.1
Instrument_type: LC-ESI-TOF
Instrument: impact HD
Ion_mode: N
Collision_energy: 50
InChIKey: OXGUCUVFOIWWQJ-HQBVPOQASA-N
Formula: C21H20O11
MW: 448
ExactMass: 448.10056146
Comments: "license=License CC-BY-NC-SA 4.0 International" "author=Plant Biology, The Noble Foundation, Ardmore, OK, US/Dennis Fine, Daniel Wherritt, and Lloyd Sumner" "instrument type=LC-ESI-TOF" "instrument=impact HD" "ionization=ESI" "ionization mode=negative" "ms level=MS2" "precursor m/z=445.1" "isolation width=5" "collision gas=Nitrogen" "collision energy=50" "peak width=0.016" "date=2013-11-16 03:50:06+01:00" "column=Waters Acquity BEH C18 1.7um x 2.1 x 150 mm" "retention time=366.6" "raw data file=C:\Data\Confirmed Standards\Confirmed stds MSMS 14Nov13\Quercitrin MSMS (vial 53).d" "cas number=522-12-3" "SMILES=C[C@H]1[C@@H]([C@H]([C@H]([C@@H](O1)Oc2c(=O)c3c(cc(cc3oc2c4ccc(c(c4)O)O)O)O)O)O)O" "InChI=InChI=1S/C21H20O11/c1-7-15(26)17(28)18(29)21(30-7)32-20-16(27)14-12(25)5-9(22)6-13(14)31-19(20)8-2-3-10(23)11(24)4-8/h2-7,15,17-18,21-26,28-29H,1H3/t7-,15-,17+,18+,21-/m0/s1" "InChIKey=OXGUCUVFOIWWQJ-HQBVPOQASA-N" "molecular formula=C21H20O11" "total exact mass=448.10056146" "SMILES=CC1C(C(C(C(O1)OC2=C(OC3=CC(=CC(=C3C2=O)O)O)C4=CC(=C(C=C4)O)O)O)O)O" "InChI=InChI=1S/C21H20O11/c1-7-15(26)17(28)18(29)21(30-7)32-20-16(27)14-12(25)5-9(22)6-13(14)31-19(20)8-2-3-10(23)11(24)4-8/h2-7,15,17-18,21-26,28-29H,1H3" "InChIKey=OXGUCUVFOIWWQJ-UHFFFAOYSA-N"
Num Peaks: 17
 151 5.405405; 
 214 3.503504; 
 227 6.106106; 
 241 43.243243; 
 242 19.619620; 
 243 21.421421; 
 244 3.103103; 
 245 13.813814; 
 254 2.202202; 
 255 32.732733; 
 256 2.402402; 
 270 9.409409; 
 271 100.000000; 
 272 7.907908; 
 299 3.503504; 
 300 22.822823; 
 301 5.705706; 


Name: Quercitrin
SYNON: $:00in-source
DB#: MetaboBASE0208
InChIKey: OXGUCUVFOIWWQJ-HQBVPOQASA-N
Spectrum_type: MS2
PrecursorMZ: 445.1
Instrument_type: LC-ESI-TOF
Instrument: impact HD
Ion_mode: N
Collision_energy: 60
InChIKey: OXGUCUVFOIWWQJ-HQBVPOQASA-N
Formula: C21H20O11
MW: 448
ExactMass: 448.10056146
Comments: "license=License CC-BY-NC-SA 4.0 International" "author=Plant Biology, The Noble Foundation, Ardmore, OK, US/Dennis Fine, Daniel Wherritt, and Lloyd Sumner" "instrument type=LC-ESI-TOF" "instrument=impact HD" "ionization=ESI" "ionization mode=negative" "ms level=MS2" "precursor m/z=445.1" "isolation width=5" "collision gas=Nitrogen" "collision energy=60" "peak width=0.017" "date=2013-11-16 03:50:06+01:00" "column=Waters Acquity BEH C18 1.7um x 2.1 x 150 mm" "retention time=366.6" "raw data file=C:\Data\Confirmed Standards\Confirmed stds MSMS 14Nov13\Quercitrin MSMS (vial 53).d" "cas number=522-12-3" "SMILES=C[C@H]1[C@@H]([C@H]([C@H]([C@@H](O1)Oc2c(=O)c3c(cc(cc3oc2c4ccc(c(c4)O)O)O)O)O)O)O" "InChI=InChI=1S/C21H20O11/c1-7-15(26)17(28)18(29)21(30-7)32-20-16(27)14-12(25)5-9(22)6-13(14)31-19(20)8-2-3-10(23)11(24)4-8/h2-7,15,17-18,21-26,28-29H,1H3/t7-,15-,17+,18+,21-/m0/s1" "InChIKey=OXGUCUVFOIWWQJ-HQBVPOQASA-N" "molecular formula=C21H20O11" "total exact mass=448.10056146" "SMILES=CC1C(C(C(C(O1)OC2=C(OC3=CC(=CC(=C3C2=O)O)O)C4=CC(=C(C=C4)O)O)O)O)O" "InChI=InChI=1S/C21H20O11/c1-7-15(26)17(28)18(29)21(30-7)32-20-16(27)14-12(25)5-9(22)6-13(14)31-19(20)8-2-3-10(23)11(24)4-8/h2-7,15,17-18,21-26,28-29H,1H3" "InChIKey=OXGUCUVFOIWWQJ-UHFFFAOYSA-N"
Num Peaks: 21
 109 3.503504; 
 121 2.902903; 
 148 2.302302; 
 151 3.703704; 
 186 2.402402; 
 199 2.102102; 
 214 2.402402; 
 215 3.103103; 
 226 4.104104; 
 227 11.611612; 
 241 83.783784; 
 242 17.017017; 
 243 36.736737; 
 244 2.802803; 
 245 6.106106; 
 255 35.135135; 
 256 2.002002; 
 271 100.000000; 
 272 6.906907; 
 299 2.802803; 
 300 4.304304; 


Name: Isohumulone
SYNON: $:00in-source
DB#: MetaboBASE0209
InChIKey: QARXXMMQVDCYGZ-UHFFFAOYSA-N
Instrument_type: LC-ESI-TOF
Instrument: impact HD
Ion_mode: N
Collision_energy: 10
InChIKey: QARXXMMQVDCYGZ-UHFFFAOYSA-N
Formula: C21H30O5
MW: 362
ExactMass: 362.20932406
Comments: "license=License CC-BY-NC-SA 4.0 International" "author=Plant Biology, The Noble Foundation, Ardmore, OK, US/Dennis Fine, Daniel Wherritt, and Lloyd Sumner" "instrument type=LC-ESI-TOF" "instrument=impact HD" "ionization=ESI" "ionization mode=negative" "collision gas=Nitrogen" "collision energy=10" "peak width=0.025" "date=2013-09-05 00:43:18+02:00" "column=Waters Acquity BEH C18 1.7um x 2.1 x 150 mm" "retention time=398.4" "raw data file=C:\Data\Confirmed Standards\Reinjection 2 uL\Isohumulone  (vial 46).d" "cas number=25522-96-7" "SMILES=CC(C)CC(=O)C1=C(C(C(C1=O)CC=C(C)C)(C(=O)CC=C(C)C)O)O" "InChI=InChI=1S/C21H30O5/c1-12(2)7-9-15-19(24)18(16(22)11-14(5)6)20(25)21(15,26)17(23)10-8-13(3)4/h7-8,14-15,25-26H,9-11H2,1-6H3" "InChIKey=QARXXMMQVDCYGZ-UHFFFAOYSA-N" "molecular formula=C21H30O5" "total exact mass=362.20932406" "SMILES=CC(C)CC(=O)C1=C(C(C(C1=O)CC=C(C)C)(C(=O)CC=C(C)C)O)O"
Num Peaks: 28
 146 1.201201; 
 181 1.101101; 
 183 1.001001; 
 190 1.601602; 
 239 2.202202; 
 242 12.412412; 
 243 1.101101; 
 248 17.617618; 
 283 0.900901; 
 297 1.501502; 
 312 1.501502; 
 316 1.901902; 
 341 2.402402; 
 342 1.001001; 
 347 1.801802; 
 352 11.111111; 
 361 100.000000; 
 362 26.526527; 
 378 2.102102; 
 420 1.501502; 
 429 8.108108; 
 482 0.900901; 
 557 1.801802; 
 722 0.900901; 
 734 0.900901; 
 818 1.201201; 
 900 1.001001; 
 1114 0.900901; 


Name: Isoxanthohumol
SYNON: $:00in-source
DB#: MetaboBASE0210
InChIKey: YKGCBLWILMDSAV-UHFFFAOYSA-N
Precursor_type: [M-H]-
Spectrum_type: MS2
PrecursorMZ: 353.1438
Instrument_type: LC-ESI-TOF
Instrument: impact HD
Ion_mode: N
Collision_energy: 10
InChIKey: YKGCBLWILMDSAV-UHFFFAOYSA-N
Formula: C21H22O5
MW: 354
ExactMass: 354.146723804
Comments: "license=License CC-BY-NC-SA 4.0 International" "author=Plant Biology, The Noble Foundation, Ardmore, OK, US/Dennis Fine, Daniel Wherritt, and Lloyd Sumner" "instrument type=LC-ESI-TOF" "instrument=impact HD" "ionization=ESI" "ionization mode=negative" "ms level=MS2" "precursor m/z=353.1438" "isolation width=5" "collision gas=Nitrogen" "collision energy=10" "peak width=0.011" "date=2013-11-16 03:09:12+01:00" "column=Waters Acquity BEH C18 1.7um x 2.1 x 150 mm" "retention time=823.8" "raw data file=C:\Data\Confirmed Standards\Confirmed stds MSMS 14Nov13\Isoxanthohumol MSMS v51.d" "precursor type=[M-H]-" "mass accuracy=12.324146707413423" "mass error=0.004352196000013464" "cas number=521-48-2" "SMILES=CC(=CCc1c(cc(c2c1OC(CC2=O)c3ccc(cc3)O)OC)O)C" "InChI=InChI=1S/C21H22O5/c1-12(2)4-9-15-16(23)10-19(25-3)20-17(24)11-18(26-21(15)20)13-5-7-14(22)8-6-13/h4-8,10,18,22-23H,9,11H2,1-3H3" "InChIKey=YKGCBLWILMDSAV-UHFFFAOYSA-N" "molecular formula=C21H22O5" "total exact mass=354.146723804" "SMILES=CC(=CCC1=C(C=C(C2=C1OC(CC2=O)C3=CC=C(C=C3)O)OC)O)C"
Num Peaks: 3
 233 6.406406; 
 353 100.000000; 
 354 11.611612; 


Name: Isoxanthohumol
SYNON: $:00in-source
DB#: MetaboBASE0211
InChIKey: YKGCBLWILMDSAV-UHFFFAOYSA-N
Instrument_type: LC-ESI-TOF
Instrument: impact HD
Ion_mode: N
Collision_energy: 10
InChIKey: YKGCBLWILMDSAV-UHFFFAOYSA-N
Formula: C21H22O5
MW: 354
ExactMass: 354.146723804
Comments: "license=License CC-BY-NC-SA 4.0 International" "author=Plant Biology, The Noble Foundation, Ardmore, OK, US/Dennis Fine, Daniel Wherritt, and Lloyd Sumner" "instrument type=LC-ESI-TOF" "instrument=impact HD" "ionization=ESI" "ionization mode=negative" "collision gas=Nitrogen" "collision energy=10" "peak width=0.025" "date=2013-09-05 04:07:06+02:00" "column=Waters Acquity BEH C18 1.7um x 2.1 x 150 mm" "retention time=823.8" "raw data file=C:\Data\Confirmed Standards\Reinjection 2 uL\Isoxanthohumol (vial 51).d" "cas number=521-48-2" "SMILES=CC(=CCc1c(cc(c2c1OC(CC2=O)c3ccc(cc3)O)OC)O)C" "InChI=InChI=1S/C21H22O5/c1-12(2)4-9-15-16(23)10-19(25-3)20-17(24)11-18(26-21(15)20)13-5-7-14(22)8-6-13/h4-8,10,18,22-23H,9,11H2,1-3H3" "InChIKey=YKGCBLWILMDSAV-UHFFFAOYSA-N" "molecular formula=C21H22O5" "total exact mass=354.146723804" "SMILES=CC(=CCC1=C(C=C(C2=C1OC(CC2=O)C3=CC=C(C=C3)O)OC)O)C"
Num Peaks: 7
 223 3.503504; 
 233 7.007007; 
 234 1.001001; 
 353 100.000000; 
 354 18.818819; 
 355 2.402402; 
 421 1.201201; 


Name: Isoxanthohumol
SYNON: $:00in-source
DB#: MetaboBASE0212
InChIKey: YKGCBLWILMDSAV-UHFFFAOYSA-N
Precursor_type: [M-H]-
Spectrum_type: MS2
PrecursorMZ: 353.1
Instrument_type: LC-ESI-TOF
Instrument: impact HD
Ion_mode: N
Collision_energy: 30
InChIKey: YKGCBLWILMDSAV-UHFFFAOYSA-N
Formula: C21H22O5
MW: 354
ExactMass: 354.146723804
Comments: "license=License CC-BY-NC-SA 4.0 International" "author=Plant Biology, The Noble Foundation, Ardmore, OK, US/Dennis Fine, Daniel Wherritt, and Lloyd Sumner" "instrument type=LC-ESI-TOF" "instrument=impact HD" "ionization=ESI" "ionization mode=negative" "ms level=MS2" "precursor m/z=353.1" "isolation width=5" "collision gas=Nitrogen" "collision energy=30" "peak width=0.016" "date=2013-11-16 03:09:12+01:00" "column=Waters Acquity BEH C18 1.7um x 2.1 x 150 mm" "retention time=823.8" "raw data file=C:\Data\Confirmed Standards\Confirmed stds MSMS 14Nov13\Isoxanthohumol MSMS v51.d" "precursor type=[M-H]-" "mass accuracy=111.71850467279131" "mass error=-0.039447803999962616" "cas number=521-48-2" "SMILES=CC(=CCc1c(cc(c2c1OC(CC2=O)c3ccc(cc3)O)OC)O)C" "InChI=InChI=1S/C21H22O5/c1-12(2)4-9-15-16(23)10-19(25-3)20-17(24)11-18(26-21(15)20)13-5-7-14(22)8-6-13/h4-8,10,18,22-23H,9,11H2,1-3H3" "InChIKey=YKGCBLWILMDSAV-UHFFFAOYSA-N" "molecular formula=C21H22O5" "total exact mass=354.146723804" "SMILES=CC(=CCC1=C(C=C(C2=C1OC(CC2=O)C3=CC=C(C=C3)O)OC)O)C"
Num Peaks: 10
 119 100.000000; 
 120 10.710711; 
 133 2.902903; 
 163 2.802803; 
 165 6.006006; 
 175 2.702703; 
 189 3.503504; 
 218 5.005005; 
 233 18.618619; 
 234 2.402402; 


Name: Isoxanthohumol
SYNON: $:00in-source
DB#: MetaboBASE0213
InChIKey: YKGCBLWILMDSAV-UHFFFAOYSA-N
Precursor_type: [M-H]-
Spectrum_type: MS2
PrecursorMZ: 353.1435
Instrument_type: LC-ESI-TOF
Instrument: impact HD
Ion_mode: N
Collision_energy: 20
InChIKey: YKGCBLWILMDSAV-UHFFFAOYSA-N
Formula: C21H22O5
MW: 354
ExactMass: 354.146723804
Comments: "license=License CC-BY-NC-SA 4.0 International" "author=Plant Biology, The Noble Foundation, Ardmore, OK, US/Dennis Fine, Daniel Wherritt, and Lloyd Sumner" "instrument type=LC-ESI-TOF" "instrument=impact HD" "ionization=ESI" "ionization mode=negative" "ms level=MS2" "precursor m/z=353.1435" "isolation width=5" "collision gas=Nitrogen" "collision energy=20" "peak width=0.016" "date=2013-11-16 03:09:12+01:00" "column=Waters Acquity BEH C18 1.7um x 2.1 x 150 mm" "retention time=823.8" "raw data file=C:\Data\Confirmed Standards\Confirmed stds MSMS 14Nov13\Isoxanthohumol MSMS v51.d" "precursor type=[M-H]-" "mass accuracy=11.474644160325552" "mass error=0.004052196000031927" "cas number=521-48-2" "SMILES=CC(=CCc1c(cc(c2c1OC(CC2=O)c3ccc(cc3)O)OC)O)C" "InChI=InChI=1S/C21H22O5/c1-12(2)4-9-15-16(23)10-19(25-3)20-17(24)11-18(26-21(15)20)13-5-7-14(22)8-6-13/h4-8,10,18,22-23H,9,11H2,1-3H3" "InChIKey=YKGCBLWILMDSAV-UHFFFAOYSA-N" "molecular formula=C21H22O5" "total exact mass=354.146723804" "SMILES=CC(=CCC1=C(C=C(C2=C1OC(CC2=O)C3=CC=C(C=C3)O)OC)O)C"
Num Peaks: 7
 119 36.636637; 
 120 3.003003; 
 233 100.000000; 
 234 7.107107; 
 251 3.303303; 
 353 31.031031; 
 354 5.705706; 


Name: 6-Geranylnaringenin
SYNON: $:00in-source
DB#: MetaboBASE0214
InChIKey: YKGCBLWILMDSAV-UHFFFAOYSA-N
Precursor_type: [M-H]-
Spectrum_type: MS2
PrecursorMZ: 407.1882
Instrument_type: LC-ESI-TOF
Instrument: impact HD
Ion_mode: N
Collision_energy: 10
InChIKey: YKGCBLWILMDSAV-UHFFFAOYSA-N
Formula: C25H28O5
MW: 408
ExactMass: 408.193673996
Comments: "license=License CC-BY-NC-SA 4.0 International" "author=Plant Biology, The Noble Foundation, Ardmore, OK, US/Dennis Fine, Daniel Wherritt, and Lloyd Sumner" "instrument type=LC-ESI-TOF" "instrument=impact HD" "ionization=ESI" "ionization mode=negative" "ms level=MS2" "precursor m/z=407.1882" "isolation width=5" "collision gas=Nitrogen" "collision energy=10" "peak width=0.01" "date=2013-11-16 02:28:18+01:00" "column=Waters Acquity BEH C18 1.7um x 2.1 x 150 mm" "retention time=1495.2" "raw data file=C:\Data\Confirmed Standards\Confirmed stds MSMS 14Nov13\6-Geranylnaringenin MSMS .d" "precursor type=[M-H]-" "mass accuracy=4.425481877943424" "mass error=0.0018020040000124027" "cas number=521-48-2" "SMILES=CC(=CCc1c(cc(c2c1OC(CC2=O)c3ccc(cc3)O)OC)O)C" "InChI=InChI=1S/C21H22O5/c1-12(2)4-9-15-16(23)10-19(25-3)20-17(24)11-18(26-21(15)20)13-5-7-14(22)8-6-13/h4-8,10,18,22-23H,9,11H2,1-3H3" "InChIKey=YKGCBLWILMDSAV-UHFFFAOYSA-N" "molecular formula=C25H28O5" "total exact mass=408.193673996" "SMILES=CC(=CCCC(=CCC1=C(C=C2C(=C1O)C(=O)CC(O2)C3=CC=C(C=C3)O)O)C)C" "InChI=InChI=1S/C25H28O5/c1-15(2)5-4-6-16(3)7-12-19-20(27)13-23-24(25(19)29)21(28)14-22(30-23)17-8-10-18(26)11-9-17/h5,7-11,13,22,26-27,29H,4,6,12,14H2,1-3H3/b16-7+" "InChIKey=XYIQIBWIEGCVQY-FRKPEAEDSA-N"
Num Peaks: 3
 407 100.000000; 
 408 18.218218; 
 409 2.402402; 


Name: 6-Geranylnaringenin
SYNON: $:00in-source
DB#: MetaboBASE0215
InChIKey: YKGCBLWILMDSAV-UHFFFAOYSA-N
Instrument_type: LC-ESI-TOF
Instrument: impact HD
Ion_mode: N
Collision_energy: 10
InChIKey: YKGCBLWILMDSAV-UHFFFAOYSA-N
Formula: C25H28O5
MW: 408
ExactMass: 408.193673996
Comments: "license=License CC-BY-NC-SA 4.0 International" "author=Plant Biology, The Noble Foundation, Ardmore, OK, US/Dennis Fine, Daniel Wherritt, and Lloyd Sumner" "instrument type=LC-ESI-TOF" "instrument=impact HD" "ionization=ESI" "ionization mode=negative" "collision gas=Nitrogen" "collision energy=10" "peak width=0.025" "date=2013-09-05 03:26:21+02:00" "column=Waters Acquity BEH C18 1.7um x 2.1 x 150 mm" "retention time=1495.2" "raw data file=C:\Data\Confirmed Standards\Reinjection 2 uL\6-Geranylnaringenin (vial 50).d" "cas number=521-48-2" "SMILES=CC(=CCc1c(cc(c2c1OC(CC2=O)c3ccc(cc3)O)OC)O)C" "InChI=InChI=1S/C21H22O5/c1-12(2)4-9-15-16(23)10-19(25-3)20-17(24)11-18(26-21(15)20)13-5-7-14(22)8-6-13/h4-8,10,18,22-23H,9,11H2,1-3H3" "InChIKey=YKGCBLWILMDSAV-UHFFFAOYSA-N" "molecular formula=C25H28O5" "total exact mass=408.193673996" "SMILES=CC(=CCCC(=CCC1=C(C=C2C(=C1O)C(=O)CC(O2)C3=CC=C(C=C3)O)O)C)C" "InChI=InChI=1S/C25H28O5/c1-15(2)5-4-6-16(3)7-12-19-20(27)13-23-24(25(19)29)21(28)14-22(30-23)17-8-10-18(26)11-9-17/h5,7-11,13,22,26-27,29H,4,6,12,14H2,1-3H3/b16-7+" "InChIKey=XYIQIBWIEGCVQY-FRKPEAEDSA-N"
Num Peaks: 3
 407 100.000000; 
 408 21.821822; 
 409 3.003003; 


Name: 6-Geranylnaringenin
SYNON: $:00in-source
DB#: MetaboBASE0216
InChIKey: YKGCBLWILMDSAV-UHFFFAOYSA-N
Precursor_type: [M-H]-
Spectrum_type: MS2
PrecursorMZ: 407.1882
Instrument_type: LC-ESI-TOF
Instrument: impact HD
Ion_mode: N
Collision_energy: 20
InChIKey: YKGCBLWILMDSAV-UHFFFAOYSA-N
Formula: C25H28O5
MW: 408
ExactMass: 408.19367399600003
Comments: "license=License CC-BY-NC-SA 4.0 International" "author=Plant Biology, The Noble Foundation, Ardmore, OK, US/Dennis Fine, Daniel Wherritt, and Lloyd Sumner" "instrument type=LC-ESI-TOF" "instrument=impact HD" "ionization=ESI" "ionization mode=negative" "ms level=MS2" "precursor m/z=407.1882" "isolation width=5" "collision gas=Nitrogen" "collision energy=20" "peak width=0.011" "date=2013-11-16 02:28:18+01:00" "column=Waters Acquity BEH C18 1.7um x 2.1 x 150 mm" "retention time=1495.2" "raw data file=C:\Data\Confirmed Standards\Confirmed stds MSMS 14Nov13\6-Geranylnaringenin MSMS .d" "precursor type=[M-H]-" "mass accuracy=4.425481877803825" "mass error=0.0018020039999555593" "cas number=521-48-2" "SMILES=CC(=CCc1c(cc(c2c1OC(CC2=O)c3ccc(cc3)O)OC)O)C" "InChI=InChI=1S/C21H22O5/c1-12(2)4-9-15-16(23)10-19(25-3)20-17(24)11-18(26-21(15)20)13-5-7-14(22)8-6-13/h4-8,10,18,22-23H,9,11H2,1-3H3" "InChIKey=YKGCBLWILMDSAV-UHFFFAOYSA-N" "molecular formula=C25H28O5" "total exact mass=408.19367399600003" "SMILES=CC(=CCCC(=CCC1=C(C=C2C(=C1O)C(=O)CC(O2)C3=CC=C(C=C3)O)O)C)C" "InChI=InChI=1S/C25H28O5/c1-15(2)5-4-6-16(3)7-12-19-20(27)13-23-24(25(19)29)21(28)14-22(30-23)17-8-10-18(26)11-9-17/h5,7-11,13,22,26-27,29H,4,6,12,14H2,1-3H3/b16-7+" "InChIKey=XYIQIBWIEGCVQY-FRKPEAEDSA-N"
Num Peaks: 4
 287 10.410410; 
 407 100.000000; 
 408 18.718719; 
 409 2.502503; 


Name: 6-Geranylnaringenin
SYNON: $:00in-source
DB#: MetaboBASE0217
InChIKey: YKGCBLWILMDSAV-UHFFFAOYSA-N
Precursor_type: [M-H]-
Spectrum_type: MS2
PrecursorMZ: 407.1882
Instrument_type: LC-ESI-TOF
Instrument: impact HD
Ion_mode: N
Collision_energy: 30
InChIKey: YKGCBLWILMDSAV-UHFFFAOYSA-N
Formula: C25H28O5
MW: 408
ExactMass: 408.19367399600003
Comments: "license=License CC-BY-NC-SA 4.0 International" "author=Plant Biology, The Noble Foundation, Ardmore, OK, US/Dennis Fine, Daniel Wherritt, and Lloyd Sumner" "instrument type=LC-ESI-TOF" "instrument=impact HD" "ionization=ESI" "ionization mode=negative" "ms level=MS2" "precursor m/z=407.1882" "isolation width=5" "collision gas=Nitrogen" "collision energy=30" "peak width=0.014" "date=2013-11-16 02:28:18+01:00" "column=Waters Acquity BEH C18 1.7um x 2.1 x 150 mm" "retention time=1495.2" "raw data file=C:\Data\Confirmed Standards\Confirmed stds MSMS 14Nov13\6-Geranylnaringenin MSMS .d" "precursor type=[M-H]-" "mass accuracy=4.425481877803825" "mass error=0.0018020039999555593" "cas number=521-48-2" "SMILES=CC(=CCc1c(cc(c2c1OC(CC2=O)c3ccc(cc3)O)OC)O)C" "InChI=InChI=1S/C21H22O5/c1-12(2)4-9-15-16(23)10-19(25-3)20-17(24)11-18(26-21(15)20)13-5-7-14(22)8-6-13/h4-8,10,18,22-23H,9,11H2,1-3H3" "InChIKey=YKGCBLWILMDSAV-UHFFFAOYSA-N" "molecular formula=C25H28O5" "total exact mass=408.19367399600003" "SMILES=CC(=CCCC(=CCC1=C(C=C2C(=C1O)C(=O)CC(O2)C3=CC=C(C=C3)O)O)C)C" "InChI=InChI=1S/C25H28O5/c1-15(2)5-4-6-16(3)7-12-19-20(27)13-23-24(25(19)29)21(28)14-22(30-23)17-8-10-18(26)11-9-17/h5,7-11,13,22,26-27,29H,4,6,12,14H2,1-3H3/b16-7+" "InChIKey=XYIQIBWIEGCVQY-FRKPEAEDSA-N"
Num Peaks: 15
 119 19.119119; 
 201 2.202202; 
 219 2.802803; 
 243 8.108108; 
 244 2.102102; 
 259 3.103103; 
 261 2.202202; 
 283 4.804805; 
 287 100.000000; 
 288 14.014014; 
 289 2.502503; 
 301 4.004004; 
 313 4.504505; 
 407 41.141141; 
 408 9.409409; 


Name: 6-Geranylnaringenin
SYNON: $:00in-source
DB#: MetaboBASE0218
InChIKey: YKGCBLWILMDSAV-UHFFFAOYSA-N
Precursor_type: [M-H]-
Spectrum_type: MS2
PrecursorMZ: 407.1939
Instrument_type: LC-ESI-TOF
Instrument: impact HD
Ion_mode: N
Collision_energy: 40
InChIKey: YKGCBLWILMDSAV-UHFFFAOYSA-N
Formula: C25H28O5
MW: 408
ExactMass: 408.193673996
Comments: "license=License CC-BY-NC-SA 4.0 International" "author=Plant Biology, The Noble Foundation, Ardmore, OK, US/Dennis Fine, Daniel Wherritt, and Lloyd Sumner" "instrument type=LC-ESI-TOF" "instrument=impact HD" "ionization=ESI" "ionization mode=negative" "ms level=MS2" "precursor m/z=407.1939" "isolation width=5" "collision gas=Nitrogen" "collision energy=40" "peak width=0.018" "date=2013-11-16 02:28:18+01:00" "column=Waters Acquity BEH C18 1.7um x 2.1 x 150 mm" "retention time=1495.2" "raw data file=C:\Data\Confirmed Standards\Confirmed stds MSMS 14Nov13\6-Geranylnaringenin MSMS .d" "precursor type=[M-H]-" "mass accuracy=18.423664991058736" "mass error=0.007502004000002671" "cas number=521-48-2" "SMILES=CC(=CCc1c(cc(c2c1OC(CC2=O)c3ccc(cc3)O)OC)O)C" "InChI=InChI=1S/C21H22O5/c1-12(2)4-9-15-16(23)10-19(25-3)20-17(24)11-18(26-21(15)20)13-5-7-14(22)8-6-13/h4-8,10,18,22-23H,9,11H2,1-3H3" "InChIKey=YKGCBLWILMDSAV-UHFFFAOYSA-N" "molecular formula=C25H28O5" "total exact mass=408.193673996" "SMILES=CC(=CCCC(=CCC1=C(C=C2C(=C1O)C(=O)CC(O2)C3=CC=C(C=C3)O)O)C)C" "InChI=InChI=1S/C25H28O5/c1-15(2)5-4-6-16(3)7-12-19-20(27)13-23-24(25(19)29)21(28)14-22(30-23)17-8-10-18(26)11-9-17/h5,7-11,13,22,26-27,29H,4,6,12,14H2,1-3H3/b16-7+" "InChIKey=XYIQIBWIEGCVQY-FRKPEAEDSA-N"
Num Peaks: 16
 119 100.000000; 
 120 11.111111; 
 137 4.304304; 
 163 8.008008; 
 176 11.211211; 
 177 3.903904; 
 177 4.404404; 
 201 7.907908; 
 202 4.204204; 
 219 7.907908; 
 243 10.510511; 
 283 7.207207; 
 287 32.932933; 
 288 6.106106; 
 301 5.005005; 
 407 3.903904; 


Name: Kaempferide
SYNON: $:00in-source
DB#: MetaboBASE0219
InChIKey: SQFSKOYWJBQGKQ-UHFFFAOYSA-N
Precursor_type: [M-H]-
Spectrum_type: MS2
PrecursorMZ: 299.0585
Instrument_type: LC-ESI-TOF
Instrument: impact HD
Ion_mode: N
Collision_energy: 20
InChIKey: SQFSKOYWJBQGKQ-UHFFFAOYSA-N
Formula: C16H12O6
MW: 300
ExactMass: 300.06338810399996
Comments: "license=License CC-BY-NC-SA 4.0 International" "author=Plant Biology, The Noble Foundation, Ardmore, OK, US/Dennis Fine, Daniel Wherritt, and Lloyd Sumner" "instrument type=LC-ESI-TOF" "instrument=impact HD" "ionization=ESI" "ionization mode=negative" "ms level=MS2" "precursor m/z=299.0585" "isolation width=5" "collision gas=Nitrogen" "collision energy=20" "peak width=0.014" "date=2013-11-16 05:11:56+01:00" "column=Waters Acquity BEH C18 1.7um x 2.1 x 150 mm" "retention time=882.6" "raw data file=C:\Data\Confirmed Standards\Confirmed stds MSMS 14Nov13\Kaempferide MSMS (vial 55).d" "precursor type=[M-H]-" "mass accuracy=7.9847120212804485" "mass error=0.0023878960000160987" "cas number=491-54-3" "SMILES=COc1ccc(cc1)c2c(c(=O)c3c(cc(cc3o2)O)O)O" "InChI=InChI=1S/C16H12O6/c1-21-10-4-2-8(3-5-10)16-15(20)14(19)13-11(18)6-9(17)7-12(13)22-16/h2-7,17-18,20H,1H3" "InChIKey=SQFSKOYWJBQGKQ-UHFFFAOYSA-N" "molecular formula=C16H12O6" "total exact mass=300.06338810399996" "SMILES=COC1=CC=C(C=C1)C2=C(C(=O)C3=C(C=C(C=C3O2)O)O)O"
Num Peaks: 5
 284 100.000000; 
 285 18.618619; 
 299 94.394394; 
 300 13.313313; 
 301 2.302302; 


Name: Kaempferide
SYNON: $:00in-source
DB#: MetaboBASE0220
InChIKey: SQFSKOYWJBQGKQ-UHFFFAOYSA-N
Precursor_type: [M-H]-
Spectrum_type: MS2
PrecursorMZ: 299.1
Instrument_type: LC-ESI-TOF
Instrument: impact HD
Ion_mode: N
Collision_energy: 40
InChIKey: SQFSKOYWJBQGKQ-UHFFFAOYSA-N
Formula: C16H12O6
MW: 300
ExactMass: 300.06338810399996
Comments: "license=License CC-BY-NC-SA 4.0 International" "author=Plant Biology, The Noble Foundation, Ardmore, OK, US/Dennis Fine, Daniel Wherritt, and Lloyd Sumner" "instrument type=LC-ESI-TOF" "instrument=impact HD" "ionization=ESI" "ionization mode=negative" "ms level=MS2" "precursor m/z=299.1" "isolation width=5" "collision gas=Nitrogen" "collision energy=40" "peak width=0.017" "date=2013-11-16 05:11:56+01:00" "column=Waters Acquity BEH C18 1.7um x 2.1 x 150 mm" "retention time=882.6" "raw data file=C:\Data\Confirmed Standards\Confirmed stds MSMS 14Nov13\Kaempferide MSMS (vial 55).d" "precursor type=[M-H]-" "mass accuracy=146.7331862255364" "mass error=0.043887896000057935" "cas number=491-54-3" "SMILES=COc1ccc(cc1)c2c(c(=O)c3c(cc(cc3o2)O)O)O" "InChI=InChI=1S/C16H12O6/c1-21-10-4-2-8(3-5-10)16-15(20)14(19)13-11(18)6-9(17)7-12(13)22-16/h2-7,17-18,20H,1H3" "InChIKey=SQFSKOYWJBQGKQ-UHFFFAOYSA-N" "molecular formula=C16H12O6" "total exact mass=300.06338810399996" "SMILES=COC1=CC=C(C=C1)C2=C(C(=O)C3=C(C=C(C=C3O2)O)O)O"
Num Peaks: 10
 107 27.827828; 
 108 26.626627; 
 132 31.831832; 
 150 100.000000; 
 162 35.635636; 
 164 54.054054; 
 227 51.151151; 
 255 38.438438; 
 284 86.486486; 
 285 31.331331; 


Name: Kaempferide
SYNON: $:00in-source
DB#: MetaboBASE0221
InChIKey: SQFSKOYWJBQGKQ-UHFFFAOYSA-N
Precursor_type: [M-H]-
Spectrum_type: MS2
PrecursorMZ: 299.0594
Instrument_type: LC-ESI-TOF
Instrument: impact HD
Ion_mode: N
Collision_energy: 30
InChIKey: SQFSKOYWJBQGKQ-UHFFFAOYSA-N
Formula: C16H12O6
MW: 300
ExactMass: 300.06338810399996
Comments: "license=License CC-BY-NC-SA 4.0 International" "author=Plant Biology, The Noble Foundation, Ardmore, OK, US/Dennis Fine, Daniel Wherritt, and Lloyd Sumner" "instrument type=LC-ESI-TOF" "instrument=impact HD" "ionization=ESI" "ionization mode=negative" "ms level=MS2" "precursor m/z=299.0594" "isolation width=5" "collision gas=Nitrogen" "collision energy=30" "peak width=0.015" "date=2013-11-16 05:11:56+01:00" "column=Waters Acquity BEH C18 1.7um x 2.1 x 150 mm" "retention time=882.6" "raw data file=C:\Data\Confirmed Standards\Confirmed stds MSMS 14Nov13\Kaempferide MSMS (vial 55).d" "precursor type=[M-H]-" "mass accuracy=10.994123575508926" "mass error=0.003287896000017554" "cas number=491-54-3" "SMILES=COc1ccc(cc1)c2c(c(=O)c3c(cc(cc3o2)O)O)O" "InChI=InChI=1S/C16H12O6/c1-21-10-4-2-8(3-5-10)16-15(20)14(19)13-11(18)6-9(17)7-12(13)22-16/h2-7,17-18,20H,1H3" "InChIKey=SQFSKOYWJBQGKQ-UHFFFAOYSA-N" "molecular formula=C16H12O6" "total exact mass=300.06338810399996" "SMILES=COC1=CC=C(C=C1)C2=C(C(=O)C3=C(C=C(C=C3O2)O)O)O"
Num Peaks: 13
 107 2.202202; 
 132 2.502503; 
 150 14.114114; 
 164 3.303303; 
 227 4.504505; 
 228 4.604605; 
 240 2.602603; 
 255 3.403403; 
 283 2.402402; 
 284 100.000000; 
 285 11.611612; 
 286 2.402402; 
 299 5.605606; 


Name: Kaempferide
SYNON: $:00in-source
DB#: MetaboBASE0222
InChIKey: SQFSKOYWJBQGKQ-UHFFFAOYSA-N
Precursor_type: [M-H]-
Spectrum_type: MS2
PrecursorMZ: 299.0585
Instrument_type: LC-ESI-TOF
Instrument: impact HD
Ion_mode: N
Collision_energy: 10
InChIKey: SQFSKOYWJBQGKQ-UHFFFAOYSA-N
Formula: C16H12O6
MW: 300
ExactMass: 300.06338810399996
Comments: "license=License CC-BY-NC-SA 4.0 International" "author=Plant Biology, The Noble Foundation, Ardmore, OK, US/Dennis Fine, Daniel Wherritt, and Lloyd Sumner" "instrument type=LC-ESI-TOF" "instrument=impact HD" "ionization=ESI" "ionization mode=negative" "ms level=MS2" "precursor m/z=299.0585" "isolation width=5" "collision gas=Nitrogen" "collision energy=10" "peak width=0.012" "date=2013-11-16 05:11:56+01:00" "column=Waters Acquity BEH C18 1.7um x 2.1 x 150 mm" "retention time=882.6" "raw data file=C:\Data\Confirmed Standards\Confirmed stds MSMS 14Nov13\Kaempferide MSMS (vial 55).d" "precursor type=[M-H]-" "mass accuracy=7.9847120212804485" "mass error=0.0023878960000160987" "cas number=491-54-3" "SMILES=COc1ccc(cc1)c2c(c(=O)c3c(cc(cc3o2)O)O)O" "InChI=InChI=1S/C16H12O6/c1-21-10-4-2-8(3-5-10)16-15(20)14(19)13-11(18)6-9(17)7-12(13)22-16/h2-7,17-18,20H,1H3" "InChIKey=SQFSKOYWJBQGKQ-UHFFFAOYSA-N" "molecular formula=C16H12O6" "total exact mass=300.06338810399996" "SMILES=COC1=CC=C(C=C1)C2=C(C(=O)C3=C(C=C(C=C3O2)O)O)O"
Num Peaks: 3
 284 2.102102; 
 299 100.000000; 
 300 12.212212; 


Name: Kaempferide
SYNON: $:00in-source
DB#: MetaboBASE0223
InChIKey: SQFSKOYWJBQGKQ-UHFFFAOYSA-N
Precursor_type: [M-H]-
Spectrum_type: MS2
PrecursorMZ: 299.1
Instrument_type: LC-ESI-TOF
Instrument: impact HD
Ion_mode: N
Collision_energy: 50
InChIKey: SQFSKOYWJBQGKQ-UHFFFAOYSA-N
Formula: C16H12O6
MW: 300
ExactMass: 300.06338810399996
Comments: "license=License CC-BY-NC-SA 4.0 International" "author=Plant Biology, The Noble Foundation, Ardmore, OK, US/Dennis Fine, Daniel Wherritt, and Lloyd Sumner" "instrument type=LC-ESI-TOF" "instrument=impact HD" "ionization=ESI" "ionization mode=negative" "ms level=MS2" "precursor m/z=299.1" "isolation width=5" "collision gas=Nitrogen" "collision energy=50" "peak width=0.012" "date=2013-11-16 05:11:56+01:00" "column=Waters Acquity BEH C18 1.7um x 2.1 x 150 mm" "retention time=882.6" "raw data file=C:\Data\Confirmed Standards\Confirmed stds MSMS 14Nov13\Kaempferide MSMS (vial 55).d" "precursor type=[M-H]-" "mass accuracy=146.7331862255364" "mass error=0.043887896000057935" "cas number=491-54-3" "SMILES=COc1ccc(cc1)c2c(c(=O)c3c(cc(cc3o2)O)O)O" "InChI=InChI=1S/C16H12O6/c1-21-10-4-2-8(3-5-10)16-15(20)14(19)13-11(18)6-9(17)7-12(13)22-16/h2-7,17-18,20H,1H3" "InChIKey=SQFSKOYWJBQGKQ-UHFFFAOYSA-N" "molecular formula=C16H12O6" "total exact mass=300.06338810399996" "SMILES=COC1=CC=C(C=C1)C2=C(C(=O)C3=C(C=C(C=C3O2)O)O)O"
Num Peaks: 5
 132 57.957958; 
 162 100.000000; 
 164 65.065065; 
 227 86.086086; 
 255 77.877878; 


Name: Kaempferide
SYNON: $:00in-source
DB#: MetaboBASE0224
InChIKey: SQFSKOYWJBQGKQ-UHFFFAOYSA-N
Instrument_type: LC-ESI-TOF
Instrument: impact HD
Ion_mode: N
Collision_energy: 10
InChIKey: SQFSKOYWJBQGKQ-UHFFFAOYSA-N
Formula: C16H12O6
MW: 300
ExactMass: 300.06338810399996
Comments: "license=License CC-BY-NC-SA 4.0 International" "author=Plant Biology, The Noble Foundation, Ardmore, OK, US/Dennis Fine, Daniel Wherritt, and Lloyd Sumner" "instrument type=LC-ESI-TOF" "instrument=impact HD" "ionization=ESI" "ionization mode=negative" "collision gas=Nitrogen" "collision energy=10" "peak width=0.028" "date=2013-09-05 06:50:11+02:00" "column=Waters Acquity BEH C18 1.7um x 2.1 x 150 mm" "retention time=882.6" "raw data file=C:\Data\Confirmed Standards\Reinjection 2 uL\Kaempferide (vial 55).d" "cas number=491-54-3" "SMILES=COc1ccc(cc1)c2c(c(=O)c3c(cc(cc3o2)O)O)O" "InChI=InChI=1S/C16H12O6/c1-21-10-4-2-8(3-5-10)16-15(20)14(19)13-11(18)6-9(17)7-12(13)22-16/h2-7,17-18,20H,1H3" "InChIKey=SQFSKOYWJBQGKQ-UHFFFAOYSA-N" "molecular formula=C16H12O6" "total exact mass=300.06338810399996" "SMILES=COC1=CC=C(C=C1)C2=C(C(=O)C3=C(C=C(C=C3O2)O)O)O"
Num Peaks: 5
 284 6.306306; 
 299 100.000000; 
 300 16.116116; 
 301 1.901902; 
 315 6.606607; 


Name: Isorhoifolin
SYNON: $:00in-source
DB#: MetaboBASE0225
InChIKey: FKIYLTVJPDLUDL-SLNHTJRHSA-N
Precursor_type: [M-H]-
Spectrum_type: MS2
PrecursorMZ: 577.1602
Instrument_type: LC-ESI-TOF
Instrument: impact HD
Ion_mode: N
Collision_energy: 20
InChIKey: FKIYLTVJPDLUDL-SLNHTJRHSA-N
Formula: C27H30O14
MW: 578
ExactMass: 578.1635556399999
Comments: "license=License CC-BY-NC-SA 4.0 International" "author=Plant Biology, The Noble Foundation, Ardmore, OK, US/Dennis Fine, Daniel Wherritt, and Lloyd Sumner" "instrument type=LC-ESI-TOF" "instrument=impact HD" "ionization=ESI" "ionization mode=negative" "ms level=MS2" "precursor m/z=577.1602" "isolation width=5" "collision gas=Nitrogen" "collision energy=20" "peak width=0.013" "date=2013-11-16 05:52:49+01:00" "column=Waters Acquity BEH C18 1.7um x 2.1 x 150 mm" "retention time=384.6" "raw data file=C:\Data\Confirmed Standards\Confirmed stds MSMS 14Nov13\Isorhoifolin MSMS (vial 56).d" "precursor type=[M-H]-" "mass accuracy=6.792498859355862" "mass error=0.003920360000165601" "cas number=552-57-8" "SMILES=C[C@H]1[C@@H]([C@H]([C@H]([C@@H](O1)OC[C@@H]2[C@H]([C@@H]([C@H]([C@@H](O2)OC3=CC(=C4C(=C3)OC(=CC4=O)C5=CC=C(C=C5)O)O)O)O)O)O)O)O" "InChI=InChI=1S/C27H30O14/c1-10-20(31)22(33)24(35)26(38-10)37-9-18-21(32)23(34)25(36)27(41-18)39-13-6-14(29)19-15(30)8-16(40-17(19)7-13)11-2-4-12(28)5-3-11/h2-8,10,18,20-29,31-36H,9H2,1H3/t10-,18+,20-,21+,22+,23-,24+,25+,26+,27+/m0/s1" "InChIKey=FKIYLTVJPDLUDL-SLNHTJRHSA-N" "molecular formula=C27H30O14" "total exact mass=578.1635556399999" "SMILES=CC1C(C(C(C(O1)OCC2C(C(C(C(O2)OC3=CC(=C4C(=C3)OC(=CC4=O)C5=CC=C(C=C5)O)O)O)O)O)O)O)O" "InChI=InChI=1S/C27H30O14/c1-10-20(31)22(33)24(35)26(38-10)37-9-18-21(32)23(34)25(36)27(41-18)39-13-6-14(29)19-15(30)8-16(40-17(19)7-13)11-2-4-12(28)5-3-11/h2-8,10,18,20-29,31-36H,9H2,1H3" "InChIKey=FKIYLTVJPDLUDL-UHFFFAOYSA-N"
Num Peaks: 5
 269 100.000000; 
 270 14.014014; 
 577 46.646647; 
 578 8.008008; 
 579 4.404404; 


Name: Isorhoifolin
SYNON: $:00in-source
DB#: MetaboBASE0226
InChIKey: FKIYLTVJPDLUDL-SLNHTJRHSA-N
Precursor_type: [M-H]-
Spectrum_type: MS2
PrecursorMZ: 577.21
Instrument_type: LC-ESI-TOF
Instrument: impact HD
Ion_mode: N
Collision_energy: 70
InChIKey: FKIYLTVJPDLUDL-SLNHTJRHSA-N
Formula: C27H30O14
MW: 578
ExactMass: 578.1635556399999
Comments: "license=License CC-BY-NC-SA 4.0 International" "author=Plant Biology, The Noble Foundation, Ardmore, OK, US/Dennis Fine, Daniel Wherritt, and Lloyd Sumner" "instrument type=LC-ESI-TOF" "instrument=impact HD" "ionization=ESI" "ionization mode=negative" "ms level=MS2" "precursor m/z=577.21" "isolation width=5" "collision gas=Nitrogen" "collision energy=70" "peak width=0.017" "date=2013-11-16 05:52:49+01:00" "column=Waters Acquity BEH C18 1.7um x 2.1 x 150 mm" "retention time=384.6" "raw data file=C:\Data\Confirmed Standards\Confirmed stds MSMS 14Nov13\Isorhoifolin MSMS (vial 56).d" "precursor type=[M-H]-" "mass accuracy=93.0690043487991" "mass error=0.05372036000017033" "cas number=552-57-8" "SMILES=C[C@H]1[C@@H]([C@H]([C@H]([C@@H](O1)OC[C@@H]2[C@H]([C@@H]([C@H]([C@@H](O2)OC3=CC(=C4C(=C3)OC(=CC4=O)C5=CC=C(C=C5)O)O)O)O)O)O)O)O" "InChI=InChI=1S/C27H30O14/c1-10-20(31)22(33)24(35)26(38-10)37-9-18-21(32)23(34)25(36)27(41-18)39-13-6-14(29)19-15(30)8-16(40-17(19)7-13)11-2-4-12(28)5-3-11/h2-8,10,18,20-29,31-36H,9H2,1H3/t10-,18+,20-,21+,22+,23-,24+,25+,26+,27+/m0/s1" "InChIKey=FKIYLTVJPDLUDL-SLNHTJRHSA-N" "molecular formula=C27H30O14" "total exact mass=578.1635556399999" "SMILES=CC1C(C(C(C(O1)OCC2C(C(C(C(O2)OC3=CC(=C4C(=C3)OC(=CC4=O)C5=CC=C(C=C5)O)O)O)O)O)O)O)O" "InChI=InChI=1S/C27H30O14/c1-10-20(31)22(33)24(35)26(38-10)37-9-18-21(32)23(34)25(36)27(41-18)39-13-6-14(29)19-15(30)8-16(40-17(19)7-13)11-2-4-12(28)5-3-11/h2-8,10,18,20-29,31-36H,9H2,1H3" "InChIKey=FKIYLTVJPDLUDL-UHFFFAOYSA-N"
Num Peaks: 4
 117 7.707708; 
 268 21.321321; 
 269 100.000000; 
 270 12.212212; 


Name: Isorhoifolin
SYNON: $:00in-source
DB#: MetaboBASE0227
InChIKey: FKIYLTVJPDLUDL-SLNHTJRHSA-N
Precursor_type: [M-H]-
Spectrum_type: MS2
PrecursorMZ: 577.2
Instrument_type: LC-ESI-TOF
Instrument: impact HD
Ion_mode: N
Collision_energy: 40
InChIKey: FKIYLTVJPDLUDL-SLNHTJRHSA-N
Formula: C27H30O14
MW: 578
ExactMass: 578.1635556399999
Comments: "license=License CC-BY-NC-SA 4.0 International" "author=Plant Biology, The Noble Foundation, Ardmore, OK, US/Dennis Fine, Daniel Wherritt, and Lloyd Sumner" "instrument type=LC-ESI-TOF" "instrument=impact HD" "ionization=ESI" "ionization mode=negative" "ms level=MS2" "precursor m/z=577.2" "isolation width=5" "collision gas=Nitrogen" "collision energy=40" "peak width=0.017" "date=2013-11-16 05:52:49+01:00" "column=Waters Acquity BEH C18 1.7um x 2.1 x 150 mm" "retention time=384.6" "raw data file=C:\Data\Confirmed Standards\Confirmed stds MSMS 14Nov13\Isorhoifolin MSMS (vial 56).d" "precursor type=[M-H]-" "mass accuracy=75.7455994459103" "mass error=0.043720360000179426" "cas number=552-57-8" "SMILES=C[C@H]1[C@@H]([C@H]([C@H]([C@@H](O1)OC[C@@H]2[C@H]([C@@H]([C@H]([C@@H](O2)OC3=CC(=C4C(=C3)OC(=CC4=O)C5=CC=C(C=C5)O)O)O)O)O)O)O)O" "InChI=InChI=1S/C27H30O14/c1-10-20(31)22(33)24(35)26(38-10)37-9-18-21(32)23(34)25(36)27(41-18)39-13-6-14(29)19-15(30)8-16(40-17(19)7-13)11-2-4-12(28)5-3-11/h2-8,10,18,20-29,31-36H,9H2,1H3/t10-,18+,20-,21+,22+,23-,24+,25+,26+,27+/m0/s1" "InChIKey=FKIYLTVJPDLUDL-SLNHTJRHSA-N" "molecular formula=C27H30O14" "total exact mass=578.1635556399999" "SMILES=CC1C(C(C(C(O1)OCC2C(C(C(C(O2)OC3=CC(=C4C(=C3)OC(=CC4=O)C5=CC=C(C=C5)O)O)O)O)O)O)O)O" "InChI=InChI=1S/C27H30O14/c1-10-20(31)22(33)24(35)26(38-10)37-9-18-21(32)23(34)25(36)27(41-18)39-13-6-14(29)19-15(30)8-16(40-17(19)7-13)11-2-4-12(28)5-3-11/h2-8,10,18,20-29,31-36H,9H2,1H3" "InChIKey=FKIYLTVJPDLUDL-UHFFFAOYSA-N"
Num Peaks: 3
 269 100.000000; 
 270 15.115115; 
 271 2.802803; 


Name: Isorhoifolin
SYNON: $:00in-source
DB#: MetaboBASE0228
InChIKey: FKIYLTVJPDLUDL-SLNHTJRHSA-N
Instrument_type: LC-ESI-TOF
Instrument: impact HD
Ion_mode: N
Collision_energy: 10
InChIKey: FKIYLTVJPDLUDL-SLNHTJRHSA-N
Formula: C27H30O14
MW: 578
ExactMass: 578.16355564
Comments: "license=License CC-BY-NC-SA 4.0 International" "author=Plant Biology, The Noble Foundation, Ardmore, OK, US/Dennis Fine, Daniel Wherritt, and Lloyd Sumner" "instrument type=LC-ESI-TOF" "instrument=impact HD" "ionization=ESI" "ionization mode=negative" "collision gas=Nitrogen" "collision energy=10" "peak width=0.026" "date=2013-09-05 07:30:57+02:00" "column=Waters Acquity BEH C18 1.7um x 2.1 x 150 mm" "retention time=384.6" "raw data file=C:\Data\Confirmed Standards\Reinjection 2 uL\Isorhoifolin (vial 56).d" "cas number=552-57-8" "SMILES=C[C@H]1[C@@H]([C@H]([C@H]([C@@H](O1)OC[C@@H]2[C@H]([C@@H]([C@H]([C@@H](O2)OC3=CC(=C4C(=C3)OC(=CC4=O)C5=CC=C(C=C5)O)O)O)O)O)O)O)O" "InChI=InChI=1S/C27H30O14/c1-10-20(31)22(33)24(35)26(38-10)37-9-18-21(32)23(34)25(36)27(41-18)39-13-6-14(29)19-15(30)8-16(40-17(19)7-13)11-2-4-12(28)5-3-11/h2-8,10,18,20-29,31-36H,9H2,1H3/t10-,18+,20-,21+,22+,23-,24+,25+,26+,27+/m0/s1" "InChIKey=FKIYLTVJPDLUDL-SLNHTJRHSA-N" "molecular formula=C27H30O14" "total exact mass=578.16355564" "SMILES=CC1C(C(C(C(O1)OCC2C(C(C(C(O2)OC3=CC(=C4C(=C3)OC(=CC4=O)C5=CC=C(C=C5)O)O)O)O)O)O)O)O" "InChI=InChI=1S/C27H30O14/c1-10-20(31)22(33)24(35)26(38-10)37-9-18-21(32)23(34)25(36)27(41-18)39-13-6-14(29)19-15(30)8-16(40-17(19)7-13)11-2-4-12(28)5-3-11/h2-8,10,18,20-29,31-36H,9H2,1H3" "InChIKey=FKIYLTVJPDLUDL-UHFFFAOYSA-N"
Num Peaks: 10
 269 1.301301; 
 577 100.000000; 
 578 25.525526; 
 579 5.205205; 
 645 3.503504; 
 1155 7.507508; 
 1156 4.604605; 
 1157 1.501502; 
 1444 1.201201; 
 1445 1.001001; 


Name: Isorhoifolin
SYNON: $:00in-source
DB#: MetaboBASE0229
InChIKey: FKIYLTVJPDLUDL-SLNHTJRHSA-N
Precursor_type: [M-H]-
Spectrum_type: MS2
PrecursorMZ: 577.2
Instrument_type: LC-ESI-TOF
Instrument: impact HD
Ion_mode: N
Collision_energy: 50
InChIKey: FKIYLTVJPDLUDL-SLNHTJRHSA-N
Formula: C27H30O14
MW: 578
ExactMass: 578.16355564
Comments: "license=License CC-BY-NC-SA 4.0 International" "author=Plant Biology, The Noble Foundation, Ardmore, OK, US/Dennis Fine, Daniel Wherritt, and Lloyd Sumner" "instrument type=LC-ESI-TOF" "instrument=impact HD" "ionization=ESI" "ionization mode=negative" "ms level=MS2" "precursor m/z=577.2" "isolation width=5" "collision gas=Nitrogen" "collision energy=50" "peak width=0.018" "date=2013-11-16 05:52:49+01:00" "column=Waters Acquity BEH C18 1.7um x 2.1 x 150 mm" "retention time=384.6" "raw data file=C:\Data\Confirmed Standards\Confirmed stds MSMS 14Nov13\Isorhoifolin MSMS (vial 56).d" "precursor type=[M-H]-" "mass accuracy=75.74559944571334" "mass error=0.04372036000006574" "cas number=552-57-8" "SMILES=C[C@H]1[C@@H]([C@H]([C@H]([C@@H](O1)OC[C@@H]2[C@H]([C@@H]([C@H]([C@@H](O2)OC3=CC(=C4C(=C3)OC(=CC4=O)C5=CC=C(C=C5)O)O)O)O)O)O)O)O" "InChI=InChI=1S/C27H30O14/c1-10-20(31)22(33)24(35)26(38-10)37-9-18-21(32)23(34)25(36)27(41-18)39-13-6-14(29)19-15(30)8-16(40-17(19)7-13)11-2-4-12(28)5-3-11/h2-8,10,18,20-29,31-36H,9H2,1H3/t10-,18+,20-,21+,22+,23-,24+,25+,26+,27+/m0/s1" "InChIKey=FKIYLTVJPDLUDL-SLNHTJRHSA-N" "molecular formula=C27H30O14" "total exact mass=578.16355564" "SMILES=CC1C(C(C(C(O1)OCC2C(C(C(C(O2)OC3=CC(=C4C(=C3)OC(=CC4=O)C5=CC=C(C=C5)O)O)O)O)O)O)O)O" "InChI=InChI=1S/C27H30O14/c1-10-20(31)22(33)24(35)26(38-10)37-9-18-21(32)23(34)25(36)27(41-18)39-13-6-14(29)19-15(30)8-16(40-17(19)7-13)11-2-4-12(28)5-3-11/h2-8,10,18,20-29,31-36H,9H2,1H3" "InChIKey=FKIYLTVJPDLUDL-UHFFFAOYSA-N"
Num Peaks: 3
 268 5.905906; 
 269 100.000000; 
 270 16.016016; 


Name: Isorhoifolin
SYNON: $:00in-source
DB#: MetaboBASE0230
InChIKey: FKIYLTVJPDLUDL-SLNHTJRHSA-N
Precursor_type: [M-H]-
Spectrum_type: MS2
PrecursorMZ: 577.2
Instrument_type: LC-ESI-TOF
Instrument: impact HD
Ion_mode: N
Collision_energy: 60
InChIKey: FKIYLTVJPDLUDL-SLNHTJRHSA-N
Formula: C27H30O14
MW: 578
ExactMass: 578.1635556399999
Comments: "license=License CC-BY-NC-SA 4.0 International" "author=Plant Biology, The Noble Foundation, Ardmore, OK, US/Dennis Fine, Daniel Wherritt, and Lloyd Sumner" "instrument type=LC-ESI-TOF" "instrument=impact HD" "ionization=ESI" "ionization mode=negative" "ms level=MS2" "precursor m/z=577.2" "isolation width=5" "collision gas=Nitrogen" "collision energy=60" "peak width=0.02" "date=2013-11-16 05:52:49+01:00" "column=Waters Acquity BEH C18 1.7um x 2.1 x 150 mm" "retention time=384.6" "raw data file=C:\Data\Confirmed Standards\Confirmed stds MSMS 14Nov13\Isorhoifolin MSMS (vial 56).d" "precursor type=[M-H]-" "mass accuracy=75.7455994459103" "mass error=0.043720360000179426" "cas number=552-57-8" "SMILES=C[C@H]1[C@@H]([C@H]([C@H]([C@@H](O1)OC[C@@H]2[C@H]([C@@H]([C@H]([C@@H](O2)OC3=CC(=C4C(=C3)OC(=CC4=O)C5=CC=C(C=C5)O)O)O)O)O)O)O)O" "InChI=InChI=1S/C27H30O14/c1-10-20(31)22(33)24(35)26(38-10)37-9-18-21(32)23(34)25(36)27(41-18)39-13-6-14(29)19-15(30)8-16(40-17(19)7-13)11-2-4-12(28)5-3-11/h2-8,10,18,20-29,31-36H,9H2,1H3/t10-,18+,20-,21+,22+,23-,24+,25+,26+,27+/m0/s1" "InChIKey=FKIYLTVJPDLUDL-SLNHTJRHSA-N" "molecular formula=C27H30O14" "total exact mass=578.1635556399999" "SMILES=CC1C(C(C(C(O1)OCC2C(C(C(C(O2)OC3=CC(=C4C(=C3)OC(=CC4=O)C5=CC=C(C=C5)O)O)O)O)O)O)O)O" "InChI=InChI=1S/C27H30O14/c1-10-20(31)22(33)24(35)26(38-10)37-9-18-21(32)23(34)25(36)27(41-18)39-13-6-14(29)19-15(30)8-16(40-17(19)7-13)11-2-4-12(28)5-3-11/h2-8,10,18,20-29,31-36H,9H2,1H3" "InChIKey=FKIYLTVJPDLUDL-UHFFFAOYSA-N"
Num Peaks: 3
 268 11.411411; 
 269 100.000000; 
 270 15.815816; 


Name: Tiliroside
SYNON: $:00in-source
DB#: MetaboBASE0231
InChIKey: DVGGLGXQSFURLP-VWMSDXGPSA-N
Instrument_type: LC-ESI-TOF
Instrument: impact HD
Ion_mode: N
Collision_energy: 10
InChIKey: DVGGLGXQSFURLP-VWMSDXGPSA-N
Formula: C30H26O13
MW: 594
ExactMass: 594.137340892
Comments: "license=License CC-BY-NC-SA 4.0 International" "author=Plant Biology, The Noble Foundation, Ardmore, OK, US/Dennis Fine, Daniel Wherritt, and Lloyd Sumner" "instrument type=LC-ESI-TOF" "instrument=impact HD" "ionization=ESI" "ionization mode=negative" "collision gas=Nitrogen" "collision energy=10" "peak width=0.024" "date=2013-09-05 06:09:25+02:00" "column=Waters Acquity BEH C18 1.7um x 2.1 x 150 mm" "retention time=546" "raw data file=C:\Data\Confirmed Standards\Reinjection 2 uL\Tiliroside (vial 54).d" "cas number=22153-44-2" "SMILES=c1cc(ccc1/C=C/C(=O)OC[C@@H]2[C@H]([C@@H]([C@H]([C@@H](O2)Oc3c(=O)c4c(cc(cc4oc3c5ccc(cc5)O)O)O)O)O)O)O" "InChI=InChI=1S/C30H26O13/c31-16-6-1-14(2-7-16)3-10-22(35)40-13-21-24(36)26(38)27(39)30(42-21)43-29-25(37)23-19(34)11-18(33)12-20(23)41-28(29)15-4-8-17(32)9-5-15/h1-12,21,24,26-27,30-34,36,38-39H,13H2/b10-3+/t21-,24-,26+,27-,30+/m1/s1" "InChIKey=DVGGLGXQSFURLP-VWMSDXGPSA-N" "molecular formula=C30H26O13" "total exact mass=594.137340892" "SMILES=C1=CC(=CC=C1C=CC(=O)OCC2C(C(C(C(O2)OC3=C(OC4=CC(=CC(=C4C3=O)O)O)C5=CC=C(C=C5)O)O)O)O)O"
Num Peaks: 8
 593 100.000000; 
 594 28.428428; 
 595 6.006006; 
 615 5.505506; 
 616 1.601602; 
 1187 9.809810; 
 1188 6.906907; 
 1189 2.402402; 


Name: Tiliroside
SYNON: $:00in-source
DB#: MetaboBASE0232
InChIKey: DVGGLGXQSFURLP-VWMSDXGPSA-N
Precursor_type: [M-H]-
Spectrum_type: MS2
PrecursorMZ: 593.1353
Instrument_type: LC-ESI-TOF
Instrument: impact HD
Ion_mode: N
Collision_energy: 20
InChIKey: DVGGLGXQSFURLP-VWMSDXGPSA-N
Formula: C30H26O13
MW: 594
ExactMass: 594.137340892
Comments: "license=License CC-BY-NC-SA 4.0 International" "author=Plant Biology, The Noble Foundation, Ardmore, OK, US/Dennis Fine, Daniel Wherritt, and Lloyd Sumner" "instrument type=LC-ESI-TOF" "instrument=impact HD" "ionization=ESI" "ionization mode=negative" "ms level=MS2" "precursor m/z=593.1353" "isolation width=5" "collision gas=Nitrogen" "collision energy=20" "peak width=0.0082" "date=2013-11-16 04:31:01+01:00" "column=Waters Acquity BEH C18 1.7um x 2.1 x 150 mm" "retention time=546" "raw data file=G:\Sumner Lab Data Management Workspace Jun2013\Instrumentation\Bruker maXis QToF MS\Data\Z Lei Confirmed Standards\Confirmed stds MSMS 14Nov13\Tiliroside MSMS (vial 54).d" "precursor type=[M-H]-" "mass accuracy=8.826161585862417" "mass error=0.005235108000078981" "cas number=22153-44-2" "SMILES=c1cc(ccc1/C=C/C(=O)OC[C@@H]2[C@H]([C@@H]([C@H]([C@@H](O2)Oc3c(=O)c4c(cc(cc4oc3c5ccc(cc5)O)O)O)O)O)O)O" "InChI=InChI=1S/C30H26O13/c31-16-6-1-14(2-7-16)3-10-22(35)40-13-21-24(36)26(38)27(39)30(42-21)43-29-25(37)23-19(34)11-18(33)12-20(23)41-28(29)15-4-8-17(32)9-5-15/h1-12,21,24,26-27,30-34,36,38-39H,13H2/b10-3+/t21-,24-,26+,27-,30+/m1/s1" "InChIKey=DVGGLGXQSFURLP-VWMSDXGPSA-N" "molecular formula=C30H26O13" "total exact mass=594.137340892" "SMILES=C1=CC(=CC=C1C=CC(=O)OCC2C(C(C(C(O2)OC3=C(OC4=CC(=CC(=C4C3=O)O)O)C5=CC=C(C=C5)O)O)O)O)O"
Num Peaks: 4
 285 3.103103; 
 593 100.000000; 
 594 23.823824; 
 595 4.304304; 


Name: Tiliroside
SYNON: $:00in-source
DB#: MetaboBASE0233
InChIKey: DVGGLGXQSFURLP-VWMSDXGPSA-N
Precursor_type: [M-H]-
Spectrum_type: MS2
PrecursorMZ: 593.1
Instrument_type: LC-ESI-TOF
Instrument: impact HD
Ion_mode: N
Collision_energy: 50
InChIKey: DVGGLGXQSFURLP-VWMSDXGPSA-N
Formula: C30H26O13
MW: 594
ExactMass: 594.137340892
Comments: "license=License CC-BY-NC-SA 4.0 International" "author=Plant Biology, The Noble Foundation, Ardmore, OK, US/Dennis Fine, Daniel Wherritt, and Lloyd Sumner" "instrument type=LC-ESI-TOF" "instrument=impact HD" "ionization=ESI" "ionization mode=negative" "ms level=MS2" "precursor m/z=593.1" "isolation width=5" "collision gas=Nitrogen" "collision energy=50" "peak width=0.013" "date=2013-11-16 04:31:01+01:00" "column=Waters Acquity BEH C18 1.7um x 2.1 x 150 mm" "retention time=546" "raw data file=G:\Sumner Lab Data Management Workspace Jun2013\Instrumentation\Bruker maXis QToF MS\Data\Z Lei Confirmed Standards\Confirmed stds MSMS 14Nov13\Tiliroside MSMS (vial 54).d" "precursor type=[M-H]-" "mass accuracy=50.6911009946511" "mass error=-0.030064891999927568" "cas number=22153-44-2" "SMILES=c1cc(ccc1/C=C/C(=O)OC[C@@H]2[C@H]([C@@H]([C@H]([C@@H](O2)Oc3c(=O)c4c(cc(cc4oc3c5ccc(cc5)O)O)O)O)O)O)O" "InChI=InChI=1S/C30H26O13/c31-16-6-1-14(2-7-16)3-10-22(35)40-13-21-24(36)26(38)27(39)30(42-21)43-29-25(37)23-19(34)11-18(33)12-20(23)41-28(29)15-4-8-17(32)9-5-15/h1-12,21,24,26-27,30-34,36,38-39H,13H2/b10-3+/t21-,24-,26+,27-,30+/m1/s1" "InChIKey=DVGGLGXQSFURLP-VWMSDXGPSA-N" "molecular formula=C30H26O13" "total exact mass=594.137340892" "SMILES=C1=CC(=CC=C1C=CC(=O)OCC2C(C(C(C(O2)OC3=C(OC4=CC(=CC(=C4C3=O)O)O)C5=CC=C(C=C5)O)O)O)O)O"
Num Peaks: 9
 145 3.303303; 
 227 12.312312; 
 229 4.104104; 
 255 30.330330; 
 256 10.210210; 
 257 6.306306; 
 284 100.000000; 
 285 60.260260; 
 286 6.706707; 


Name: Tiliroside
SYNON: $:00in-source
DB#: MetaboBASE0234
InChIKey: DVGGLGXQSFURLP-VWMSDXGPSA-N
Precursor_type: [M-H]-
Spectrum_type: MS2
PrecursorMZ: 593.1351
Instrument_type: LC-ESI-TOF
Instrument: impact HD
Ion_mode: N
Collision_energy: 40
InChIKey: DVGGLGXQSFURLP-VWMSDXGPSA-N
Formula: C30H26O13
MW: 594
ExactMass: 594.137340892
Comments: "license=License CC-BY-NC-SA 4.0 International" "author=Plant Biology, The Noble Foundation, Ardmore, OK, US/Dennis Fine, Daniel Wherritt, and Lloyd Sumner" "instrument type=LC-ESI-TOF" "instrument=impact HD" "ionization=ESI" "ionization mode=negative" "ms level=MS2" "precursor m/z=593.1351" "isolation width=5" "collision gas=Nitrogen" "collision energy=40" "peak width=0.016" "date=2013-11-16 04:31:01+01:00" "column=Waters Acquity BEH C18 1.7um x 2.1 x 150 mm" "retention time=546" "raw data file=G:\Sumner Lab Data Management Workspace Jun2013\Instrumentation\Bruker maXis QToF MS\Data\Z Lei Confirmed Standards\Confirmed stds MSMS 14Nov13\Tiliroside MSMS (vial 54).d" "precursor type=[M-H]-" "mass accuracy=8.4889732541802" "mass error=0.005035108000015498" "cas number=22153-44-2" "SMILES=c1cc(ccc1/C=C/C(=O)OC[C@@H]2[C@H]([C@@H]([C@H]([C@@H](O2)Oc3c(=O)c4c(cc(cc4oc3c5ccc(cc5)O)O)O)O)O)O)O" "InChI=InChI=1S/C30H26O13/c31-16-6-1-14(2-7-16)3-10-22(35)40-13-21-24(36)26(38)27(39)30(42-21)43-29-25(37)23-19(34)11-18(33)12-20(23)41-28(29)15-4-8-17(32)9-5-15/h1-12,21,24,26-27,30-34,36,38-39H,13H2/b10-3+/t21-,24-,26+,27-,30+/m1/s1" "InChIKey=DVGGLGXQSFURLP-VWMSDXGPSA-N" "molecular formula=C30H26O13" "total exact mass=594.137340892" "SMILES=C1=CC(=CC=C1C=CC(=O)OCC2C(C(C(C(O2)OC3=C(OC4=CC(=CC(=C4C3=O)O)O)C5=CC=C(C=C5)O)O)O)O)O"
Num Peaks: 10
 145 2.202202; 
 227 2.302302; 
 255 5.705706; 
 256 2.702703; 
 284 100.000000; 
 285 92.592593; 
 286 10.410410; 
 307 2.302302; 
 447 2.402402; 
 593 5.505506; 


Name: Luteolin-7,3'-di-O-glucoside
SYNON: $:00in-source
DB#: MetaboBASE0235
InChIKey: BISZYPSIZGKOFA-ODYYMYHNSA-N
Precursor_type: [M-H]-
Spectrum_type: MS2
PrecursorMZ: 609.1514
Instrument_type: LC-ESI-TOF
Instrument: impact HD
Ion_mode: N
Collision_energy: 20
InChIKey: BISZYPSIZGKOFA-ODYYMYHNSA-N
Formula: C27H30O16
MW: 610
ExactMass: 610.15338488
Comments: "license=License CC-BY-NC-SA 4.0 International" "author=Plant Biology, The Noble Foundation, Ardmore, OK, US/Dennis Fine, Daniel Wherritt, and Lloyd Sumner" "instrument type=LC-ESI-TOF" "instrument=impact HD" "ionization=ESI" "ionization mode=negative" "ms level=MS2" "precursor m/z=609.1514" "isolation width=5" "collision gas=Nitrogen" "collision energy=20" "peak width=0.015" "date=2013-11-16 06:33:44+01:00" "column=Waters Acquity BEH C18 1.7um x 2.1 x 150 mm" "retention time=288" "raw data file=C:\Data\Confirmed Standards\Confirmed stds MSMS 14Nov13\Luetolin 7,3'Diglucoside MSMS .d" "precursor type=[M-H]-" "mass accuracy=8.686050791376434" "mass error=0.005291120000038063" "cas number=52187-80-1" "SMILES=C1=CC(=C(C=C1C2=CC(=O)C3=C(C=C(C=C3O2)OC4C(C(C(C(O4)CO)O)O)O)O)OC5C(C(C(C(O5)CO)O)O)O)O" "InChI=InChI=1S/C27H30O16/c28-7-17-20(33)22(35)24(37)26(42-17)39-10-4-12(31)19-13(32)6-14(40-16(19)5-10)9-1-2-11(30)15(3-9)41-27-25(38)23(36)21(34)18(8-29)43-27/h1-6,17-18,20-31,33-38H,7-8H2/t17?,18?,20-,21-,22-,23-,24?,25?,26-,27-/m1/s1" "InChIKey=BISZYPSIZGKOFA-ODYYMYHNSA-N" "molecular formula=C27H30O16" "total exact mass=610.15338488" "SMILES=C1=CC(=C(C=C1C2=CC(=O)C3=C(C=C(C=C3O2)OC4C(C(C(C(O4)CO)O)O)O)O)OC5C(C(C(C(O5)CO)O)O)O)O" "InChI=InChI=1S/C27H30O16/c28-7-17-20(33)22(35)24(37)26(42-17)39-10-4-12(31)19-13(32)6-14(40-16(19)5-10)9-1-2-11(30)15(3-9)41-27-25(38)23(36)21(34)18(8-29)43-27/h1-6,17-18,20-31,33-38H,7-8H2" "InChIKey=BISZYPSIZGKOFA-UHFFFAOYSA-N"
Num Peaks: 7
 285 5.105105; 
 447 69.569570; 
 448 13.613614; 
 449 4.604605; 
 609 100.000000; 
 610 27.827828; 
 611 4.004004; 


Name: Luteolin-7,3'-di-O-glucoside
SYNON: $:00in-source
DB#: MetaboBASE0236
InChIKey: BISZYPSIZGKOFA-ODYYMYHNSA-N
Precursor_type: [M-H]-
Spectrum_type: MS2
PrecursorMZ: 609.14
Instrument_type: LC-ESI-TOF
Instrument: impact HD
Ion_mode: N
Collision_energy: 40
InChIKey: BISZYPSIZGKOFA-ODYYMYHNSA-N
Formula: C27H30O16
MW: 610
ExactMass: 610.15338488
Comments: "license=License CC-BY-NC-SA 4.0 International" "author=Plant Biology, The Noble Foundation, Ardmore, OK, US/Dennis Fine, Daniel Wherritt, and Lloyd Sumner" "instrument type=LC-ESI-TOF" "instrument=impact HD" "ionization=ESI" "ionization mode=negative" "ms level=MS2" "precursor m/z=609.14" "isolation width=5" "collision gas=Nitrogen" "collision energy=40" "peak width=0.015" "date=2013-11-16 06:33:44+01:00" "column=Waters Acquity BEH C18 1.7um x 2.1 x 150 mm" "retention time=288" "raw data file=C:\Data\Confirmed Standards\Confirmed stds MSMS 14Nov13\Luetolin 7,3'Diglucoside MSMS .d" "precursor type=[M-H]-" "mass accuracy=10.02869619454062" "mass error=-0.006108879999942474" "cas number=52187-80-1" "SMILES=C1=CC(=C(C=C1C2=CC(=O)C3=C(C=C(C=C3O2)OC4C(C(C(C(O4)CO)O)O)O)O)OC5C(C(C(C(O5)CO)O)O)O)O" "InChI=InChI=1S/C27H30O16/c28-7-17-20(33)22(35)24(37)26(42-17)39-10-4-12(31)19-13(32)6-14(40-16(19)5-10)9-1-2-11(30)15(3-9)41-27-25(38)23(36)21(34)18(8-29)43-27/h1-6,17-18,20-31,33-38H,7-8H2/t17?,18?,20-,21-,22-,23-,24?,25?,26-,27-/m1/s1" "InChIKey=BISZYPSIZGKOFA-ODYYMYHNSA-N" "molecular formula=C27H30O16" "total exact mass=610.15338488" "SMILES=C1=CC(=C(C=C1C2=CC(=O)C3=C(C=C(C=C3O2)OC4C(C(C(C(O4)CO)O)O)O)O)OC5C(C(C(C(O5)CO)O)O)O)O" "InChI=InChI=1S/C27H30O16/c28-7-17-20(33)22(35)24(37)26(42-17)39-10-4-12(31)19-13(32)6-14(40-16(19)5-10)9-1-2-11(30)15(3-9)41-27-25(38)23(36)21(34)18(8-29)43-27/h1-6,17-18,20-31,33-38H,7-8H2" "InChIKey=BISZYPSIZGKOFA-UHFFFAOYSA-N"
Num Peaks: 7
 284 5.705706; 
 285 98.898899; 
 286 12.312312; 
 287 2.102102; 
 447 100.000000; 
 448 16.116116; 
 449 3.303303; 


Name: Luteolin-7,3'-di-O-glucoside
SYNON: $:00in-source
DB#: MetaboBASE0237
InChIKey: BISZYPSIZGKOFA-ODYYMYHNSA-N
Precursor_type: [M-H]-
Spectrum_type: MS2
PrecursorMZ: 609.14
Instrument_type: LC-ESI-TOF
Instrument: impact HD
Ion_mode: N
Collision_energy: 60
InChIKey: BISZYPSIZGKOFA-ODYYMYHNSA-N
Formula: C27H30O16
MW: 610
ExactMass: 610.1533848800001
Comments: "license=License CC-BY-NC-SA 4.0 International" "author=Plant Biology, The Noble Foundation, Ardmore, OK, US/Dennis Fine, Daniel Wherritt, and Lloyd Sumner" "instrument type=LC-ESI-TOF" "instrument=impact HD" "ionization=ESI" "ionization mode=negative" "ms level=MS2" "precursor m/z=609.14" "isolation width=5" "collision gas=Nitrogen" "collision energy=60" "peak width=0.015" "date=2013-11-16 06:33:44+01:00" "column=Waters Acquity BEH C18 1.7um x 2.1 x 150 mm" "retention time=288" "raw data file=C:\Data\Confirmed Standards\Confirmed stds MSMS 14Nov13\Luetolin 7,3'Diglucoside MSMS .d" "precursor type=[M-H]-" "mass accuracy=10.028696194727255" "mass error=-0.0061088800000561605" "cas number=52187-80-1" "SMILES=C1=CC(=C(C=C1C2=CC(=O)C3=C(C=C(C=C3O2)OC4C(C(C(C(O4)CO)O)O)O)O)OC5C(C(C(C(O5)CO)O)O)O)O" "InChI=InChI=1S/C27H30O16/c28-7-17-20(33)22(35)24(37)26(42-17)39-10-4-12(31)19-13(32)6-14(40-16(19)5-10)9-1-2-11(30)15(3-9)41-27-25(38)23(36)21(34)18(8-29)43-27/h1-6,17-18,20-31,33-38H,7-8H2/t17?,18?,20-,21-,22-,23-,24?,25?,26-,27-/m1/s1" "InChIKey=BISZYPSIZGKOFA-ODYYMYHNSA-N" "molecular formula=C27H30O16" "total exact mass=610.1533848800001" "SMILES=C1=CC(=C(C=C1C2=CC(=O)C3=C(C=C(C=C3O2)OC4C(C(C(C(O4)CO)O)O)O)O)OC5C(C(C(C(O5)CO)O)O)O)O" "InChI=InChI=1S/C27H30O16/c28-7-17-20(33)22(35)24(37)26(42-17)39-10-4-12(31)19-13(32)6-14(40-16(19)5-10)9-1-2-11(30)15(3-9)41-27-25(38)23(36)21(34)18(8-29)43-27/h1-6,17-18,20-31,33-38H,7-8H2" "InChIKey=BISZYPSIZGKOFA-UHFFFAOYSA-N"
Num Peaks: 8
 255 4.404404; 
 283 8.208208; 
 284 39.039039; 
 285 100.000000; 
 286 15.815816; 
 287 2.702703; 
 447 6.806807; 
 448 2.002002; 


Name: Luteolin-7,3'-di-O-glucoside
SYNON: $:00in-source
DB#: MetaboBASE0238
InChIKey: BISZYPSIZGKOFA-ODYYMYHNSA-N
Instrument_type: LC-ESI-TOF
Instrument: impact HD
Ion_mode: N
Collision_energy: 10
InChIKey: BISZYPSIZGKOFA-ODYYMYHNSA-N
Formula: C27H30O16
MW: 610
ExactMass: 610.1533848800001
Comments: "license=License CC-BY-NC-SA 4.0 International" "author=Plant Biology, The Noble Foundation, Ardmore, OK, US/Dennis Fine, Daniel Wherritt, and Lloyd Sumner" "instrument type=LC-ESI-TOF" "instrument=impact HD" "ionization=ESI" "ionization mode=negative" "collision gas=Nitrogen" "collision energy=10" "peak width=0.025" "date=2013-09-05 08:11:42+02:00" "column=Waters Acquity BEH C18 1.7um x 2.1 x 150 mm" "retention time=288" "raw data file=C:\Data\Confirmed Standards\Reinjection 2 uL\Luteolin-7,3'-di-O-glucoside.d" "cas number=52187-80-1" "SMILES=C1=CC(=C(C=C1C2=CC(=O)C3=C(C=C(C=C3O2)OC4C(C(C(C(O4)CO)O)O)O)O)OC5C(C(C(C(O5)CO)O)O)O)O" "InChI=InChI=1S/C27H30O16/c28-7-17-20(33)22(35)24(37)26(42-17)39-10-4-12(31)19-13(32)6-14(40-16(19)5-10)9-1-2-11(30)15(3-9)41-27-25(38)23(36)21(34)18(8-29)43-27/h1-6,17-18,20-31,33-38H,7-8H2/t17?,18?,20-,21-,22-,23-,24?,25?,26-,27-/m1/s1" "InChIKey=BISZYPSIZGKOFA-ODYYMYHNSA-N" "molecular formula=C27H30O16" "total exact mass=610.1533848800001" "SMILES=C1=CC(=C(C=C1C2=CC(=O)C3=C(C=C(C=C3O2)OC4C(C(C(C(O4)CO)O)O)O)O)OC5C(C(C(C(O5)CO)O)O)O)O" "InChI=InChI=1S/C27H30O16/c28-7-17-20(33)22(35)24(37)26(42-17)39-10-4-12(31)19-13(32)6-14(40-16(19)5-10)9-1-2-11(30)15(3-9)41-27-25(38)23(36)21(34)18(8-29)43-27/h1-6,17-18,20-31,33-38H,7-8H2" "InChIKey=BISZYPSIZGKOFA-UHFFFAOYSA-N"
Num Peaks: 8
 447 1.901902; 
 609 100.000000; 
 610 25.225225; 
 611 5.205205; 
 677 3.303303; 
 1219 8.208208; 
 1220 4.504505; 
 1221 1.501502; 


Name: Luteolin-7,3'-di-O-glucoside
SYNON: $:00in-source
DB#: MetaboBASE0239
InChIKey: BISZYPSIZGKOFA-ODYYMYHNSA-N
Precursor_type: [M-H]-
Spectrum_type: MS2
PrecursorMZ: 609.14
Instrument_type: LC-ESI-TOF
Instrument: impact HD
Ion_mode: N
Collision_energy: 50
InChIKey: BISZYPSIZGKOFA-ODYYMYHNSA-N
Formula: C27H30O16
MW: 610
ExactMass: 610.1533848800001
Comments: "license=License CC-BY-NC-SA 4.0 International" "author=Plant Biology, The Noble Foundation, Ardmore, OK, US/Dennis Fine, Daniel Wherritt, and Lloyd Sumner" "instrument type=LC-ESI-TOF" "instrument=impact HD" "ionization=ESI" "ionization mode=negative" "ms level=MS2" "precursor m/z=609.14" "isolation width=5" "collision gas=Nitrogen" "collision energy=50" "peak width=0.015" "date=2013-11-16 06:33:44+01:00" "column=Waters Acquity BEH C18 1.7um x 2.1 x 150 mm" "retention time=288" "raw data file=C:\Data\Confirmed Standards\Confirmed stds MSMS 14Nov13\Luetolin 7,3'Diglucoside MSMS .d" "precursor type=[M-H]-" "mass accuracy=10.028696194727255" "mass error=-0.0061088800000561605" "cas number=52187-80-1" "SMILES=C1=CC(=C(C=C1C2=CC(=O)C3=C(C=C(C=C3O2)OC4C(C(C(C(O4)CO)O)O)O)O)OC5C(C(C(C(O5)CO)O)O)O)O" "InChI=InChI=1S/C27H30O16/c28-7-17-20(33)22(35)24(37)26(42-17)39-10-4-12(31)19-13(32)6-14(40-16(19)5-10)9-1-2-11(30)15(3-9)41-27-25(38)23(36)21(34)18(8-29)43-27/h1-6,17-18,20-31,33-38H,7-8H2/t17?,18?,20-,21-,22-,23-,24?,25?,26-,27-/m1/s1" "InChIKey=BISZYPSIZGKOFA-ODYYMYHNSA-N" "molecular formula=C27H30O16" "total exact mass=610.1533848800001" "SMILES=C1=CC(=C(C=C1C2=CC(=O)C3=C(C=C(C=C3O2)OC4C(C(C(C(O4)CO)O)O)O)O)OC5C(C(C(C(O5)CO)O)O)O)O" "InChI=InChI=1S/C27H30O16/c28-7-17-20(33)22(35)24(37)26(42-17)39-10-4-12(31)19-13(32)6-14(40-16(19)5-10)9-1-2-11(30)15(3-9)41-27-25(38)23(36)21(34)18(8-29)43-27/h1-6,17-18,20-31,33-38H,7-8H2" "InChIKey=BISZYPSIZGKOFA-UHFFFAOYSA-N"
Num Peaks: 6
 283 2.102102; 
 284 13.613614; 
 285 100.000000; 
 286 11.011011; 
 447 26.426426; 
 448 4.704705; 


Name: Hederagenin
SYNON: $:00in-source
DB#: MetaboBASE0240
InChIKey: PGOYMURMZNDHNS-MYPRUECHSA-N
Precursor_type: [M-H]-
Spectrum_type: MS2
PrecursorMZ: 471.3573
Instrument_type: LC-ESI-TOF
Instrument: impact HD
Ion_mode: N
Collision_energy: 40
InChIKey: PGOYMURMZNDHNS-MYPRUECHSA-N
Formula: C30H48O4
MW: 472
ExactMass: 472.355260016
Comments: "license=License CC-BY-NC-SA 4.0 International" "author=Plant Biology, The Noble Foundation, Ardmore, OK, US/Dennis Fine, Daniel Wherritt, and Lloyd Sumner" "instrument type=LC-ESI-TOF" "instrument=impact HD" "ionization=ESI" "ionization mode=negative" "ms level=MS2" "precursor m/z=471.3573" "isolation width=5" "collision gas=Nitrogen" "collision energy=40" "peak width=0.015" "date=2013-11-18 20:49:58+01:00" "column=Waters Acquity BEH C18 1.7um x 2.1 x 150 mm" "retention time=1343.4" "raw data file=C:\Data\Confirmed Standards\Confirmed stds MSMS 14Nov13\Hederagenin MSMS (vial 70).d" "precursor type=[M-H]-" "mass accuracy=19.76416616441755" "mass error=0.009315984000011213" "cas number=465-99-6" "SMILES=C[C@]12CC[C@@H]([C@@]([C@@H]1CC[C@@]3([C@@H]2CC=C4[C@]3(CC[C@@]5([C@H]4CC(CC5)(C)C)C(=O)O)C)C)(C)CO)O" "InChI=InChI=1S/C30H48O4/c1-25(2)13-15-30(24(33)34)16-14-28(5)19(20(30)17-25)7-8-22-26(3)11-10-23(32)27(4,18-31)21(26)9-12-29(22,28)6/h7,20-23,31-32H,8-18H2,1-6H3,(H,33,34)/t20-,21+,22+,23-,26-,27-,28+,29+,30-/m0/s1" "InChIKey=PGOYMURMZNDHNS-MYPRUECHSA-N" "molecular formula=C30H48O4" "total exact mass=472.355260016" "SMILES=CC12CCC(C(C1CCC3(C2CC=C4C3(CCC5(C4CC(CC5)(C)C)C(=O)O)C)C)(C)CO)O"
Num Peaks: 4
 407 15.215215; 
 471 100.000000; 
 472 33.833834; 
 473 8.108108; 


Name: Hederagenin
SYNON: $:00in-source
DB#: MetaboBASE0241
InChIKey: PGOYMURMZNDHNS-MYPRUECHSA-N
Instrument_type: LC-ESI-TOF
Instrument: impact HD
Ion_mode: N
Collision_energy: 10
InChIKey: PGOYMURMZNDHNS-MYPRUECHSA-N
Formula: C30H48O4
MW: 472
ExactMass: 472.355260016
Comments: "license=License CC-BY-NC-SA 4.0 International" "author=Plant Biology, The Noble Foundation, Ardmore, OK, US/Dennis Fine, Daniel Wherritt, and Lloyd Sumner" "instrument type=LC-ESI-TOF" "instrument=impact HD" "ionization=ESI" "ionization mode=negative" "collision gas=Nitrogen" "collision energy=10" "peak width=0.02" "date=2013-11-07 03:23:24+01:00" "column=Waters Acquity BEH C18 1.7um x 2.1 x 150 mm" "retention time=1343.4" "raw data file=C:\Data\Confirmed Standards\Confirmed Stds 6Nov13\Hederagenin (vial 70).d" "cas number=465-99-6" "SMILES=C[C@]12CC[C@@H]([C@@]([C@@H]1CC[C@@]3([C@@H]2CC=C4[C@]3(CC[C@@]5([C@H]4CC(CC5)(C)C)C(=O)O)C)C)(C)CO)O" "InChI=InChI=1S/C30H48O4/c1-25(2)13-15-30(24(33)34)16-14-28(5)19(20(30)17-25)7-8-22-26(3)11-10-23(32)27(4,18-31)21(26)9-12-29(22,28)6/h7,20-23,31-32H,8-18H2,1-6H3,(H,33,34)/t20-,21+,22+,23-,26-,27-,28+,29+,30-/m0/s1" "InChIKey=PGOYMURMZNDHNS-MYPRUECHSA-N" "molecular formula=C30H48O4" "total exact mass=472.355260016" "SMILES=CC12CCC(C(C1CCC3(C2CC=C4C3(CCC5(C4CC(CC5)(C)C)C(=O)O)C)C)(C)CO)O"
Num Peaks: 13
 471 100.000000; 
 472 27.127127; 
 473 4.104104; 
 539 7.307307; 
 540 2.202202; 
 607 1.801802; 
 943 15.515516; 
 944 9.209209; 
 945 2.702703; 
 965 2.102102; 
 966 1.201201; 
 1416 1.301301; 
 1417 1.301301; 


Name: 7-Hydroxy-4'-methoxyflavone
SYNON: $:00in-source
DB#: MetaboBASE0242
InChIKey: SQVXWIUVAILQRH-UHFFFAOYSA-N
Instrument_type: LC-ESI-TOF
Instrument: impact HD
Ion_mode: N
Collision_energy: 10
InChIKey: SQVXWIUVAILQRH-UHFFFAOYSA-N
Formula: C16H12O4
MW: 268
ExactMass: 268.073558864
Comments: "license=License CC-BY-NC-SA 4.0 International" "author=Plant Biology, The Noble Foundation, Ardmore, OK, US/Dennis Fine, Daniel Wherritt, and Lloyd Sumner" "instrument type=LC-ESI-TOF" "instrument=impact HD" "ionization=ESI" "ionization mode=negative" "collision gas=Nitrogen" "collision energy=10" "peak width=0.017" "date=2013-11-07 06:06:28+01:00" "column=Waters Acquity BEH C18 1.7um x 2.1 x 150 mm" "retention time=694.2" "raw data file=C:\Data\Confirmed Standards\Confirmed Stds 6Nov13\7-Hydroxy4-methoxyflavone.d" "cas number=487-17-2" "SMILES=COc1ccc(cc1)c2cc(=O)c3ccc(cc3o2)O" "InChI=InChI=1S/C16H12O4/c1-19-12-5-2-10(3-6-12)15-9-14(18)13-7-4-11(17)8-16(13)20-15/h2-9,17H,1H3" "InChIKey=SQVXWIUVAILQRH-UHFFFAOYSA-N" "molecular formula=C16H12O4" "total exact mass=268.073558864" "SMILES=COC1=CC=C(C=C1)C2=CC(=O)C3=C(O2)C=C(C=C3)O"
Num Peaks: 5
 252 12.212212; 
 253 1.701702; 
 267 100.000000; 
 268 15.415415; 
 269 1.801802; 


Name: 7-Hydroxy-4'-methoxyflavone
SYNON: $:00in-source
DB#: MetaboBASE0243
InChIKey: SQVXWIUVAILQRH-UHFFFAOYSA-N
Instrument_type: LC-ESI-TOF
Instrument: impact HD
Ion_mode: N
InChIKey: SQVXWIUVAILQRH-UHFFFAOYSA-N
Formula: C16H12O4
MW: 268
ExactMass: 268.073558864
Comments: "license=License CC-BY-NC-SA 4.0 International" "author=Plant Biology, The Noble Foundation, Ardmore, OK, US/Dennis Fine, Daniel Wherritt, and Lloyd Sumner" "instrument type=LC-ESI-TOF" "instrument=impact HD" "ionization=ESI" "ionization mode=negative" "collision gas=Nitrogen" "peak width=0.014" "date=2013-11-23 00:43:36+01:00" "column=Waters Acquity BEH C18 1.7um x 2.1 x 150 mm" "retention time=694.2" "raw data file=C:\Data\Confirmed Standards\Confirmed stds MSMS 22Nov13\7Methoxy4'hydroxyflavone MSMS.d" "cas number=487-17-2" "SMILES=COc1ccc(cc1)c2cc(=O)c3ccc(cc3o2)O" "InChI=InChI=1S/C16H12O4/c1-19-12-5-2-10(3-6-12)15-9-14(18)13-7-4-11(17)8-16(13)20-15/h2-9,17H,1H3" "InChIKey=SQVXWIUVAILQRH-UHFFFAOYSA-N" "molecular formula=C16H12O4" "total exact mass=268.073558864" "SMILES=COC1=CC=C(C=C1)C2=CC(=O)C3=C(O2)C=C(C=C3)O"
Num Peaks: 20
 117 29.129129; 
 118 2.002002; 
 132 0.500501; 
 135 1.701702; 
 167 0.600601; 
 195 1.601602; 
 223 2.402402; 
 224 0.700701; 
 252 42.942943; 
 253 5.205205; 
 254 0.600601; 
 267 100.000000; 
 268 11.811812; 
 269 1.301301; 
 535 1.801802; 
 536 0.600601; 
 557 1.501502; 
 857 1.001001; 
 1124 1.701702; 
 1125 1.101101; 


Name: 7-Hydroxy-4'-methoxyflavone
SYNON: $:00in-source
DB#: MetaboBASE0244
InChIKey: SQVXWIUVAILQRH-UHFFFAOYSA-N
Precursor_type: [M-H]-
Spectrum_type: MS2
PrecursorMZ: 267.0661
Instrument_type: LC-ESI-TOF
Instrument: impact HD
Ion_mode: N
Collision_energy: 30
InChIKey: SQVXWIUVAILQRH-UHFFFAOYSA-N
Formula: C16H12O4
MW: 268
ExactMass: 268.073558864
Comments: "license=License CC-BY-NC-SA 4.0 International" "author=Plant Biology, The Noble Foundation, Ardmore, OK, US/Dennis Fine, Daniel Wherritt, and Lloyd Sumner" "instrument type=LC-ESI-TOF" "instrument=impact HD" "ionization=ESI" "ionization mode=negative" "ms level=MS2" "precursor m/z=267.0661" "isolation width=5" "collision gas=Nitrogen" "collision energy=30" "peak width=0.015" "date=2013-11-23 00:43:36+01:00" "column=Waters Acquity BEH C18 1.7um x 2.1 x 150 mm" "retention time=694.2" "raw data file=C:\Data\Confirmed Standards\Confirmed stds MSMS 22Nov13\7Methoxy4'hydroxyflavone MSMS.d" "precursor type=[M-H]-" "mass accuracy=0.6847143834799166" "mass error=-1.8286400000988579E-4" "cas number=487-17-2" "SMILES=COc1ccc(cc1)c2cc(=O)c3ccc(cc3o2)O" "InChI=InChI=1S/C16H12O4/c1-19-12-5-2-10(3-6-12)15-9-14(18)13-7-4-11(17)8-16(13)20-15/h2-9,17H,1H3" "InChIKey=SQVXWIUVAILQRH-UHFFFAOYSA-N" "molecular formula=C16H12O4" "total exact mass=268.073558864" "SMILES=COC1=CC=C(C=C1)C2=CC(=O)C3=C(O2)C=C(C=C3)O"
Num Peaks: 23
 108 1.401401; 
 116 0.500501; 
 117 76.676677; 
 118 5.305305; 
 119 0.400400; 
 132 1.401401; 
 135 6.506507; 
 136 0.400400; 
 147 1.401401; 
 148 0.400400; 
 153 0.900901; 
 195 1.001001; 
 196 1.501502; 
 198 0.400400; 
 223 13.113113; 
 224 7.707708; 
 225 1.101101; 
 251 2.702703; 
 252 100.000000; 
 253 11.111111; 
 254 0.800801; 
 267 3.903904; 
 268 0.400400; 


Name: 7-Hydroxy-4'-methoxyflavone
SYNON: $:00in-source
DB#: MetaboBASE0245
InChIKey: SQVXWIUVAILQRH-UHFFFAOYSA-N
Precursor_type: [M-H]-
Spectrum_type: MS2
PrecursorMZ: 267.1
Instrument_type: LC-ESI-TOF
Instrument: impact HD
Ion_mode: N
Collision_energy: 50
InChIKey: SQVXWIUVAILQRH-UHFFFAOYSA-N
Formula: C16H12O4
MW: 268
ExactMass: 268.073558864
Comments: "license=License CC-BY-NC-SA 4.0 International" "author=Plant Biology, The Noble Foundation, Ardmore, OK, US/Dennis Fine, Daniel Wherritt, and Lloyd Sumner" "instrument type=LC-ESI-TOF" "instrument=impact HD" "ionization=ESI" "ionization mode=negative" "ms level=MS2" "precursor m/z=267.1" "isolation width=5" "collision gas=Nitrogen" "collision energy=50" "peak width=0.022" "date=2013-11-08 01:57:00+01:00" "column=Waters Acquity BEH C18 1.7um x 2.1 x 150 mm" "retention time=694.2" "raw data file=C:\Data\Confirmed Standards\Confirmed Stds 7Nov13\7-Hydroxy4-methoxyflavone MSMS.d" "precursor type=[M-H]-" "mass accuracy=126.23412953952464" "mass error=0.03371713600000703" "cas number=487-17-2" "SMILES=COc1ccc(cc1)c2cc(=O)c3ccc(cc3o2)O" "InChI=InChI=1S/C16H12O4/c1-19-12-5-2-10(3-6-12)15-9-14(18)13-7-4-11(17)8-16(13)20-15/h2-9,17H,1H3" "InChIKey=SQVXWIUVAILQRH-UHFFFAOYSA-N" "molecular formula=C16H12O4" "total exact mass=268.073558864" "SMILES=COC1=CC=C(C=C1)C2=CC(=O)C3=C(O2)C=C(C=C3)O"
Num Peaks: 17
 107 2.702703; 
 116 27.727728; 
 117 41.141141; 
 118 2.402402; 
 132 3.403403; 
 135 92.392392; 
 136 6.206206; 
 153 7.907908; 
 167 19.119119; 
 168 4.304304; 
 195 68.668669; 
 196 11.111111; 
 223 100.000000; 
 224 17.717718; 
 225 2.702703; 
 251 2.602603; 
 252 5.805806; 


Name: 7-Hydroxy-4'-methoxyflavone
SYNON: $:00in-source
DB#: MetaboBASE0246
InChIKey: SQVXWIUVAILQRH-UHFFFAOYSA-N
Precursor_type: [M-H]-
Spectrum_type: MS2
PrecursorMZ: 267.07
Instrument_type: LC-ESI-TOF
Instrument: impact HD
Ion_mode: N
Collision_energy: 40
InChIKey: SQVXWIUVAILQRH-UHFFFAOYSA-N
Formula: C16H12O4
MW: 268
ExactMass: 268.073558864
Comments: "license=License CC-BY-NC-SA 4.0 International" "author=Plant Biology, The Noble Foundation, Ardmore, OK, US/Dennis Fine, Daniel Wherritt, and Lloyd Sumner" "instrument type=LC-ESI-TOF" "instrument=impact HD" "ionization=ESI" "ionization mode=negative" "ms level=MS2" "precursor m/z=267.07" "isolation width=5" "collision gas=Nitrogen" "collision energy=40" "peak width=0.015" "date=2013-11-23 00:43:36+01:00" "column=Waters Acquity BEH C18 1.7um x 2.1 x 150 mm" "retention time=694.2" "raw data file=C:\Data\Confirmed Standards\Confirmed stds MSMS 22Nov13\7Methoxy4'hydroxyflavone MSMS.d" "precursor type=[M-H]-" "mass accuracy=13.91820870924279" "mass error=0.0037171359999774722" "cas number=487-17-2" "SMILES=COc1ccc(cc1)c2cc(=O)c3ccc(cc3o2)O" "InChI=InChI=1S/C16H12O4/c1-19-12-5-2-10(3-6-12)15-9-14(18)13-7-4-11(17)8-16(13)20-15/h2-9,17H,1H3" "InChIKey=SQVXWIUVAILQRH-UHFFFAOYSA-N" "molecular formula=C16H12O4" "total exact mass=268.073558864" "SMILES=COC1=CC=C(C=C1)C2=CC(=O)C3=C(O2)C=C(C=C3)O"
Num Peaks: 18
 108 2.202202; 
 116 1.001001; 
 117 100.000000; 
 118 5.405405; 
 119 0.700701; 
 132 2.302302; 
 135 11.911912; 
 136 0.800801; 
 153 0.500501; 
 167 0.800801; 
 182 0.500501; 
 195 3.903904; 
 196 1.901902; 
 223 14.114114; 
 224 4.104104; 
 251 1.101101; 
 252 7.107107; 
 253 1.501502; 


Name: 7-Hydroxy-4'-methoxyflavone
SYNON: $:00in-source
DB#: MetaboBASE0247
InChIKey: SQVXWIUVAILQRH-UHFFFAOYSA-N
Precursor_type: [M-H]-
Spectrum_type: MS2
PrecursorMZ: 267.0669
Instrument_type: LC-ESI-TOF
Instrument: impact HD
Ion_mode: N
Collision_energy: 20
InChIKey: SQVXWIUVAILQRH-UHFFFAOYSA-N
Formula: C16H12O4
MW: 268
ExactMass: 268.073558864
Comments: "license=License CC-BY-NC-SA 4.0 International" "author=Plant Biology, The Noble Foundation, Ardmore, OK, US/Dennis Fine, Daniel Wherritt, and Lloyd Sumner" "instrument type=LC-ESI-TOF" "instrument=impact HD" "ionization=ESI" "ionization mode=negative" "ms level=MS2" "precursor m/z=267.0669" "isolation width=5" "collision gas=Nitrogen" "collision energy=20" "peak width=0.013" "date=2013-11-23 00:43:36+01:00" "column=Waters Acquity BEH C18 1.7um x 2.1 x 150 mm" "retention time=694.2" "raw data file=C:\Data\Confirmed Standards\Confirmed stds MSMS 22Nov13\7Methoxy4'hydroxyflavone MSMS.d" "precursor type=[M-H]-" "mass accuracy=2.3107917902212067" "mass error=6.17135999959828E-4" "cas number=487-17-2" "SMILES=COc1ccc(cc1)c2cc(=O)c3ccc(cc3o2)O" "InChI=InChI=1S/C16H12O4/c1-19-12-5-2-10(3-6-12)15-9-14(18)13-7-4-11(17)8-16(13)20-15/h2-9,17H,1H3" "InChIKey=SQVXWIUVAILQRH-UHFFFAOYSA-N" "molecular formula=C16H12O4" "total exact mass=268.073558864" "SMILES=COC1=CC=C(C=C1)C2=CC(=O)C3=C(O2)C=C(C=C3)O"
Num Peaks: 14
 117 13.113113; 
 118 0.800801; 
 135 0.500501; 
 147 0.400400; 
 223 1.101101; 
 224 1.001001; 
 225 0.200200; 
 251 0.300300; 
 252 100.000000; 
 253 9.509510; 
 254 1.001001; 
 267 70.770771; 
 268 8.308308; 
 269 0.900901; 


Name: Baicalein
SYNON: $:00in-source
DB#: MetaboBASE0248
InChIKey: FXNFHKRTJBSTCS-UHFFFAOYSA-N
Precursor_type: [M-H]-
Spectrum_type: MS2
PrecursorMZ: 269.0452
Instrument_type: LC-ESI-TOF
Instrument: impact HD
Ion_mode: N
Collision_energy: 40
InChIKey: FXNFHKRTJBSTCS-UHFFFAOYSA-N
Formula: C15H10O5
MW: 270
ExactMass: 270.05282342
Comments: "license=License CC-BY-NC-SA 4.0 International" "author=Plant Biology, The Noble Foundation, Ardmore, OK, US/Dennis Fine, Daniel Wherritt, and Lloyd Sumner" "instrument type=LC-ESI-TOF" "instrument=impact HD" "ionization=ESI" "ionization mode=negative" "ms level=MS2" "precursor m/z=269.0452" "isolation width=5" "collision gas=Nitrogen" "collision energy=40" "peak width=0.014" "date=2013-11-18 22:11:44+01:00" "column=Waters Acquity BEH C18 1.7um x 2.1 x 150 mm" "retention time=685.8" "raw data file=C:\Data\Confirmed Standards\Confirmed stds MSMS 14Nov13\Baicalein MSMS (vial 76).d" "precursor type=[M-H]-" "mass accuracy=1.291307185441996" "mass error=-3.474199999686789E-4" "cas number=27462-75-5" "SMILES=c1ccc(cc1)c2cc(=O)c3c(o2)cc(c(c3O)O)O" "InChI=InChI=1S/C15H10O5/c16-9-6-11(8-4-2-1-3-5-8)20-12-7-10(17)14(18)15(19)13(9)12/h1-7,17-19H" "InChIKey=FXNFHKRTJBSTCS-UHFFFAOYSA-N" "molecular formula=C15H10O5" "total exact mass=270.05282342" "SMILES=C1=CC=C(C=C1)C2=CC(=O)C3=C(O2)C=C(C(=C3O)O)O"
Num Peaks: 18
 111 23.723724; 
 115 11.711712; 
 123 17.717718; 
 127 9.809810; 
 137 100.000000; 
 138 12.712713; 
 139 36.536537; 
 139 16.216216; 
 141 13.513514; 
 143 16.616617; 
 167 20.720721; 
 169 11.111111; 
 171 22.522523; 
 195 19.319319; 
 223 22.522523; 
 224 9.709710; 
 239 17.917918; 
 269 10.210210; 


Name: Baicalein
SYNON: $:00in-source
DB#: MetaboBASE0249
InChIKey: FXNFHKRTJBSTCS-UHFFFAOYSA-N
Instrument_type: LC-ESI-TOF
Instrument: impact HD
Ion_mode: N
Collision_energy: 10
InChIKey: FXNFHKRTJBSTCS-UHFFFAOYSA-N
Formula: C15H10O5
MW: 270
ExactMass: 270.05282342
Comments: "license=License CC-BY-NC-SA 4.0 International" "author=Plant Biology, The Noble Foundation, Ardmore, OK, US/Dennis Fine, Daniel Wherritt, and Lloyd Sumner" "instrument type=LC-ESI-TOF" "instrument=impact HD" "ionization=ESI" "ionization mode=negative" "collision gas=Nitrogen" "collision energy=10" "peak width=0.022" "date=2013-11-07 06:47:15+01:00" "column=Waters Acquity BEH C18 1.7um x 2.1 x 150 mm" "retention time=685.8" "raw data file=C:\Data\Confirmed Standards\Confirmed Stds 6Nov13\Baicalein (vial 76).d" "cas number=27462-75-5" "SMILES=c1ccc(cc1)c2cc(=O)c3c(o2)cc(c(c3O)O)O" "InChI=InChI=1S/C15H10O5/c16-9-6-11(8-4-2-1-3-5-8)20-12-7-10(17)14(18)15(19)13(9)12/h1-7,17-19H" "InChIKey=FXNFHKRTJBSTCS-UHFFFAOYSA-N" "molecular formula=C15H10O5" "total exact mass=270.05282342" "SMILES=C1=CC=C(C=C1)C2=CC(=O)C3=C(O2)C=C(C(=C3O)O)O"
Num Peaks: 10
 239 12.612613; 
 240 1.901902; 
 241 2.902903; 
 255 5.205205; 
 267 100.000000; 
 268 12.212212; 
 269 86.086086; 
 270 10.910911; 
 271 1.301301; 
 285 2.202202; 


Name: Baicalein
SYNON: $:00in-source
DB#: MetaboBASE0250
InChIKey: FXNFHKRTJBSTCS-UHFFFAOYSA-N
Instrument_type: LC-ESI-TOF
Instrument: impact HD
Ion_mode: N
Collision_energy: 10
InChIKey: FXNFHKRTJBSTCS-UHFFFAOYSA-N
Formula: C15H10O5
MW: 270
ExactMass: 270.05282342
Comments: "license=License CC-BY-NC-SA 4.0 International" "author=Plant Biology, The Noble Foundation, Ardmore, OK, US/Dennis Fine, Daniel Wherritt, and Lloyd Sumner" "instrument type=LC-ESI-TOF" "instrument=impact HD" "ionization=ESI" "ionization mode=negative" "collision gas=Nitrogen" "collision energy=10" "peak width=0.021" "date=2013-11-07 06:47:15+01:00" "column=Waters Acquity BEH C18 1.7um x 2.1 x 150 mm" "retention time=685.8" "raw data file=C:\Data\Confirmed Standards\Confirmed Stds 6Nov13\Baicalein (vial 76).d" "cas number=27462-75-5" "SMILES=c1ccc(cc1)c2cc(=O)c3c(o2)cc(c(c3O)O)O" "InChI=InChI=1S/C15H10O5/c16-9-6-11(8-4-2-1-3-5-8)20-12-7-10(17)14(18)15(19)13(9)12/h1-7,17-19H" "InChIKey=FXNFHKRTJBSTCS-UHFFFAOYSA-N" "molecular formula=C15H10O5" "total exact mass=270.05282342" "SMILES=C1=CC=C(C=C1)C2=CC(=O)C3=C(O2)C=C(C(=C3O)O)O"
Num Peaks: 11
 239 10.110110; 
 240 1.401401; 
 241 1.801802; 
 255 7.407407; 
 256 1.301301; 
 267 63.663664; 
 268 8.908909; 
 269 100.000000; 
 270 13.613614; 
 271 1.801802; 
 285 1.501502; 


Name: Baicalein
SYNON: $:00in-source
DB#: MetaboBASE0251
InChIKey: FXNFHKRTJBSTCS-UHFFFAOYSA-N
Precursor_type: [M-H]-
Spectrum_type: MS2
PrecursorMZ: 269.0462
Instrument_type: LC-ESI-TOF
Instrument: impact HD
Ion_mode: N
Collision_energy: 20
InChIKey: FXNFHKRTJBSTCS-UHFFFAOYSA-N
Formula: C15H10O5
MW: 270
ExactMass: 270.05282342
Comments: "license=License CC-BY-NC-SA 4.0 International" "author=Plant Biology, The Noble Foundation, Ardmore, OK, US/Dennis Fine, Daniel Wherritt, and Lloyd Sumner" "instrument type=LC-ESI-TOF" "instrument=impact HD" "ionization=ESI" "ionization mode=negative" "ms level=MS2" "precursor m/z=269.0462" "isolation width=5" "collision gas=Nitrogen" "collision energy=20" "peak width=0.013" "date=2013-11-18 22:11:44+01:00" "column=Waters Acquity BEH C18 1.7um x 2.1 x 150 mm" "retention time=685.8" "raw data file=C:\Data\Confirmed Standards\Confirmed stds MSMS 14Nov13\Baicalein MSMS (vial 76).d" "precursor type=[M-H]-" "mass accuracy=2.4255313771674687" "mass error=6.525800000076742E-4" "cas number=27462-75-5" "SMILES=c1ccc(cc1)c2cc(=O)c3c(o2)cc(c(c3O)O)O" "InChI=InChI=1S/C15H10O5/c16-9-6-11(8-4-2-1-3-5-8)20-12-7-10(17)14(18)15(19)13(9)12/h1-7,17-19H" "InChIKey=FXNFHKRTJBSTCS-UHFFFAOYSA-N" "molecular formula=C15H10O5" "total exact mass=270.05282342" "SMILES=C1=CC=C(C=C1)C2=CC(=O)C3=C(O2)C=C(C(=C3O)O)O"
Num Peaks: 9
 137 3.103103; 
 239 54.254254; 
 240 7.107107; 
 241 2.602603; 
 251 2.202202; 
 267 27.827828; 
 268 4.204204; 
 269 100.000000; 
 270 9.409409; 


Name: Coumestrol
SYNON: $:00in-source
DB#: MetaboBASE0252
InChIKey: ZZIALNLLNHEQPJ-UHFFFAOYSA-N
Precursor_type: [M-H]-
Spectrum_type: MS2
PrecursorMZ: 267.0457
Instrument_type: LC-ESI-TOF
Instrument: impact HD
Ion_mode: N
Collision_energy: 20
InChIKey: ZZIALNLLNHEQPJ-UHFFFAOYSA-N
Formula: C15H8O5
MW: 268
ExactMass: 268.037173356
Comments: "license=License CC-BY-NC-SA 4.0 International" "author=Plant Biology, The Noble Foundation, Ardmore, OK, US/Dennis Fine, Daniel Wherritt, and Lloyd Sumner" "instrument type=LC-ESI-TOF" "instrument=impact HD" "ionization=ESI" "ionization mode=negative" "ms level=MS2" "precursor m/z=267.0457" "isolation width=5" "collision gas=Nitrogen" "collision energy=20" "peak width=0.017" "date=2014-08-05 21:09:28+02:00" "column=Waters Acquity BEH C18 1.7um x 2.1 x 150 mm" "retention time=580.2" "raw data file=C:\Data\Confirmed standards 24_July_2014\MSMS\Coumestrol vial 81 dil 1 to 10_1-F,5_01_539.d" "precursor type=[M-H]-" "mass accuracy=59.17580399167078" "mass error=0.015802644000018518" "cas number=479-13-0" "SMILES=c1cc2c(cc1O)oc3c2c(=O)oc4c3ccc(c4)O" "InChI=InChI=1S/C15H8O5/c16-7-1-3-9-11(5-7)19-14-10-4-2-8(17)6-12(10)20-15(18)13(9)14/h1-6,16-17H" "InChIKey=ZZIALNLLNHEQPJ-UHFFFAOYSA-N" "molecular formula=C15H8O5" "total exact mass=268.037173356" "SMILES=C1=CC2=C(C=C1O)OC3=C2C(=O)OC4=C3C=CC(=C4)O"
Num Peaks: 6
 223 1.001001; 
 239 3.003003; 
 266 11.011011; 
 267 100.000000; 
 268 13.613614; 
 269 1.201201; 


Name: Coumestrol
SYNON: $:00in-source
DB#: MetaboBASE0253
InChIKey: ZZIALNLLNHEQPJ-UHFFFAOYSA-N
Precursor_type: [M-H]-
Spectrum_type: MS2
PrecursorMZ: 267.0456
Instrument_type: LC-ESI-TOF
Instrument: impact HD
Ion_mode: N
Collision_energy: 10
InChIKey: ZZIALNLLNHEQPJ-UHFFFAOYSA-N
Formula: C15H8O5
MW: 268
ExactMass: 268.037173356
Comments: "license=License CC-BY-NC-SA 4.0 International" "author=Plant Biology, The Noble Foundation, Ardmore, OK, US/Dennis Fine, Daniel Wherritt, and Lloyd Sumner" "instrument type=LC-ESI-TOF" "instrument=impact HD" "ionization=ESI" "ionization mode=negative" "ms level=MS2" "precursor m/z=267.0456" "isolation width=5" "collision gas=Nitrogen" "collision energy=10" "peak width=0.017" "date=2014-08-05 21:09:28+02:00" "column=Waters Acquity BEH C18 1.7um x 2.1 x 150 mm" "retention time=580.2" "raw data file=C:\Data\Confirmed standards 24_July_2014\MSMS\Coumestrol vial 81 dil 1 to 10_1-F,5_01_539.d" "precursor type=[M-H]-" "mass accuracy=58.801358269848954" "mass error=0.015702643999986776" "cas number=479-13-0" "SMILES=c1cc2c(cc1O)oc3c2c(=O)oc4c3ccc(c4)O" "InChI=InChI=1S/C15H8O5/c16-7-1-3-9-11(5-7)19-14-10-4-2-8(17)6-12(10)20-15(18)13(9)14/h1-6,16-17H" "InChIKey=ZZIALNLLNHEQPJ-UHFFFAOYSA-N" "molecular formula=C15H8O5" "total exact mass=268.037173356" "SMILES=C1=CC2=C(C=C1O)OC3=C2C(=O)OC4=C3C=CC(=C4)O"
Num Peaks: 6
 239 0.800801; 
 266 3.603604; 
 267 100.000000; 
 268 13.213213; 
 269 0.700701; 
 1132 0.800801; 


Name: Coumestrol
SYNON: $:00in-source
DB#: MetaboBASE0254
InChIKey: ZZIALNLLNHEQPJ-UHFFFAOYSA-N
Precursor_type: [M-H]-
Spectrum_type: MS2
PrecursorMZ: 267.045
Instrument_type: LC-ESI-TOF
Instrument: impact HD
Ion_mode: N
Collision_energy: 30
InChIKey: ZZIALNLLNHEQPJ-UHFFFAOYSA-N
Formula: C15H8O5
MW: 268
ExactMass: 268.037173356
Comments: "license=License CC-BY-NC-SA 4.0 International" "author=Plant Biology, The Noble Foundation, Ardmore, OK, US/Dennis Fine, Daniel Wherritt, and Lloyd Sumner" "instrument type=LC-ESI-TOF" "instrument=impact HD" "ionization=ESI" "ionization mode=negative" "ms level=MS2" "precursor m/z=267.045" "isolation width=5" "collision gas=Nitrogen" "collision energy=30" "peak width=0.018" "date=2014-08-05 21:09:28+02:00" "column=Waters Acquity BEH C18 1.7um x 2.1 x 150 mm" "retention time=580.2" "raw data file=C:\Data\Confirmed standards 24_July_2014\MSMS\Coumestrol vial 81 dil 1 to 10_1-F,5_01_539.d" "precursor type=[M-H]-" "mass accuracy=56.554678050604586" "mass error=0.015102644000023702" "cas number=479-13-0" "SMILES=c1cc2c(cc1O)oc3c2c(=O)oc4c3ccc(c4)O" "InChI=InChI=1S/C15H8O5/c16-7-1-3-9-11(5-7)19-14-10-4-2-8(17)6-12(10)20-15(18)13(9)14/h1-6,16-17H" "InChIKey=ZZIALNLLNHEQPJ-UHFFFAOYSA-N" "molecular formula=C15H8O5" "total exact mass=268.037173356" "SMILES=C1=CC2=C(C=C1O)OC3=C2C(=O)OC4=C3C=CC(=C4)O"
Num Peaks: 12
 135 3.103103; 
 182 2.902903; 
 183 2.302302; 
 195 2.402402; 
 211 7.807808; 
 222 2.802803; 
 223 4.304304; 
 238 2.502503; 
 239 21.621622; 
 266 62.962963; 
 267 100.000000; 
 268 13.513514; 


Name: Coumestrol
SYNON: $:00in-source
DB#: MetaboBASE0255
InChIKey: ZZIALNLLNHEQPJ-UHFFFAOYSA-N
Spectrum_type: MS2
PrecursorMZ: 266.0373
Instrument_type: LC-ESI-TOF
Instrument: impact HD
Ion_mode: N
Collision_energy: 40
InChIKey: ZZIALNLLNHEQPJ-UHFFFAOYSA-N
Formula: C15H8O5
MW: 268
ExactMass: 268.037173356
Comments: "license=License CC-BY-NC-SA 4.0 International" "author=Plant Biology, The Noble Foundation, Ardmore, OK, US/Dennis Fine, Daniel Wherritt, and Lloyd Sumner" "instrument type=LC-ESI-TOF" "instrument=impact HD" "ionization=ESI" "ionization mode=negative" "ms level=MS2" "precursor m/z=266.0373" "isolation width=5" "collision gas=Nitrogen" "collision energy=40" "peak width=0.017" "date=2014-08-05 21:09:28+02:00" "column=Waters Acquity BEH C18 1.7um x 2.1 x 150 mm" "retention time=580.2" "raw data file=C:\Data\Confirmed standards 24_July_2014\MSMS\Coumestrol vial 81 dil 1 to 10_1-F,5_01_539.d" "cas number=479-13-0" "SMILES=c1cc2c(cc1O)oc3c2c(=O)oc4c3ccc(c4)O" "InChI=InChI=1S/C15H8O5/c16-7-1-3-9-11(5-7)19-14-10-4-2-8(17)6-12(10)20-15(18)13(9)14/h1-6,16-17H" "InChIKey=ZZIALNLLNHEQPJ-UHFFFAOYSA-N" "molecular formula=C15H8O5" "total exact mass=268.037173356" "SMILES=C1=CC2=C(C=C1O)OC3=C2C(=O)OC4=C3C=CC(=C4)O"
Num Peaks: 18
 135 7.707708; 
 141 6.206206; 
 166 4.504505; 
 167 11.811812; 
 182 10.910911; 
 183 4.104104; 
 195 5.005005; 
 210 6.006006; 
 211 16.016016; 
 222 13.713714; 
 223 13.213213; 
 237 5.505506; 
 238 4.104104; 
 239 11.311311; 
 265 4.904905; 
 266 100.000000; 
 267 32.432432; 
 268 4.504505; 


Name: Coumestrol
SYNON: $:00in-source
DB#: MetaboBASE0256
InChIKey: ZZIALNLLNHEQPJ-UHFFFAOYSA-N
Instrument_type: LC-ESI-TOF
Instrument: impact HD
Ion_mode: N
Collision_energy: 10
InChIKey: ZZIALNLLNHEQPJ-UHFFFAOYSA-N
Formula: C15H8O5
MW: 268
ExactMass: 268.037173356
Comments: "license=License CC-BY-NC-SA 4.0 International" "author=Plant Biology, The Noble Foundation, Ardmore, OK, US/Dennis Fine, Daniel Wherritt, and Lloyd Sumner" "instrument type=LC-ESI-TOF" "instrument=impact HD" "ionization=ESI" "ionization mode=negative" "collision gas=Nitrogen" "collision energy=10" "peak width=0.019" "date=2013-11-07 09:30:22+01:00" "column=Waters Acquity BEH C18 1.7um x 2.1 x 150 mm" "retention time=580.2" "raw data file=C:\Data\Confirmed Standards\Confirmed Stds 6Nov13\Coumestrol (vial 81).d" "cas number=479-13-0" "SMILES=c1cc2c(cc1O)oc3c2c(=O)oc4c3ccc(c4)O" "InChI=InChI=1S/C15H8O5/c16-7-1-3-9-11(5-7)19-14-10-4-2-8(17)6-12(10)20-15(18)13(9)14/h1-6,16-17H" "InChIKey=ZZIALNLLNHEQPJ-UHFFFAOYSA-N" "molecular formula=C15H8O5" "total exact mass=268.037173356" "SMILES=C1=CC2=C(C=C1O)OC3=C2C(=O)OC4=C3C=CC(=C4)O"
Num Peaks: 6
 266 6.706707; 
 267 100.000000; 
 268 16.216216; 
 269 1.601602; 
 281 1.501502; 
 535 1.401401; 


Name: Coumestrol
SYNON: $:00in-source
DB#: MetaboBASE0257
InChIKey: ZZIALNLLNHEQPJ-UHFFFAOYSA-N
Spectrum_type: MS2
PrecursorMZ: 266.0378
Instrument_type: LC-ESI-TOF
Instrument: impact HD
Ion_mode: N
Collision_energy: 50
InChIKey: ZZIALNLLNHEQPJ-UHFFFAOYSA-N
Formula: C15H8O5
MW: 268
ExactMass: 268.037173356
Comments: "license=License CC-BY-NC-SA 4.0 International" "author=Plant Biology, The Noble Foundation, Ardmore, OK, US/Dennis Fine, Daniel Wherritt, and Lloyd Sumner" "instrument type=LC-ESI-TOF" "instrument=impact HD" "ionization=ESI" "ionization mode=negative" "ms level=MS2" "precursor m/z=266.0378" "isolation width=5" "collision gas=Nitrogen" "collision energy=50" "peak width=0.0082" "date=2014-08-05 21:09:28+02:00" "column=Waters Acquity BEH C18 1.7um x 2.1 x 150 mm" "retention time=580.2" "raw data file=C:\Data\Confirmed standards 24_July_2014\MSMS\Coumestrol vial 81 dil 1 to 10_1-F,5_01_539.d" "cas number=479-13-0" "SMILES=c1cc2c(cc1O)oc3c2c(=O)oc4c3ccc(c4)O" "InChI=InChI=1S/C15H8O5/c16-7-1-3-9-11(5-7)19-14-10-4-2-8(17)6-12(10)20-15(18)13(9)14/h1-6,16-17H" "InChIKey=ZZIALNLLNHEQPJ-UHFFFAOYSA-N" "molecular formula=C15H8O5" "total exact mass=268.037173356" "SMILES=C1=CC2=C(C=C1O)OC3=C2C(=O)OC4=C3C=CC(=C4)O"
Num Peaks: 23
 127 27.927928; 
 127 16.216216; 
 138 25.725726; 
 139 18.818819; 
 165 19.319319; 
 166 31.931932; 
 167 17.317317; 
 178 20.820821; 
 182 85.385385; 
 183 16.816817; 
 194 24.624625; 
 195 25.025025; 
 211 16.216216; 
 222 37.237237; 
 223 18.818819; 
 237 29.729730; 
 239 20.620621; 
 265 26.426426; 
 266 100.000000; 
 383 18.218218; 
 519 23.523524; 
 532 20.420420; 
 981 33.233233; 


Name: Diosmin
SYNON: $:00in-source
DB#: MetaboBASE0258
InChIKey: GZSOSUNBTXMUFQ-YFAPSIMESA-N
Precursor_type: [M-H]-
Spectrum_type: MS2
PrecursorMZ: 607.1664
Instrument_type: LC-ESI-TOF
Instrument: impact HD
Ion_mode: N
Collision_energy: 20
InChIKey: GZSOSUNBTXMUFQ-YFAPSIMESA-N
Formula: C28H32O15
MW: 608
ExactMass: 608.174120324
Comments: "license=License CC-BY-NC-SA 4.0 International" "author=Plant Biology, The Noble Foundation, Ardmore, OK, US/Dennis Fine, Daniel Wherritt, and Lloyd Sumner" "instrument type=LC-ESI-TOF" "instrument=impact HD" "ionization=ESI" "ionization mode=negative" "ms level=MS2" "precursor m/z=607.1664" "isolation width=5" "collision gas=Nitrogen" "collision energy=20" "peak width=0.019" "date=2013-11-08 00:35:18+01:00" "column=Waters Acquity BEH C18 1.7um x 2.1 x 150 mm" "retention time=427.8" "raw data file=C:\Data\Confirmed Standards\Confirmed Stds 7Nov13\Diosmin (vial 71) MSMS.d" "precursor type=[M-H]-" "mass accuracy=0.7317993881085176" "mass error=-4.4432400000005146E-4" "cas number=520-27-4" "SMILES=C[C@H]1[C@@H]([C@H]([C@H]([C@@H](O1)OC[C@@H]2[C@H]([C@@H]([C@H]([C@@H](O2)Oc3cc(c4c(=O)cc(oc4c3)c5ccc(c(c5)O)OC)O)O)O)O)O)O)O" "InChI=InChI=1S/C28H32O15/c1-10-21(32)23(34)25(36)27(40-10)39-9-19-22(33)24(35)26(37)28(43-19)41-12-6-14(30)20-15(31)8-17(42-18(20)7-12)11-3-4-16(38-2)13(29)5-11/h3-8,10,19,21-30,32-37H,9H2,1-2H3/t10-,19+,21-,22+,23+,24-,25+,26+,27+,28+/m0/s1" "InChIKey=GZSOSUNBTXMUFQ-YFAPSIMESA-N" "molecular formula=C28H32O15" "total exact mass=608.174120324" "SMILES=O=C1C=2C(O)=CC(OC3OC(COC4OC(C(O)C(O)C4O)C)C(O)C(O)C3O)=CC2OC(C=5C=CC(OC)=C(O)C5)=C1" "InChI=InChI=1S/C28H32O15/c1-10-21(32)23(34)25(36)27(40-10)39-9-19-22(33)24(35)26(37)28(43-19)41-12-6-14(30)20-15(31)8-17(42-18(20)7-12)11-3-4-16(38-2)13(29)5-11/h3-8,10,19,21-30,32-37H,9H2,1-2H3/t10-,19-,21-,22-,23+,24+,25+,26-,27+,28-/m1/s1" "InChIKey=GZSOSUNBTXMUFQ-IQFYTUTQSA-N"
Num Peaks: 6
 299 100.000000; 
 300 10.710711; 
 301 3.903904; 
 607 66.166166; 
 608 17.417417; 
 609 4.804805; 


Name: Diosmin
SYNON: $:00in-source
DB#: MetaboBASE0259
InChIKey: GZSOSUNBTXMUFQ-YFAPSIMESA-N
Instrument_type: LC-ESI-TOF
Instrument: impact HD
Ion_mode: N
Collision_energy: 10
InChIKey: GZSOSUNBTXMUFQ-YFAPSIMESA-N
Formula: C28H32O15
MW: 608
ExactMass: 608.174120324
Comments: "license=License CC-BY-NC-SA 4.0 International" "author=Plant Biology, The Noble Foundation, Ardmore, OK, US/Dennis Fine, Daniel Wherritt, and Lloyd Sumner" "instrument type=LC-ESI-TOF" "instrument=impact HD" "ionization=CI" "ionization mode=negative" "collision gas=Nitrogen" "collision energy=10" "peak width=0.02" "date=2013-11-07 04:04:10+01:00" "column=Waters Acquity BEH C18 1.7um x 2.1 x 150 mm" "retention time=427.8" "raw data file=C:\Data\Confirmed Standards\Confirmed Stds 6Nov13\Diosmin (vial 71).d" "cas number=520-27-4" "SMILES=C[C@H]1[C@@H]([C@H]([C@H]([C@@H](O1)OC[C@@H]2[C@H]([C@@H]([C@H]([C@@H](O2)Oc3cc(c4c(=O)cc(oc4c3)c5ccc(c(c5)O)OC)O)O)O)O)O)O)O" "InChI=InChI=1S/C28H32O15/c1-10-21(32)23(34)25(36)27(40-10)39-9-19-22(33)24(35)26(37)28(43-19)41-12-6-14(30)20-15(31)8-17(42-18(20)7-12)11-3-4-16(38-2)13(29)5-11/h3-8,10,19,21-30,32-37H,9H2,1-2H3/t10-,19+,21-,22+,23+,24-,25+,26+,27+,28+/m0/s1" "InChIKey=GZSOSUNBTXMUFQ-YFAPSIMESA-N" "molecular formula=C28H32O15" "total exact mass=608.174120324" "SMILES=O=C1C=2C(O)=CC(OC3OC(COC4OC(C(O)C(O)C4O)C)C(O)C(O)C3O)=CC2OC(C=5C=CC(OC)=C(O)C5)=C1" "InChI=InChI=1S/C28H32O15/c1-10-21(32)23(34)25(36)27(40-10)39-9-19-22(33)24(35)26(37)28(43-19)41-12-6-14(30)20-15(31)8-17(42-18(20)7-12)11-3-4-16(38-2)13(29)5-11/h3-8,10,19,21-30,32-37H,9H2,1-2H3/t10-,19-,21-,22-,23+,24+,25+,26-,27+,28-/m1/s1" "InChIKey=GZSOSUNBTXMUFQ-IQFYTUTQSA-N"
Num Peaks: 11
 607 100.000000; 
 608 25.425425; 
 609 5.605606; 
 610 1.101101; 
 675 6.306306; 
 676 1.801802; 
 706 1.701702; 
 743 1.001001; 
 1215 4.304304; 
 1216 2.302302; 
 1217 1.001001; 


Name: Diosmin
SYNON: $:00in-source
DB#: MetaboBASE0260
InChIKey: GZSOSUNBTXMUFQ-YFAPSIMESA-N
Precursor_type: [M-H]-
Spectrum_type: MS2
PrecursorMZ: 607.2
Instrument_type: LC-ESI-TOF
Instrument: impact HD
Ion_mode: N
Collision_energy: 40
InChIKey: GZSOSUNBTXMUFQ-YFAPSIMESA-N
Formula: C28H32O15
MW: 608
ExactMass: 608.174120324
Comments: "license=License CC-BY-NC-SA 4.0 International" "author=Plant Biology, The Noble Foundation, Ardmore, OK, US/Dennis Fine, Daniel Wherritt, and Lloyd Sumner" "instrument type=LC-ESI-TOF" "instrument=impact HD" "ionization=ESI" "ionization mode=negative" "ms level=MS2" "precursor m/z=607.2" "isolation width=5" "collision gas=Nitrogen" "collision energy=40" "peak width=0.019" "date=2013-11-08 00:35:18+01:00" "column=Waters Acquity BEH C18 1.7um x 2.1 x 150 mm" "retention time=427.8" "raw data file=C:\Data\Confirmed Standards\Confirmed Stds 7Nov13\Diosmin (vial 71) MSMS.d" "precursor type=[M-H]-" "mass accuracy=54.6042094863178" "mass error=0.03315567600009217" "cas number=520-27-4" "SMILES=C[C@H]1[C@@H]([C@H]([C@H]([C@@H](O1)OC[C@@H]2[C@H]([C@@H]([C@H]([C@@H](O2)Oc3cc(c4c(=O)cc(oc4c3)c5ccc(c(c5)O)OC)O)O)O)O)O)O)O" "InChI=InChI=1S/C28H32O15/c1-10-21(32)23(34)25(36)27(40-10)39-9-19-22(33)24(35)26(37)28(43-19)41-12-6-14(30)20-15(31)8-17(42-18(20)7-12)11-3-4-16(38-2)13(29)5-11/h3-8,10,19,21-30,32-37H,9H2,1-2H3/t10-,19+,21-,22+,23+,24-,25+,26+,27+,28+/m0/s1" "InChIKey=GZSOSUNBTXMUFQ-YFAPSIMESA-N" "molecular formula=C28H32O15" "total exact mass=608.174120324" "SMILES=O=C1C=2C(O)=CC(OC3OC(COC4OC(C(O)C(O)C4O)C)C(O)C(O)C3O)=CC2OC(C=5C=CC(OC)=C(O)C5)=C1" "InChI=InChI=1S/C28H32O15/c1-10-21(32)23(34)25(36)27(40-10)39-9-19-22(33)24(35)26(37)28(43-19)41-12-6-14(30)20-15(31)8-17(42-18(20)7-12)11-3-4-16(38-2)13(29)5-11/h3-8,10,19,21-30,32-37H,9H2,1-2H3/t10-,19-,21-,22-,23+,24+,25+,26-,27+,28-/m1/s1" "InChIKey=GZSOSUNBTXMUFQ-IQFYTUTQSA-N"
Num Peaks: 5
 284 21.421421; 
 285 4.704705; 
 299 100.000000; 
 300 13.713714; 
 301 3.203203; 


Name: Isoliquiritigenin
SYNON: $:00in-source
DB#: MetaboBASE0261
InChIKey: DXDRHHKMWQZJHT-FPYGCLRLSA-N
Precursor_type: [M-H]-
Spectrum_type: MS2
PrecursorMZ: 255.0668
Instrument_type: LC-ESI-TOF
Instrument: impact HD
Ion_mode: N
Collision_energy: 20
InChIKey: DXDRHHKMWQZJHT-FPYGCLRLSA-N
Formula: C15H12O4
MW: 256
ExactMass: 256.073558864
Comments: "license=License CC-BY-NC-SA 4.0 International" "author=Plant Biology, The Noble Foundation, Ardmore, OK, US/Dennis Fine, Daniel Wherritt, and Lloyd Sumner" "instrument type=LC-ESI-TOF" "instrument=impact HD" "ionization=ESI" "ionization mode=negative" "ms level=MS2" "precursor m/z=255.0668" "isolation width=5" "collision gas=Nitrogen" "collision energy=20" "peak width=0.016" "date=2013-11-08 03:18:41+01:00" "column=Waters Acquity BEH C18 1.7um x 2.1 x 150 mm" "retention time=670.2" "raw data file=C:\Data\Confirmed Standards\Confirmed Stds 7Nov13\Isoliquiritigenin  MSMS.d" "precursor type=[M-H]-" "mass accuracy=2.027453200435847" "mass error=5.171359999849301E-4" "cas number=961-29-5" "SMILES=c1cc(ccc1/C=C/C(=O)c2ccc(cc2O)O)O" "InChI=InChI=1S/C15H12O4/c16-11-4-1-10(2-5-11)3-8-14(18)13-7-6-12(17)9-15(13)19/h1-9,16-17,19H/b8-3+" "InChIKey=DXDRHHKMWQZJHT-FPYGCLRLSA-N" "molecular formula=C15H12O4" "total exact mass=256.073558864" "SMILES=C1=CC(=CC=C1C=CC(=O)C2=C(C=C(C=C2)O)O)O"
Num Peaks: 6
 119 100.000000; 
 120 6.106106; 
 135 70.270270; 
 136 3.403403; 
 153 3.703704; 
 255 14.514515; 


Name: Isoliquiritigenin
SYNON: $:00in-source
DB#: MetaboBASE0262
InChIKey: DXDRHHKMWQZJHT-FPYGCLRLSA-N
Instrument_type: LC-ESI-TOF
Instrument: impact HD
Ion_mode: N
Collision_energy: 10
InChIKey: DXDRHHKMWQZJHT-FPYGCLRLSA-N
Formula: C15H12O4
MW: 256
ExactMass: 256.073558864
Comments: "license=License CC-BY-NC-SA 4.0 International" "author=Plant Biology, The Noble Foundation, Ardmore, OK, US/Dennis Fine, Daniel Wherritt, and Lloyd Sumner" "instrument type=LC-ESI-TOF" "instrument=impact HD" "ionization=ESI" "ionization mode=negative" "collision gas=Nitrogen" "collision energy=10" "peak width=0.015" "date=2013-11-07 10:11:08+01:00" "column=Waters Acquity BEH C18 1.7um x 2.1 x 150 mm" "retention time=670.2" "raw data file=C:\Data\Confirmed Standards\Confirmed Stds 6Nov13\Isoliquiritigenin (vial 82).d" "cas number=961-29-5" "SMILES=c1cc(ccc1/C=C/C(=O)c2ccc(cc2O)O)O" "InChI=InChI=1S/C15H12O4/c16-11-4-1-10(2-5-11)3-8-14(18)13-7-6-12(17)9-15(13)19/h1-9,16-17,19H/b8-3+" "InChIKey=DXDRHHKMWQZJHT-FPYGCLRLSA-N" "molecular formula=C15H12O4" "total exact mass=256.073558864" "SMILES=C1=CC(=CC=C1C=CC(=O)C2=C(C=C(C=C2)O)O)O"
Num Peaks: 6
 119 1.601602; 
 135 6.306306; 
 255 100.000000; 
 256 15.515516; 
 257 1.601602; 
 511 1.101101; 


Name: Luteolin-4'-O-glucoside
SYNON: $:00in-source
DB#: MetaboBASE0263
InChIKey: UHNXUSWGOJMEFO-QNDFHXLGSA-N
Precursor_type: [M-H]-
Spectrum_type: MS2
PrecursorMZ: 447.0938
Instrument_type: LC-ESI-TOF
Instrument: impact HD
Ion_mode: N
Collision_energy: 20
InChIKey: UHNXUSWGOJMEFO-QNDFHXLGSA-N
Formula: C21H20O11
MW: 448
ExactMass: 448.10056146
Comments: "license=License CC-BY-NC-SA 4.0 International" "author=Plant Biology, The Noble Foundation, Ardmore, OK, US/Dennis Fine, Daniel Wherritt, and Lloyd Sumner" "instrument type=LC-ESI-TOF" "instrument=impact HD" "ionization=ESI" "ionization mode=negative" "ms level=MS2" "precursor m/z=447.0938" "isolation width=5" "collision gas=Nitrogen" "collision energy=20" "peak width=0.013" "date=2013-11-08 01:16:08+01:00" "column=Waters Acquity BEH C18 1.7um x 2.1 x 150 mm" "retention time=375.6" "raw data file=C:\Data\Confirmed Standards\Confirmed Stds 7Nov13\Luteolin-4-O-glucoside  MSMS.d" "precursor type=[M-H]-" "mass accuracy=1.1508546975674878" "mass error=5.145399999832989E-4" "cas number=6920-38-3" "SMILES=c1cc(c(cc1c2cc(=O)c3c(cc(cc3o2)O)O)O)O[C@H]4[C@@H]([C@H]([C@@H]([C@H](O4)CO)O)O)O" "InChI=InChI=1S/C21H20O11/c22-7-16-18(27)19(28)20(29)21(32-16)31-13-2-1-8(3-10(13)24)14-6-12(26)17-11(25)4-9(23)5-15(17)30-14/h1-6,16,18-25,27-29H,7H2/t16-,18-,19+,20-,21-/m1/s1" "InChIKey=UHNXUSWGOJMEFO-QNDFHXLGSA-N" "molecular formula=C21H20O11" "total exact mass=448.10056146" "SMILES=C1=CC(=C(C=C1C2=CC(=O)C3=C(C=C(C=C3O2)O)O)O)OC4C(C(C(C(O4)CO)O)O)O"
Num Peaks: 3
 285 100.000000; 
 286 12.012012; 
 447 5.005005; 


Name: Luteolin-4'-O-glucoside
SYNON: $:00in-source
DB#: MetaboBASE0264
InChIKey: UHNXUSWGOJMEFO-QNDFHXLGSA-N
Instrument_type: LC-ESI-TOF
Instrument: impact HD
Ion_mode: N
Collision_energy: 10
InChIKey: UHNXUSWGOJMEFO-QNDFHXLGSA-N
Formula: C21H20O11
MW: 448
ExactMass: 448.10056146
Comments: "license=License CC-BY-NC-SA 4.0 International" "author=Plant Biology, The Noble Foundation, Ardmore, OK, US/Dennis Fine, Daniel Wherritt, and Lloyd Sumner" "instrument type=LC-ESI-TOF" "instrument=impact HD" "ionization=ESI" "ionization mode=negative" "collision gas=Nitrogen" "collision energy=10" "peak width=0.018" "date=2013-11-07 05:25:43+01:00" "column=Waters Acquity BEH C18 1.7um x 2.1 x 150 mm" "retention time=375.6" "raw data file=C:\Data\Confirmed Standards\Confirmed Stds 6Nov13\Luteolin-4-glucoside (vial 73).d" "cas number=6920-38-3" "SMILES=c1cc(c(cc1c2cc(=O)c3c(cc(cc3o2)O)O)O)O[C@H]4[C@@H]([C@H]([C@@H]([C@H](O4)CO)O)O)O" "InChI=InChI=1S/C21H20O11/c22-7-16-18(27)19(28)20(29)21(32-16)31-13-2-1-8(3-10(13)24)14-6-12(26)17-11(25)4-9(23)5-15(17)30-14/h1-6,16,18-25,27-29H,7H2/t16-,18-,19+,20-,21-/m1/s1" "InChIKey=UHNXUSWGOJMEFO-QNDFHXLGSA-N" "molecular formula=C21H20O11" "total exact mass=448.10056146" "SMILES=C1=CC(=C(C=C1C2=CC(=O)C3=C(C=C(C=C3O2)O)O)O)OC4C(C(C(C(O4)CO)O)O)O"
Num Peaks: 12
 285 53.853854; 
 286 7.407407; 
 287 1.101101; 
 447 100.000000; 
 448 18.718719; 
 449 3.603604; 
 515 2.102102; 
 592 1.301301; 
 895 8.608609; 
 896 4.204204; 
 897 1.301301; 
 917 1.201201; 


Name: Protocatechuic aldehyde
SYNON: $:00in-source
DB#: MetaboBASE0265
InChIKey: IBGBGRVKPALMCQ-UHFFFAOYSA-N
Precursor_type: [M-H]-
Spectrum_type: MS2
PrecursorMZ: 137.0237
Instrument_type: LC-ESI-TOF
Instrument: impact HD
Ion_mode: N
Collision_energy: 10
InChIKey: IBGBGRVKPALMCQ-UHFFFAOYSA-N
Formula: C7H6O3
MW: 138
ExactMass: 138.03169405199998
Comments: "license=License CC-BY-NC-SA 4.0 International" "author=Plant Biology, The Noble Foundation, Ardmore, OK, US/Dennis Fine, Daniel Wherritt, and Lloyd Sumner" "instrument type=LC-ESI-TOF" "instrument=impact HD" "ionization=ESI" "ionization mode=negative" "ms level=MS2" "precursor m/z=137.0237" "isolation width=5" "collision gas=Nitrogen" "collision energy=10" "peak width=0.019" "date=2014-01-10 21:09:55+01:00" "column=Waters Acquity BEH C18 1.7um x 2.1 x 150 mm" "retention time=65.4" "raw data file=C:\Data\Confirmed Standards\14Jan10 Confirmed stds MSMS\Protocatechuic aldehyde.d" "precursor type=[M-H]-" "mass accuracy=5.2403489323110195" "mass error=-7.180519999963053E-4" "cas number=139-85-5" "SMILES=c1cc(c(cc1C=O)O)O" "InChI=InChI=1S/C7H6O3/c8-4-5-1-2-6(9)7(10)3-5/h1-4,9-10H" "InChIKey=IBGBGRVKPALMCQ-UHFFFAOYSA-N" "molecular formula=C7H6O3" "total exact mass=138.03169405199998" "SMILES=C1=CC(=C(C=C1C=O)O)O"
Num Peaks: 3
 109 7.707708; 
 137 100.000000; 
 138 6.806807; 


Name: Protocatechuic aldehyde
SYNON: $:00in-source
DB#: MetaboBASE0266
InChIKey: IBGBGRVKPALMCQ-UHFFFAOYSA-N
Precursor_type: [M-H]-
Spectrum_type: MS2
PrecursorMZ: 137.0239
Instrument_type: LC-ESI-TOF
Instrument: impact HD
Ion_mode: N
Collision_energy: 20
InChIKey: IBGBGRVKPALMCQ-UHFFFAOYSA-N
Formula: C7H6O3
MW: 138
ExactMass: 138.03169405199998
Comments: "license=License CC-BY-NC-SA 4.0 International" "author=Plant Biology, The Noble Foundation, Ardmore, OK, US/Dennis Fine, Daniel Wherritt, and Lloyd Sumner" "instrument type=LC-ESI-TOF" "instrument=impact HD" "ionization=ESI" "ionization mode=negative" "ms level=MS2" "precursor m/z=137.0239" "isolation width=5" "collision gas=Nitrogen" "collision energy=20" "peak width=0.016" "date=2014-01-10 21:09:55+01:00" "column=Waters Acquity BEH C18 1.7um x 2.1 x 150 mm" "retention time=65.4" "raw data file=C:\Data\Confirmed Standards\14Jan10 Confirmed stds MSMS\Protocatechuic aldehyde.d" "precursor type=[M-H]-" "mass accuracy=3.7807418996953523" "mass error=-5.18051999989666E-4" "cas number=139-85-5" "SMILES=c1cc(c(cc1C=O)O)O" "InChI=InChI=1S/C7H6O3/c8-4-5-1-2-6(9)7(10)3-5/h1-4,9-10H" "InChIKey=IBGBGRVKPALMCQ-UHFFFAOYSA-N" "molecular formula=C7H6O3" "total exact mass=138.03169405199998" "SMILES=C1=CC(=C(C=C1C=O)O)O"
Num Peaks: 6
 108 34.334334; 
 109 21.421421; 
 119 21.721722; 
 136 51.451451; 
 137 100.000000; 
 138 12.712713; 


Name: Protocatechuic aldehyde
SYNON: $:00in-source
DB#: MetaboBASE0267
InChIKey: IBGBGRVKPALMCQ-UHFFFAOYSA-N
Instrument_type: LC-ESI-TOF
Instrument: impact HD
Ion_mode: N
InChIKey: IBGBGRVKPALMCQ-UHFFFAOYSA-N
Formula: C7H6O3
MW: 138
ExactMass: 138.03169405199998
Comments: "license=License CC-BY-NC-SA 4.0 International" "author=Plant Biology, The Noble Foundation, Ardmore, OK, US/Dennis Fine, Daniel Wherritt, and Lloyd Sumner" "instrument type=LC-ESI-TOF" "instrument=impact HD" "ionization=ESI" "ionization mode=negative" "collision gas=Nitrogen" "peak width=0.013" "date=2014-01-10 21:09:55+01:00" "column=Waters Acquity BEH C18 1.7um x 2.1 x 150 mm" "retention time=65.4" "raw data file=C:\Data\Confirmed Standards\14Jan10 Confirmed stds MSMS\Protocatechuic aldehyde.d" "cas number=139-85-5" "SMILES=c1cc(c(cc1C=O)O)O" "InChI=InChI=1S/C7H6O3/c8-4-5-1-2-6(9)7(10)3-5/h1-4,9-10H" "InChIKey=IBGBGRVKPALMCQ-UHFFFAOYSA-N" "molecular formula=C7H6O3" "total exact mass=138.03169405199998" "SMILES=C1=CC(=C(C=C1C=O)O)O"
Num Peaks: 6
 137 100.000000; 
 138 6.306306; 
 151 2.202202; 
 153 2.402402; 
 327 11.211211; 
 666 3.303303; 


Name: Protocatechuic aldehyde
SYNON: $:00in-source
DB#: MetaboBASE0268
InChIKey: IBGBGRVKPALMCQ-UHFFFAOYSA-N
Instrument_type: LC-ESI-TOF
Instrument: impact HD
Ion_mode: N
Collision_energy: 10
InChIKey: IBGBGRVKPALMCQ-UHFFFAOYSA-N
Formula: C7H6O3
MW: 138
ExactMass: 138.03169405199998
Comments: "license=License CC-BY-NC-SA 4.0 International" "author=Plant Biology, The Noble Foundation, Ardmore, OK, US/Dennis Fine, Daniel Wherritt, and Lloyd Sumner" "instrument type=LC-ESI-TOF" "instrument=impact HD" "ionization=ESI" "ionization mode=negative" "collision gas=Nitrogen" "collision energy=10" "peak width=0.02" "date=2013-11-07 08:49:36+01:00" "column=Waters Acquity BEH C18 1.7um x 2.1 x 150 mm" "retention time=65.4" "raw data file=C:\Data\Confirmed Standards\Confirmed Stds 6Nov13\Protocatechuic aldehyde.d" "cas number=139-85-5" "SMILES=c1cc(c(cc1C=O)O)O" "InChI=InChI=1S/C7H6O3/c8-4-5-1-2-6(9)7(10)3-5/h1-4,9-10H" "InChIKey=IBGBGRVKPALMCQ-UHFFFAOYSA-N" "molecular formula=C7H6O3" "total exact mass=138.03169405199998" "SMILES=C1=CC(=C(C=C1C=O)O)O"
Num Peaks: 14
 136 6.906907; 
 137 100.000000; 
 138 7.407407; 
 151 1.701702; 
 192 1.401401; 
 220 2.302302; 
 299 4.804805; 
 325 3.103103; 
 326 2.702703; 
 327 55.755756; 
 328 8.108108; 
 329 1.601602; 
 487 1.101101; 
 509 1.201201; 


Name: Rhoifolin
SYNON: $:00in-source
DB#: MetaboBASE0269
InChIKey: RPMNUQRUHXIGHK-PYXJVEIZSA-N
Precursor_type: [M-H]-
Spectrum_type: MS2
PrecursorMZ: 577.1553
Instrument_type: LC-ESI-TOF
Instrument: impact HD
Ion_mode: N
Collision_energy: 40
InChIKey: RPMNUQRUHXIGHK-PYXJVEIZSA-N
Formula: C27H30O14
MW: 578
ExactMass: 578.1635556399999
Comments: "license=License CC-BY-NC-SA 4.0 International" "author=Plant Biology, The Noble Foundation, Ardmore, OK, US/Dennis Fine, Daniel Wherritt, and Lloyd Sumner" "instrument type=LC-ESI-TOF" "instrument=impact HD" "ionization=ESI" "ionization mode=negative" "ms level=MS2" "precursor m/z=577.1553" "isolation width=5" "collision gas=Nitrogen" "collision energy=40" "peak width=0.018" "date=2013-11-07 23:13:37+01:00" "column=Waters Acquity BEH C18 1.7um x 2.1 x 150 mm" "retention time=403.8" "raw data file=C:\Data\Confirmed Standards\Confirmed Stds 7Nov13\Rhoifolin (vial 69) MSMS.d" "precursor type=[M-H]-" "mass accuracy=1.6973594452913336" "mass error=-9.796399998549532E-4" "cas number=17306-46-6" "SMILES=C[C@H]1[C@@H]([C@H]([C@H]([C@@H](O1)O[C@@H]2[C@H]([C@@H]([C@H](O[C@H]2Oc3cc(c4c(=O)cc(oc4c3)c5ccc(cc5)O)O)CO)O)O)O)O)O" "InChI=InChI=1S/C27H30O14/c1-10-20(32)22(34)24(36)26(37-10)41-25-23(35)21(33)18(9-28)40-27(25)38-13-6-14(30)19-15(31)8-16(39-17(19)7-13)11-2-4-12(29)5-3-11/h2-8,10,18,20-30,32-36H,9H2,1H3/t10-,18+,20-,21+,22+,23-,24+,25+,26-,27+/m0/s1" "InChIKey=RPMNUQRUHXIGHK-PYXJVEIZSA-N" "molecular formula=C27H30O14" "total exact mass=578.1635556399999" "SMILES=CC1C(C(C(C(O1)OC2C(C(C(OC2OC3=CC(=C4C(=C3)OC(=CC4=O)C5=CC=C(C=C5)O)O)CO)O)O)O)O)O"
Num Peaks: 6
 268 6.606607; 
 269 100.000000; 
 270 19.519520; 
 413 2.402402; 
 577 11.611612; 
 578 4.104104; 


Name: Rhoifolin
SYNON: $:00in-source
DB#: MetaboBASE0270
InChIKey: RPMNUQRUHXIGHK-PYXJVEIZSA-N
Instrument_type: LC-ESI-TOF
Instrument: impact HD
Ion_mode: N
Collision_energy: 10
InChIKey: RPMNUQRUHXIGHK-PYXJVEIZSA-N
Formula: C27H30O14
MW: 578
ExactMass: 578.1635556399999
Comments: "license=License CC-BY-NC-SA 4.0 International" "author=Plant Biology, The Noble Foundation, Ardmore, OK, US/Dennis Fine, Daniel Wherritt, and Lloyd Sumner" "instrument type=LC-ESI-TOF" "instrument=impact HD" "ionization=ESI" "ionization mode=negative" "collision gas=Nitrogen" "collision energy=10" "peak width=0.015" "date=2013-11-07 02:42:36+01:00" "column=Waters Acquity BEH C18 1.7um x 2.1 x 150 mm" "retention time=403.8" "raw data file=C:\Data\Confirmed Standards\Confirmed Stds 6Nov13\Rhoifolin (vial 69).d" "cas number=17306-46-6" "SMILES=C[C@H]1[C@@H]([C@H]([C@H]([C@@H](O1)O[C@@H]2[C@H]([C@@H]([C@H](O[C@H]2Oc3cc(c4c(=O)cc(oc4c3)c5ccc(cc5)O)O)CO)O)O)O)O)O" "InChI=InChI=1S/C27H30O14/c1-10-20(32)22(34)24(36)26(37-10)41-25-23(35)21(33)18(9-28)40-27(25)38-13-6-14(30)19-15(31)8-16(39-17(19)7-13)11-2-4-12(29)5-3-11/h2-8,10,18,20-30,32-36H,9H2,1H3/t10-,18+,20-,21+,22+,23-,24+,25+,26-,27+/m0/s1" "InChIKey=RPMNUQRUHXIGHK-PYXJVEIZSA-N" "molecular formula=C27H30O14" "total exact mass=578.1635556399999" "SMILES=CC1C(C(C(C(O1)OC2C(C(C(OC2OC3=CC(=C4C(=C3)OC(=CC4=O)C5=CC=C(C=C5)O)O)CO)O)O)O)O)O"
Num Peaks: 8
 577 100.000000; 
 578 24.424424; 
 579 4.604605; 
 645 6.006006; 
 646 1.401401; 
 1155 5.505506; 
 1155 1.901902; 
 1156 3.403403; 


Name: Scopoletin
SYNON: $:00in-source
DB#: MetaboBASE0271
InChIKey: RODXRVNMMDRFIK-UHFFFAOYSA-N
Precursor_type: [M-H]-
Spectrum_type: MS2
PrecursorMZ: 191
Instrument_type: LC-ESI-TOF
Instrument: impact HD
Ion_mode: N
Collision_energy: 40
InChIKey: RODXRVNMMDRFIK-UHFFFAOYSA-N
Formula: C10H8O4
MW: 192
ExactMass: 192.042258736
Comments: "license=License CC-BY-NC-SA 4.0 International" "author=Plant Biology, The Noble Foundation, Ardmore, OK, US/Dennis Fine, Daniel Wherritt, and Lloyd Sumner" "instrument type=LC-ESI-TOF" "instrument=impact HD" "ionization=ESI" "ionization mode=negative" "ms level=MS2" "precursor m/z=191" "isolation width=5" "collision gas=Nitrogen" "collision energy=40" "peak width=0.015" "date=2014-01-10 14:40:31+01:00" "column=Waters Acquity BEH C18 1.7um x 2.1 x 150 mm" "retention time=263.4" "raw data file=C:\Data\Confirmed Standards\14Jan9 Confirmed stds MSMS\Scopolein (vial 77).d" "precursor type=[M-H]-" "mass accuracy=183.15568586396682" "mass error=-0.03498273600001767" "cas number=92-61-5" "SMILES=COc1cc2ccc(=O)oc2cc1O" "InChI=InChI=1S/C10H8O4/c1-13-9-4-6-2-3-10(12)14-8(6)5-7(9)11/h2-5,11H,1H3" "InChIKey=RODXRVNMMDRFIK-UHFFFAOYSA-N" "molecular formula=C10H8O4" "total exact mass=192.042258736" "SMILES=COC1=C(C=C2C(=C1)C=CC(=O)O2)O"
Num Peaks: 3
 104 100.000000; 
 120 84.084084; 
 148 44.544545; 


Name: Scopoletin
SYNON: $:00in-source
DB#: MetaboBASE0272
InChIKey: RODXRVNMMDRFIK-UHFFFAOYSA-N
Instrument_type: LC-ESI-TOF
Instrument: impact HD
Ion_mode: N
Collision_energy: 10
InChIKey: RODXRVNMMDRFIK-UHFFFAOYSA-N
Formula: C10H8O4
MW: 192
ExactMass: 192.042258736
Comments: "license=License CC-BY-NC-SA 4.0 International" "author=Plant Biology, The Noble Foundation, Ardmore, OK, US/Dennis Fine, Daniel Wherritt, and Lloyd Sumner" "instrument type=LC-ESI-TOF" "instrument=impact HD" "ionization=ESI" "ionization mode=negative" "collision gas=Nitrogen" "collision energy=10" "peak width=0.021" "date=2013-11-07 07:28:02+01:00" "column=Waters Acquity BEH C18 1.7um x 2.1 x 150 mm" "retention time=262.8" "raw data file=C:\Data\Confirmed Standards\Confirmed Stds 6Nov13\Scopolein (vial 77).d" "cas number=92-61-5" "SMILES=COc1cc2ccc(=O)oc2cc1O" "InChI=InChI=1S/C10H8O4/c1-13-9-4-6-2-3-10(12)14-8(6)5-7(9)11/h2-5,11H,1H3" "InChIKey=RODXRVNMMDRFIK-UHFFFAOYSA-N" "molecular formula=C10H8O4" "total exact mass=192.042258736" "SMILES=COC1=C(C=C2C(=C1)C=CC(=O)O2)O"
Num Peaks: 24
 104 1.101101; 
 120 2.502503; 
 148 25.025025; 
 149 1.801802; 
 176 100.000000; 
 177 7.907908; 
 191 16.016016; 
 192 1.701702; 
 292 1.001001; 
 320 1.201201; 
 381 42.042042; 
 382 7.107107; 
 383 1.101101; 
 389 3.403403; 
 405 10.410410; 
 406 1.901902; 
 467 3.303303; 
 619 1.101101; 
 674 2.302302; 
 724 1.401401; 
 818 1.301301; 
 820 14.714715; 
 821 6.106106; 
 822 1.701702; 


Name: Scopoletin
SYNON: $:00in-source
DB#: MetaboBASE0273
InChIKey: RODXRVNMMDRFIK-UHFFFAOYSA-N
Precursor_type: [M-H]-
Spectrum_type: MS2
PrecursorMZ: 191.0344
Instrument_type: LC-ESI-TOF
Instrument: impact HD
Ion_mode: N
Collision_energy: 10
InChIKey: RODXRVNMMDRFIK-UHFFFAOYSA-N
Formula: C10H8O4
MW: 192
ExactMass: 192.042258736
Comments: "license=License CC-BY-NC-SA 4.0 International" "author=Plant Biology, The Noble Foundation, Ardmore, OK, US/Dennis Fine, Daniel Wherritt, and Lloyd Sumner" "instrument type=LC-ESI-TOF" "instrument=impact HD" "ionization=ESI" "ionization mode=negative" "ms level=MS2" "precursor m/z=191.0344" "isolation width=5" "collision gas=Nitrogen" "collision energy=10" "peak width=0.014" "date=2014-01-10 14:40:31+01:00" "column=Waters Acquity BEH C18 1.7um x 2.1 x 150 mm" "retention time=263.4" "raw data file=C:\Data\Confirmed Standards\14Jan9 Confirmed stds MSMS\Scopolein (vial 77).d" "precursor type=[M-H]-" "mass accuracy=3.0504244262424653" "mass error=-5.827360000125736E-4" "cas number=92-61-5" "SMILES=COc1cc2ccc(=O)oc2cc1O" "InChI=InChI=1S/C10H8O4/c1-13-9-4-6-2-3-10(12)14-8(6)5-7(9)11/h2-5,11H,1H3" "InChIKey=RODXRVNMMDRFIK-UHFFFAOYSA-N" "molecular formula=C10H8O4" "total exact mass=192.042258736" "SMILES=COC1=C(C=C2C(=C1)C=CC(=O)O2)O"
Num Peaks: 8
 104 2.002002; 
 104 2.002002; 
 137 2.202202; 
 148 3.303303; 
 176 100.000000; 
 177 11.911912; 
 191 88.188188; 
 192 10.310310; 


Name: Scopoletin
SYNON: $:00in-source
DB#: MetaboBASE0274
InChIKey: RODXRVNMMDRFIK-UHFFFAOYSA-N
Precursor_type: [M-H]-
Spectrum_type: MS2
PrecursorMZ: 191.0384
Instrument_type: LC-ESI-TOF
Instrument: impact HD
Ion_mode: N
Collision_energy: 20
InChIKey: RODXRVNMMDRFIK-UHFFFAOYSA-N
Formula: C10H8O4
MW: 192
ExactMass: 192.042258736
Comments: "license=License CC-BY-NC-SA 4.0 International" "author=Plant Biology, The Noble Foundation, Ardmore, OK, US/Dennis Fine, Daniel Wherritt, and Lloyd Sumner" "instrument type=LC-ESI-TOF" "instrument=impact HD" "ionization=ESI" "ionization mode=negative" "ms level=MS2" "precursor m/z=191.0384" "isolation width=5" "collision gas=Nitrogen" "collision energy=20" "peak width=0.015" "date=2014-01-10 14:40:31+01:00" "column=Waters Acquity BEH C18 1.7um x 2.1 x 150 mm" "retention time=263.4" "raw data file=C:\Data\Confirmed Standards\14Jan9 Confirmed stds MSMS\Scopolein (vial 77).d" "precursor type=[M-H]-" "mass accuracy=17.8878382564872" "mass error=0.003417263999978104" "cas number=92-61-5" "SMILES=COc1cc2ccc(=O)oc2cc1O" "InChI=InChI=1S/C10H8O4/c1-13-9-4-6-2-3-10(12)14-8(6)5-7(9)11/h2-5,11H,1H3" "InChIKey=RODXRVNMMDRFIK-UHFFFAOYSA-N" "molecular formula=C10H8O4" "total exact mass=192.042258736" "SMILES=COC1=C(C=C2C(=C1)C=CC(=O)O2)O"
Num Peaks: 8
 104 4.004004; 
 120 6.506507; 
 148 40.040040; 
 149 4.304304; 
 176 100.000000; 
 177 12.012012; 
 180 2.602603; 
 191 3.403403; 


Name: Scopoletin
SYNON: $:00in-source
DB#: MetaboBASE0275
InChIKey: RODXRVNMMDRFIK-UHFFFAOYSA-N
Precursor_type: [M-H]-
Spectrum_type: MS2
PrecursorMZ: 191
Instrument_type: LC-ESI-TOF
Instrument: impact HD
Ion_mode: N
Collision_energy: 30
InChIKey: RODXRVNMMDRFIK-UHFFFAOYSA-N
Formula: C10H8O4
MW: 192
ExactMass: 192.042258736
Comments: "license=License CC-BY-NC-SA 4.0 International" "author=Plant Biology, The Noble Foundation, Ardmore, OK, US/Dennis Fine, Daniel Wherritt, and Lloyd Sumner" "instrument type=LC-ESI-TOF" "instrument=impact HD" "ionization=ESI" "ionization mode=negative" "ms level=MS2" "precursor m/z=191" "isolation width=5" "collision gas=Nitrogen" "collision energy=30" "peak width=0.015" "date=2014-01-10 14:40:31+01:00" "column=Waters Acquity BEH C18 1.7um x 2.1 x 150 mm" "retention time=263.4" "raw data file=C:\Data\Confirmed Standards\14Jan9 Confirmed stds MSMS\Scopolein (vial 77).d" "precursor type=[M-H]-" "mass accuracy=183.15568586396682" "mass error=-0.03498273600001767" "cas number=92-61-5" "SMILES=COc1cc2ccc(=O)oc2cc1O" "InChI=InChI=1S/C10H8O4/c1-13-9-4-6-2-3-10(12)14-8(6)5-7(9)11/h2-5,11H,1H3" "InChIKey=RODXRVNMMDRFIK-UHFFFAOYSA-N" "molecular formula=C10H8O4" "total exact mass=192.042258736" "SMILES=COC1=C(C=C2C(=C1)C=CC(=O)O2)O"
Num Peaks: 5
 104 40.740741; 
 105 13.113113; 
 120 81.681682; 
 148 100.000000; 
 176 77.877878; 


Name: Scopoletin
SYNON: $:00in-source
DB#: MetaboBASE0276
InChIKey: RODXRVNMMDRFIK-UHFFFAOYSA-N
Instrument_type: LC-ESI-TOF
Instrument: impact HD
Ion_mode: N
InChIKey: RODXRVNMMDRFIK-UHFFFAOYSA-N
Formula: C10H8O4
MW: 192
ExactMass: 192.042258736
Comments: "license=License CC-BY-NC-SA 4.0 International" "author=Plant Biology, The Noble Foundation, Ardmore, OK, US/Dennis Fine, Daniel Wherritt, and Lloyd Sumner" "instrument type=LC-ESI-TOF" "instrument=impact HD" "ionization=ESI" "ionization mode=negative" "collision gas=Nitrogen" "peak width=0.013" "date=2014-01-10 14:40:31+01:00" "column=Waters Acquity BEH C18 1.7um x 2.1 x 150 mm" "retention time=263.4" "raw data file=C:\Data\Confirmed Standards\14Jan9 Confirmed stds MSMS\Scopolein (vial 77).d" "cas number=92-61-5" "SMILES=COc1cc2ccc(=O)oc2cc1O" "InChI=InChI=1S/C10H8O4/c1-13-9-4-6-2-3-10(12)14-8(6)5-7(9)11/h2-5,11H,1H3" "InChIKey=RODXRVNMMDRFIK-UHFFFAOYSA-N" "molecular formula=C10H8O4" "total exact mass=192.042258736" "SMILES=COC1=C(C=C2C(=C1)C=CC(=O)O2)O"
Num Peaks: 10
 176 12.612613; 
 191 100.000000; 
 192 8.608609; 
 259 3.603604; 
 320 2.402402; 
 381 6.006006; 
 389 5.505506; 
 405 3.203203; 
 820 5.805806; 
 821 2.702703; 


Name: Tricetin
SYNON: $:00in-source
DB#: MetaboBASE0277
InChIKey: ARSRJFRKVXALTF-UHFFFAOYSA-N
Precursor_type: [M-H]-
Spectrum_type: MS2
PrecursorMZ: 301.0407
Instrument_type: LC-ESI-TOF
Instrument: impact HD
Ion_mode: N
Collision_energy: 20
InChIKey: ARSRJFRKVXALTF-UHFFFAOYSA-N
Formula: C15H10O7
MW: 302
ExactMass: 302.04265266
Comments: "license=License CC-BY-NC-SA 4.0 International" "author=Plant Biology, The Noble Foundation, Ardmore, OK, US/Dennis Fine, Daniel Wherritt, and Lloyd Sumner" "instrument type=LC-ESI-TOF" "instrument=impact HD" "ionization=ESI" "ionization mode=negative" "ms level=MS2" "precursor m/z=301.0407" "isolation width=5" "collision gas=Nitrogen" "collision energy=20" "peak width=0.014" "date=2013-11-18 21:30:50+01:00" "column=Waters Acquity BEH C18 1.7um x 2.1 x 150 mm" "retention time=390" "raw data file=C:\Data\Confirmed Standards\Confirmed stds MSMS 14Nov13\Tricetin MSMS (vial 72).d" "precursor type=[M-H]-" "mass accuracy=17.683123909883637" "mass error=0.005323340000018106" "cas number=520-31-0" "SMILES=c1c(cc(c(c1O)O)O)c2cc(=O)c3c(cc(cc3o2)O)O" "InChI=InChI=1S/C15H10O7/c16-7-3-8(17)14-9(18)5-12(22-13(14)4-7)6-1-10(19)15(21)11(20)2-6/h1-5,16-17,19-21H" "InChIKey=ARSRJFRKVXALTF-UHFFFAOYSA-N" "molecular formula=C15H10O7" "total exact mass=302.04265266" "SMILES=C=1C(=CC(=C(C1O)O)O)C2=CC(=O)C=3C(=CC(=CC3O2)O)O"
Num Peaks: 3
 301 100.000000; 
 302 15.615616; 
 303 2.502503; 


Name: Tricetin
SYNON: $:00in-source
DB#: MetaboBASE0278
InChIKey: ARSRJFRKVXALTF-UHFFFAOYSA-N
Precursor_type: [M-H]-
Spectrum_type: MS2
PrecursorMZ: 301.0396
Instrument_type: LC-ESI-TOF
Instrument: impact HD
Ion_mode: N
Collision_energy: 40
InChIKey: ARSRJFRKVXALTF-UHFFFAOYSA-N
Formula: C15H10O7
MW: 302
ExactMass: 302.04265266
Comments: "license=License CC-BY-NC-SA 4.0 International" "author=Plant Biology, The Noble Foundation, Ardmore, OK, US/Dennis Fine, Daniel Wherritt, and Lloyd Sumner" "instrument type=LC-ESI-TOF" "instrument=impact HD" "ionization=ESI" "ionization mode=negative" "ms level=MS2" "precursor m/z=301.0396" "isolation width=5" "collision gas=Nitrogen" "collision energy=40" "peak width=0.013" "date=2013-11-18 21:30:50+01:00" "column=Waters Acquity BEH C18 1.7um x 2.1 x 150 mm" "retention time=390" "raw data file=C:\Data\Confirmed Standards\Confirmed stds MSMS 14Nov13\Tricetin MSMS (vial 72).d" "precursor type=[M-H]-" "mass accuracy=14.029184200384307" "mass error=0.004223340000010012" "cas number=520-31-0" "SMILES=c1c(cc(c(c1O)O)O)c2cc(=O)c3c(cc(cc3o2)O)O" "InChI=InChI=1S/C15H10O7/c16-7-3-8(17)14-9(18)5-12(22-13(14)4-7)6-1-10(19)15(21)11(20)2-6/h1-5,16-17,19-21H" "InChIKey=ARSRJFRKVXALTF-UHFFFAOYSA-N" "molecular formula=C15H10O7" "total exact mass=302.04265266" "SMILES=C=1C(=CC(=C(C1O)O)O)C2=CC(=O)C=3C(=CC(=CC3O2)O)O"
Num Peaks: 6
 149 100.000000; 
 150 15.615616; 
 151 13.813814; 
 191 12.012012; 
 227 10.310310; 
 301 20.120120; 


Name: Tricetin
SYNON: $:00in-source
DB#: MetaboBASE0279
InChIKey: ARSRJFRKVXALTF-UHFFFAOYSA-N
Instrument_type: LC-ESI-TOF
Instrument: impact HD
Ion_mode: N
Collision_energy: 10
InChIKey: ARSRJFRKVXALTF-UHFFFAOYSA-N
Formula: C15H10O7
MW: 302
ExactMass: 302.04265266
Comments: "license=License CC-BY-NC-SA 4.0 International" "author=Plant Biology, The Noble Foundation, Ardmore, OK, US/Dennis Fine, Daniel Wherritt, and Lloyd Sumner" "instrument type=LC-ESI-TOF" "instrument=impact HD" "ionization=ESI" "ionization mode=negative" "collision gas=Nitrogen" "collision energy=10" "peak width=0.02" "date=2013-11-07 04:44:57+01:00" "column=Waters Acquity BEH C18 1.7um x 2.1 x 150 mm" "retention time=390" "raw data file=C:\Data\Confirmed Standards\Confirmed Stds 6Nov13\Tricetin (vial 72).d" "cas number=520-31-0" "SMILES=c1c(cc(c(c1O)O)O)c2cc(=O)c3c(cc(cc3o2)O)O" "InChI=InChI=1S/C15H10O7/c16-7-3-8(17)14-9(18)5-12(22-13(14)4-7)6-1-10(19)15(21)11(20)2-6/h1-5,16-17,19-21H" "InChIKey=ARSRJFRKVXALTF-UHFFFAOYSA-N" "molecular formula=C15H10O7" "total exact mass=302.04265266" "SMILES=C=1C(=CC(=C(C1O)O)O)C2=CC(=O)C=3C(=CC(=CC3O2)O)O"
Num Peaks: 28
 227 1.301301; 
 271 4.804805; 
 272 1.101101; 
 273 4.704705; 
 299 23.123123; 
 300 3.803804; 
 301 100.000000; 
 302 12.812813; 
 303 1.901902; 
 315 2.002002; 
 317 6.506507; 
 318 1.301301; 
 335 31.231231; 
 336 4.304304; 
 569 2.802803; 
 571 1.501502; 
 573 11.611612; 
 574 3.403403; 
 599 32.432432; 
 600 9.109109; 
 601 2.202202; 
 617 4.004004; 
 618 1.201201; 
 621 2.302302; 
 623 1.001001; 
 633 4.104104; 
 634 1.201201; 
 651 1.001001; 


Name: Kaempferol-3-O-rutinoside
SYNON: $:00in-source
DB#: MetaboBASE0280
InChIKey: RTATXGUCZHCSNG-QHWHWDPRSA-N
Precursor_type: [M-H]-
Spectrum_type: MS2
PrecursorMZ: 593.1521
Instrument_type: LC-ESI-TOF
Instrument: impact HD
Ion_mode: N
Collision_energy: 40
InChIKey: RTATXGUCZHCSNG-QHWHWDPRSA-N
Formula: C27H30O15
MW: 594
ExactMass: 594.1584702600001
Comments: "license=License CC-BY-NC-SA 4.0 International" "author=Plant Biology, The Noble Foundation, Ardmore, OK, US/Dennis Fine, Daniel Wherritt, and Lloyd Sumner" "instrument type=LC-ESI-TOF" "instrument=impact HD" "ionization=ESI" "ionization mode=negative" "ms level=MS2" "precursor m/z=593.1521" "isolation width=5" "collision gas=Nitrogen" "collision energy=40" "peak width=0.013" "date=2013-11-09 08:12:37+01:00" "column=Waters Acquity BEH C18 1.7um x 2.1 x 150 mm" "retention time=351.6" "raw data file=C:\Data\Confirmed Standards\Confirmed Stds 7Nov13\Kaempferol rutinoside MSMS.d" "precursor type=[M-H]-" "mass accuracy=1.5269945095152266" "mass error=9.057400000074267E-4" "cas number=17650-84-9" "SMILES=C[C@H]1[C@@H]([C@H]([C@H]([C@@H](O1)OC[C@@H]2[C@H]([C@@H]([C@H]([C@@H](O2)Oc3c(=O)c4c(cc(cc4oc3c5ccc(cc5)O)O)O)O)O)O)O)O)O" "InChI=InChI=1S/C27H30O15/c1-9-17(31)20(34)22(36)26(39-9)38-8-15-18(32)21(35)23(37)27(41-15)42-25-19(33)16-13(30)6-12(29)7-14(16)40-24(25)10-2-4-11(28)5-3-10/h2-7,9,15,17-18,20-23,26-32,34-37H,8H2,1H3/t9-,15+,17-,18+,20+,21-,22+,23+,26+,27-/m0/s1" "InChIKey=RTATXGUCZHCSNG-QHWHWDPRSA-N" "molecular formula=C27H30O15" "total exact mass=594.1584702600001" "SMILES=OC=1C=CC(=CC1)C=2OC=3C=C(O)C=C(O)C3C(=O)C2OC4OC(COC5OC(C)C(O)C(O)C5O)C(O)C(O)C4O" "InChI=InChI=1S/C27H30O15/c1-9-17(31)20(34)22(36)26(39-9)38-8-15-18(32)21(35)23(37)27(41-15)42-25-19(33)16-13(30)6-12(29)7-14(16)40-24(25)10-2-4-11(28)5-3-10/h2-7,9,15,17-18,20-23,26-32,34-37H,8H2,1H3/t9-,15-,17-,18-,20+,21+,22+,23-,26+,27+/m1/s1" "InChIKey=RTATXGUCZHCSNG-WLPGYADJSA-N"
Num Peaks: 6
 255 2.902903; 
 284 59.259259; 
 285 100.000000; 
 286 9.909910; 
 593 12.812813; 
 594 2.702703; 


Name: Kaempferol-3-O-rutinoside
SYNON: $:00in-source
DB#: MetaboBASE0281
InChIKey: RTATXGUCZHCSNG-QHWHWDPRSA-N
Precursor_type: [M-H]-
Spectrum_type: MS2
PrecursorMZ: 593.2
Instrument_type: LC-ESI-TOF
Instrument: impact HD
Ion_mode: N
Collision_energy: 50
InChIKey: RTATXGUCZHCSNG-QHWHWDPRSA-N
Formula: C27H30O15
MW: 594
ExactMass: 594.1584702600001
Comments: "license=License CC-BY-NC-SA 4.0 International" "author=Plant Biology, The Noble Foundation, Ardmore, OK, US/Dennis Fine, Daniel Wherritt, and Lloyd Sumner" "instrument type=LC-ESI-TOF" "instrument=impact HD" "ionization=ESI" "ionization mode=negative" "ms level=MS2" "precursor m/z=593.2" "isolation width=5" "collision gas=Nitrogen" "collision energy=50" "peak width=0.013" "date=2013-11-09 08:12:37+01:00" "column=Waters Acquity BEH C18 1.7um x 2.1 x 150 mm" "retention time=351.6" "raw data file=C:\Data\Confirmed Standards\Confirmed Stds 7Nov13\Kaempferol rutinoside MSMS.d" "precursor type=[M-H]-" "mass accuracy=82.27535401219546" "mass error=0.04880574000003435" "cas number=17650-84-9" "SMILES=C[C@H]1[C@@H]([C@H]([C@H]([C@@H](O1)OC[C@@H]2[C@H]([C@@H]([C@H]([C@@H](O2)Oc3c(=O)c4c(cc(cc4oc3c5ccc(cc5)O)O)O)O)O)O)O)O)O" "InChI=InChI=1S/C27H30O15/c1-9-17(31)20(34)22(36)26(39-9)38-8-15-18(32)21(35)23(37)27(41-15)42-25-19(33)16-13(30)6-12(29)7-14(16)40-24(25)10-2-4-11(28)5-3-10/h2-7,9,15,17-18,20-23,26-32,34-37H,8H2,1H3/t9-,15+,17-,18+,20+,21-,22+,23+,26+,27-/m0/s1" "InChIKey=RTATXGUCZHCSNG-QHWHWDPRSA-N" "molecular formula=C27H30O15" "total exact mass=594.1584702600001" "SMILES=OC=1C=CC(=CC1)C=2OC=3C=C(O)C=C(O)C3C(=O)C2OC4OC(COC5OC(C)C(O)C(O)C5O)C(O)C(O)C4O" "InChI=InChI=1S/C27H30O15/c1-9-17(31)20(34)22(36)26(39-9)38-8-15-18(32)21(35)23(37)27(41-15)42-25-19(33)16-13(30)6-12(29)7-14(16)40-24(25)10-2-4-11(28)5-3-10/h2-7,9,15,17-18,20-23,26-32,34-37H,8H2,1H3/t9-,15-,17-,18-,20+,21+,22+,23-,26+,27+/m1/s1" "InChIKey=RTATXGUCZHCSNG-WLPGYADJSA-N"
Num Peaks: 8
 227 8.008008; 
 229 4.304304; 
 255 19.619620; 
 256 4.604605; 
 257 4.604605; 
 284 99.699700; 
 285 100.000000; 
 286 9.409409; 


Name: Kaempferol-3-O-rutinoside
SYNON: $:00in-source
DB#: MetaboBASE0282
InChIKey: RTATXGUCZHCSNG-QHWHWDPRSA-N
Instrument_type: LC-ESI-TOF
Instrument: impact HD
Ion_mode: N
Collision_energy: 10
InChIKey: RTATXGUCZHCSNG-QHWHWDPRSA-N
Formula: C27H30O15
MW: 594
ExactMass: 594.1584702600001
Comments: "license=License CC-BY-NC-SA 4.0 International" "author=Plant Biology, The Noble Foundation, Ardmore, OK, US/Dennis Fine, Daniel Wherritt, and Lloyd Sumner" "instrument type=LC-ESI-TOF" "instrument=impact HD" "ionization=ESI" "ionization mode=negative" "collision gas=Nitrogen" "collision energy=10" "peak width=0.016" "date=2013-11-08 08:44:55+01:00" "column=Waters Acquity BEH C18 1.7um x 2.1 x 150 mm" "retention time=351.6" "raw data file=C:\Data\Confirmed Standards\Confirmed Stds 7Nov13\Kaempferol rutinoside (vial 84.d" "annotformula=593.1511;       C27H29O15" "cas number=17650-84-9" "SMILES=C[C@H]1[C@@H]([C@H]([C@H]([C@@H](O1)OC[C@@H]2[C@H]([C@@H]([C@H]([C@@H](O2)Oc3c(=O)c4c(cc(cc4oc3c5ccc(cc5)O)O)O)O)O)O)O)O)O" "InChI=InChI=1S/C27H30O15/c1-9-17(31)20(34)22(36)26(39-9)38-8-15-18(32)21(35)23(37)27(41-15)42-25-19(33)16-13(30)6-12(29)7-14(16)40-24(25)10-2-4-11(28)5-3-10/h2-7,9,15,17-18,20-23,26-32,34-37H,8H2,1H3/t9-,15+,17-,18+,20+,21-,22+,23+,26+,27-/m0/s1" "InChIKey=RTATXGUCZHCSNG-QHWHWDPRSA-N" "molecular formula=C27H30O15" "total exact mass=594.1584702600001" "SMILES=OC=1C=CC(=CC1)C=2OC=3C=C(O)C=C(O)C3C(=O)C2OC4OC(COC5OC(C)C(O)C(O)C5O)C(O)C(O)C4O" "InChI=InChI=1S/C27H30O15/c1-9-17(31)20(34)22(36)26(39-9)38-8-15-18(32)21(35)23(37)27(41-15)42-25-19(33)16-13(30)6-12(29)7-14(16)40-24(25)10-2-4-11(28)5-3-10/h2-7,9,15,17-18,20-23,26-32,34-37H,8H2,1H3/t9-,15-,17-,18-,20+,21+,22+,23-,26+,27+/m1/s1" "InChIKey=RTATXGUCZHCSNG-WLPGYADJSA-N"
Num Peaks: 6
 593 100.000000; 
 594 25.225225; 
 595 4.604605; 
 661 3.703704; 
 662 1.101101; 
 1187 1.501502; 


Name: 6,7,4'-Trihydroxyisoflavone
SYNON: $:00in-source
DB#: MetaboBASE0283
InChIKey: GYLUFQJZYAJQDI-UHFFFAOYSA-N
Precursor_type: [M-H]-
Spectrum_type: MS2
PrecursorMZ: 269.1
Instrument_type: LC-ESI-TOF
Instrument: impact HD
Ion_mode: N
Collision_energy: 50
InChIKey: GYLUFQJZYAJQDI-UHFFFAOYSA-N
Formula: C15H10O5
MW: 270
ExactMass: 270.05282342
Comments: "license=License CC-BY-NC-SA 4.0 International" "author=Plant Biology, The Noble Foundation, Ardmore, OK, US/Dennis Fine, Daniel Wherritt, and Lloyd Sumner" "instrument type=LC-ESI-TOF" "instrument=impact HD" "ionization=ESI" "ionization mode=negative" "ms level=MS2" "precursor m/z=269.1" "isolation width=5" "collision gas=Nitrogen" "collision energy=50" "peak width=0.02" "date=2013-11-09 11:36:45+01:00" "column=Waters Acquity BEH C18 1.7um x 2.1 x 150 mm" "retention time=392.4" "raw data file=C:\Data\Confirmed Standards\Confirmed Stds 7Nov13\6,7,4-Trihydroxyisoflavone MSM.d" "precursor type=[M-H]-" "mass accuracy=202.3507246377982" "mass error=0.0544525800000315" "cas number=17817-31-1" "SMILES=c1cc(ccc1c2coc3cc(c(cc3c2=O)O)O)O" "InChI=InChI=1S/C15H10O5/c16-9-3-1-8(2-4-9)11-7-20-14-6-13(18)12(17)5-10(14)15(11)19/h1-7,16-18H" "InChIKey=GYLUFQJZYAJQDI-UHFFFAOYSA-N" "molecular formula=C15H10O5" "total exact mass=270.05282342" "SMILES=C1=CC(=CC=C1C2=COC3=CC(=C(C=C3C2=O)O)O)O"
Num Peaks: 24
 107 14.014014; 
 115 21.421421; 
 116 12.512513; 
 117 100.000000; 
 119 18.318318; 
 132 15.515516; 
 133 19.219219; 
 143 32.832833; 
 156 13.913914; 
 167 21.721722; 
 168 10.410410; 
 171 17.617618; 
 183 12.912913; 
 184 11.111111; 
 195 31.931932; 
 196 13.813814; 
 211 47.847848; 
 212 17.617618; 
 213 10.510511; 
 223 34.434434; 
 224 31.131131; 
 239 56.156156; 
 240 32.432432; 
 267 12.012012; 


Name: 6,7,4'-Trihydroxyisoflavone
SYNON: $:00in-source
DB#: MetaboBASE0284
InChIKey: GYLUFQJZYAJQDI-UHFFFAOYSA-N
Instrument_type: LC-ESI-TOF
Instrument: impact HD
Ion_mode: N
Collision_energy: 10
InChIKey: GYLUFQJZYAJQDI-UHFFFAOYSA-N
Formula: C15H10O5
MW: 270
ExactMass: 270.05282342
Comments: "license=License CC-BY-NC-SA 4.0 International" "author=Plant Biology, The Noble Foundation, Ardmore, OK, US/Dennis Fine, Daniel Wherritt, and Lloyd Sumner" "instrument type=LC-ESI-TOF" "instrument=impact HD" "ionization=ESI" "ionization mode=negative" "collision gas=Nitrogen" "collision energy=10" "peak width=0.016" "date=2013-11-08 12:49:31+01:00" "column=Waters Acquity BEH C18 1.7um x 2.1 x 150 mm" "retention time=392.4" "raw data file=C:\Data\Confirmed Standards\Confirmed Stds 7Nov13\6,7,4-Trihydroxyisoflavone.d" "cas number=17817-31-1" "SMILES=c1cc(ccc1c2coc3cc(c(cc3c2=O)O)O)O" "InChI=InChI=1S/C15H10O5/c16-9-3-1-8(2-4-9)11-7-20-14-6-13(18)12(17)5-10(14)15(11)19/h1-7,16-18H" "InChIKey=GYLUFQJZYAJQDI-UHFFFAOYSA-N" "molecular formula=C15H10O5" "total exact mass=270.05282342" "SMILES=C1=CC(=CC=C1C2=COC3=CC(=C(C=C3C2=O)O)O)O"
Num Peaks: 8
 269 100.000000; 
 270 12.212212; 
 271 1.401401; 
 271 1.301301; 
 285 5.005005; 
 537 1.101101; 
 551 1.801802; 
 561 1.101101; 


Name: 6,7,4'-Trihydroxyisoflavone
SYNON: $:00in-source
DB#: MetaboBASE0285
InChIKey: GYLUFQJZYAJQDI-UHFFFAOYSA-N
Precursor_type: [M-H]-
Spectrum_type: MS2
PrecursorMZ: 269.1
Instrument_type: LC-ESI-TOF
Instrument: impact HD
Ion_mode: N
Collision_energy: 60
InChIKey: GYLUFQJZYAJQDI-UHFFFAOYSA-N
Formula: C15H10O5
MW: 270
ExactMass: 270.05282342
Comments: "license=License CC-BY-NC-SA 4.0 International" "author=Plant Biology, The Noble Foundation, Ardmore, OK, US/Dennis Fine, Daniel Wherritt, and Lloyd Sumner" "instrument type=LC-ESI-TOF" "instrument=impact HD" "ionization=ESI" "ionization mode=negative" "ms level=MS2" "precursor m/z=269.1" "isolation width=5" "collision gas=Nitrogen" "collision energy=60" "peak width=0.021" "date=2013-11-09 11:36:45+01:00" "column=Waters Acquity BEH C18 1.7um x 2.1 x 150 mm" "retention time=392.4" "raw data file=C:\Data\Confirmed Standards\Confirmed Stds 7Nov13\6,7,4-Trihydroxyisoflavone MSM.d" "precursor type=[M-H]-" "mass accuracy=202.3507246377982" "mass error=0.0544525800000315" "cas number=17817-31-1" "SMILES=c1cc(ccc1c2coc3cc(c(cc3c2=O)O)O)O" "InChI=InChI=1S/C15H10O5/c16-9-3-1-8(2-4-9)11-7-20-14-6-13(18)12(17)5-10(14)15(11)19/h1-7,16-18H" "InChIKey=GYLUFQJZYAJQDI-UHFFFAOYSA-N" "molecular formula=C15H10O5" "total exact mass=270.05282342" "SMILES=C1=CC(=CC=C1C2=COC3=CC(=C(C=C3C2=O)O)O)O"
Num Peaks: 15
 107 38.338338; 
 116 65.365365; 
 117 100.000000; 
 119 25.625626; 
 132 41.641642; 
 141 22.922923; 
 143 33.833834; 
 167 43.543544; 
 182 21.621622; 
 183 30.830831; 
 195 53.053053; 
 210 21.921922; 
 211 56.056056; 
 223 34.634635; 
 239 41.441441; 


Name: 6,7,4'-Trihydroxyisoflavone
SYNON: $:00in-source
DB#: MetaboBASE0286
InChIKey: GYLUFQJZYAJQDI-UHFFFAOYSA-N
Precursor_type: [M-H]-
Spectrum_type: MS2
PrecursorMZ: 269.0453
Instrument_type: LC-ESI-TOF
Instrument: impact HD
Ion_mode: N
Collision_energy: 40
InChIKey: GYLUFQJZYAJQDI-UHFFFAOYSA-N
Formula: C15H10O5
MW: 270
ExactMass: 270.05282342
Comments: "license=License CC-BY-NC-SA 4.0 International" "author=Plant Biology, The Noble Foundation, Ardmore, OK, US/Dennis Fine, Daniel Wherritt, and Lloyd Sumner" "instrument type=LC-ESI-TOF" "instrument=impact HD" "ionization=ESI" "ionization mode=negative" "ms level=MS2" "precursor m/z=269.0453" "isolation width=5" "collision gas=Nitrogen" "collision energy=40" "peak width=0.021" "date=2013-11-09 11:36:45+01:00" "column=Waters Acquity BEH C18 1.7um x 2.1 x 150 mm" "retention time=392.4" "raw data file=C:\Data\Confirmed Standards\Confirmed Stds 7Nov13\6,7,4-Trihydroxyisoflavone MSM.d" "precursor type=[M-H]-" "mass accuracy=0.9196220859230061" "mass error=-2.4741999999378095E-4" "cas number=17817-31-1" "SMILES=c1cc(ccc1c2coc3cc(c(cc3c2=O)O)O)O" "InChI=InChI=1S/C15H10O5/c16-9-3-1-8(2-4-9)11-7-20-14-6-13(18)12(17)5-10(14)15(11)19/h1-7,16-18H" "InChIKey=GYLUFQJZYAJQDI-UHFFFAOYSA-N" "molecular formula=C15H10O5" "total exact mass=270.05282342" "SMILES=C1=CC(=CC=C1C2=COC3=CC(=C(C=C3C2=O)O)O)O"
Num Peaks: 48
 107 4.004004; 
 111 4.704705; 
 115 4.104104; 
 116 4.604605; 
 117 37.137137; 
 119 10.510511; 
 123 6.806807; 
 129 4.404404; 
 129 4.404404; 
 132 7.307307; 
 133 10.510511; 
 143 24.624625; 
 145 7.907908; 
 147 6.506507; 
 148 10.610611; 
 151 4.604605; 
 156 5.005005; 
 157 10.810811; 
 158 4.104104; 
 167 22.822823; 
 168 5.805806; 
 169 17.417417; 
 171 20.220220; 
 172 3.903904; 
 173 5.705706; 
 176 3.803804; 
 180 3.803804; 
 183 5.805806; 
 184 8.108108; 
 185 15.515516; 
 195 32.732733; 
 196 21.721722; 
 197 8.908909; 
 199 8.308308; 
 211 17.017017; 
 212 10.410410; 
 213 16.516517; 
 223 32.032032; 
 224 62.462462; 
 225 23.623624; 
 226 4.104104; 
 239 49.149149; 
 240 100.000000; 
 241 26.426426; 
 267 10.210210; 
 268 7.407407; 
 269 31.031031; 
 270 4.204204; 


Name: 6,8-Dimethyl-4-hydroxycoumarin
SYNON: $:00in-source
DB#: MetaboBASE0287
InChIKey: HVHIQQVTLCUBKA-UHFFFAOYSA-N
Precursor_type: [M-H]-
Spectrum_type: MS2
PrecursorMZ: 189
Instrument_type: LC-ESI-TOF
Instrument: impact HD
Ion_mode: N
Collision_energy: 30
InChIKey: HVHIQQVTLCUBKA-UHFFFAOYSA-N
Formula: C11H10O3
MW: 190
ExactMass: 190.06299417999998
Comments: "license=License CC-BY-NC-SA 4.0 International" "author=Plant Biology, The Noble Foundation, Ardmore, OK, US/Dennis Fine, Daniel Wherritt, and Lloyd Sumner" "instrument type=LC-ESI-TOF" "instrument=impact HD" "ionization=ESI" "ionization mode=negative" "ms level=MS2" "precursor m/z=189" "isolation width=5" "collision gas=Nitrogen" "collision energy=30" "peak width=0.014" "date=2014-01-10 23:12:15+01:00" "column=Waters Acquity BEH C18 1.7um x 2.1 x 150 mm" "retention time=669" "raw data file=C:\Data\Confirmed Standards\14Jan10 Confirmed stds MSMS\6,8-Dimethyl-4-hydroxycoumarin.d" "precursor type=[M-H]-" "mass accuracy=294.8051851851074" "mass error=-0.055718179999985296" "cas number=55004-76-7" "SMILES=Cc1cc(c2c(c1)c(cc(=O)o2)O)C" "InChI=InChI=1S/C11H10O3/c1-6-3-7(2)11-8(4-6)9(12)5-10(13)14-11/h3-5,12H,1-2H3" "InChIKey=HVHIQQVTLCUBKA-UHFFFAOYSA-N" "molecular formula=C11H10O3" "total exact mass=190.06299417999998" "SMILES=CC=1C=C(C)C=2OC(=O)C=C(O)C2C1"
Num Peaks: 2
 145 100.000000; 
 146 7.707708; 


Name: 6,8-Dimethyl-4-hydroxycoumarin
SYNON: $:00in-source
DB#: MetaboBASE0288
InChIKey: HVHIQQVTLCUBKA-UHFFFAOYSA-N
Instrument_type: LC-ESI-TOF
Instrument: impact HD
Ion_mode: N
Collision_energy: 10
InChIKey: HVHIQQVTLCUBKA-UHFFFAOYSA-N
Formula: C11H10O3
MW: 190
ExactMass: 190.06299417999998
Comments: "license=License CC-BY-NC-SA 4.0 International" "author=Plant Biology, The Noble Foundation, Ardmore, OK, US/Dennis Fine, Daniel Wherritt, and Lloyd Sumner" "instrument type=LC-ESI-TOF" "instrument=impact HD" "ionization=ESI" "ionization mode=negative" "collision gas=Nitrogen" "collision energy=10" "peak width=0.014" "date=2013-11-08 18:15:44+01:00" "column=Waters Acquity BEH C18 1.7um x 2.1 x 150 mm" "retention time=670.8" "raw data file=C:\Data\Confirmed Standards\Confirmed Stds 7Nov13\6,8-Dimethyl-4-hydroxycoumarin.d" "annotformula=145.0666;       C10H9O1" "annotformula=189.0570;       C11H9O3" "cas number=55004-76-7" "SMILES=Cc1cc(c2c(c1)c(cc(=O)o2)O)C" "InChI=InChI=1S/C11H10O3/c1-6-3-7(2)11-8(4-6)9(12)5-10(13)14-11/h3-5,12H,1-2H3" "InChIKey=HVHIQQVTLCUBKA-UHFFFAOYSA-N" "molecular formula=C11H10O3" "total exact mass=190.06299417999998" "SMILES=CC=1C=C(C)C=2OC(=O)C=C(O)C2C1"
Num Peaks: 7
 145 12.812813; 
 146 1.101101; 
 189 100.000000; 
 190 8.508509; 
 401 7.607608; 
 402 1.501502; 
 613 1.501502; 


Name: 6,8-Dimethyl-4-hydroxycoumarin
SYNON: $:00in-source
DB#: MetaboBASE0289
InChIKey: HVHIQQVTLCUBKA-UHFFFAOYSA-N
Instrument_type: LC-ESI-TOF
Instrument: impact HD
Ion_mode: N
InChIKey: HVHIQQVTLCUBKA-UHFFFAOYSA-N
Formula: C11H10O3
MW: 190
ExactMass: 190.06299417999998
Comments: "license=License CC-BY-NC-SA 4.0 International" "author=Plant Biology, The Noble Foundation, Ardmore, OK, US/Dennis Fine, Daniel Wherritt, and Lloyd Sumner" "instrument type=LC-ESI-TOF" "instrument=impact HD" "ionization=ESI" "ionization mode=negative" "collision gas=Nitrogen" "peak width=0.0088" "date=2014-01-10 23:12:15+01:00" "column=Waters Acquity BEH C18 1.7um x 2.1 x 150 mm" "retention time=669" "raw data file=C:\Data\Confirmed Standards\14Jan10 Confirmed stds MSMS\6,8-Dimethyl-4-hydroxycoumarin.d" "cas number=55004-76-7" "SMILES=Cc1cc(c2c(c1)c(cc(=O)o2)O)C" "InChI=InChI=1S/C11H10O3/c1-6-3-7(2)11-8(4-6)9(12)5-10(13)14-11/h3-5,12H,1-2H3" "InChIKey=HVHIQQVTLCUBKA-UHFFFAOYSA-N" "molecular formula=C11H10O3" "total exact mass=190.06299417999998" "SMILES=CC=1C=C(C)C=2OC(=O)C=C(O)C2C1"
Num Peaks: 3
 189 100.000000; 
 190 8.708709; 
 401 4.304304; 


Name: 6,8-Dimethyl-4-hydroxycoumarin
SYNON: $:00in-source
DB#: MetaboBASE0290
InChIKey: HVHIQQVTLCUBKA-UHFFFAOYSA-N
Precursor_type: [M-H]-
Spectrum_type: MS2
PrecursorMZ: 189.0561
Instrument_type: LC-ESI-TOF
Instrument: impact HD
Ion_mode: N
Collision_energy: 10
InChIKey: HVHIQQVTLCUBKA-UHFFFAOYSA-N
Formula: C11H10O3
MW: 190
ExactMass: 190.06299417999998
Comments: "license=License CC-BY-NC-SA 4.0 International" "author=Plant Biology, The Noble Foundation, Ardmore, OK, US/Dennis Fine, Daniel Wherritt, and Lloyd Sumner" "instrument type=LC-ESI-TOF" "instrument=impact HD" "ionization=ESI" "ionization mode=negative" "ms level=MS2" "precursor m/z=189.0561" "isolation width=5" "collision gas=Nitrogen" "collision energy=10" "peak width=0.0094" "date=2014-01-10 23:12:15+01:00" "column=Waters Acquity BEH C18 1.7um x 2.1 x 150 mm" "retention time=669" "raw data file=C:\Data\Confirmed Standards\14Jan10 Confirmed stds MSMS\6,8-Dimethyl-4-hydroxycoumarin.d" "precursor type=[M-H]-" "mass accuracy=2.019612168034771" "mass error=3.818200000011984E-4" "cas number=55004-76-7" "SMILES=Cc1cc(c2c(c1)c(cc(=O)o2)O)C" "InChI=InChI=1S/C11H10O3/c1-6-3-7(2)11-8(4-6)9(12)5-10(13)14-11/h3-5,12H,1-2H3" "InChIKey=HVHIQQVTLCUBKA-UHFFFAOYSA-N" "molecular formula=C11H10O3" "total exact mass=190.06299417999998" "SMILES=CC=1C=C(C)C=2OC(=O)C=C(O)C2C1"
Num Peaks: 3
 145 5.005005; 
 189 100.000000; 
 190 6.806807; 


Name: 6,8-Dimethyl-4-hydroxycoumarin
SYNON: $:00in-source
DB#: MetaboBASE0291
InChIKey: HVHIQQVTLCUBKA-UHFFFAOYSA-N
Precursor_type: [M-H]-
Spectrum_type: MS2
PrecursorMZ: 189.056
Instrument_type: LC-ESI-TOF
Instrument: impact HD
Ion_mode: N
Collision_energy: 20
InChIKey: HVHIQQVTLCUBKA-UHFFFAOYSA-N
Formula: C11H10O3
MW: 190
ExactMass: 190.06299417999998
Comments: "license=License CC-BY-NC-SA 4.0 International" "author=Plant Biology, The Noble Foundation, Ardmore, OK, US/Dennis Fine, Daniel Wherritt, and Lloyd Sumner" "instrument type=LC-ESI-TOF" "instrument=impact HD" "ionization=ESI" "ionization mode=negative" "ms level=MS2" "precursor m/z=189.056" "isolation width=5" "collision gas=Nitrogen" "collision energy=20" "peak width=0.012" "date=2014-01-10 23:12:15+01:00" "column=Waters Acquity BEH C18 1.7um x 2.1 x 150 mm" "retention time=669" "raw data file=C:\Data\Confirmed Standards\14Jan10 Confirmed stds MSMS\6,8-Dimethyl-4-hydroxycoumarin.d" "precursor type=[M-H]-" "mass accuracy=1.4906694314187356" "mass error=2.818200000263005E-4" "cas number=55004-76-7" "SMILES=Cc1cc(c2c(c1)c(cc(=O)o2)O)C" "InChI=InChI=1S/C11H10O3/c1-6-3-7(2)11-8(4-6)9(12)5-10(13)14-11/h3-5,12H,1-2H3" "InChIKey=HVHIQQVTLCUBKA-UHFFFAOYSA-N" "molecular formula=C11H10O3" "total exact mass=190.06299417999998" "SMILES=CC=1C=C(C)C=2OC(=O)C=C(O)C2C1"
Num Peaks: 4
 145 100.000000; 
 146 6.406406; 
 189 25.725726; 
 190 2.302302; 


Name: 6,8-Dimethyl-4-hydroxycoumarin
SYNON: $:00in-source
DB#: MetaboBASE0292
InChIKey: HVHIQQVTLCUBKA-UHFFFAOYSA-N
Precursor_type: [M-H]-
Spectrum_type: MS2
PrecursorMZ: 189
Instrument_type: LC-ESI-TOF
Instrument: impact HD
Ion_mode: N
Collision_energy: 40
InChIKey: HVHIQQVTLCUBKA-UHFFFAOYSA-N
Formula: C11H10O3
MW: 190
ExactMass: 190.06299417999998
Comments: "license=License CC-BY-NC-SA 4.0 International" "author=Plant Biology, The Noble Foundation, Ardmore, OK, US/Dennis Fine, Daniel Wherritt, and Lloyd Sumner" "instrument type=LC-ESI-TOF" "instrument=impact HD" "ionization=ESI" "ionization mode=negative" "ms level=MS2" "precursor m/z=189" "isolation width=5" "collision gas=Nitrogen" "collision energy=40" "peak width=0.014" "date=2014-01-10 23:12:15+01:00" "column=Waters Acquity BEH C18 1.7um x 2.1 x 150 mm" "retention time=669" "raw data file=C:\Data\Confirmed Standards\14Jan10 Confirmed stds MSMS\6,8-Dimethyl-4-hydroxycoumarin.d" "precursor type=[M-H]-" "mass accuracy=294.8051851851074" "mass error=-0.055718179999985296" "cas number=55004-76-7" "SMILES=Cc1cc(c2c(c1)c(cc(=O)o2)O)C" "InChI=InChI=1S/C11H10O3/c1-6-3-7(2)11-8(4-6)9(12)5-10(13)14-11/h3-5,12H,1-2H3" "InChIKey=HVHIQQVTLCUBKA-UHFFFAOYSA-N" "molecular formula=C11H10O3" "total exact mass=190.06299417999998" "SMILES=CC=1C=C(C)C=2OC(=O)C=C(O)C2C1"
Num Peaks: 10
 102 9.409409; 
 115 10.510511; 
 117 5.105105; 
 130 8.608609; 
 133 6.506507; 
 144 31.031031; 
 145 100.000000; 
 146 5.605606; 
 146 16.116116; 
 159 12.012012; 


Name: 6-Methoxyluteolin
SYNON: $:00in-source
DB#: MetaboBASE0293
InChIKey: FHHSEFRSDKWJKJ-UHFFFAOYSA-N
Precursor_type: [M-H]-
Spectrum_type: MS2
PrecursorMZ: 315.1
Instrument_type: LC-ESI-TOF
Instrument: impact HD
Ion_mode: N
Collision_energy: 40
InChIKey: FHHSEFRSDKWJKJ-UHFFFAOYSA-N
Formula: C16H12O7
MW: 316
ExactMass: 316.058302724
Comments: "license=License CC-BY-NC-SA 4.0 International" "author=Plant Biology, The Noble Foundation, Ardmore, OK, US/Dennis Fine, Daniel Wherritt, and Lloyd Sumner" "instrument type=LC-ESI-TOF" "instrument=impact HD" "ionization=ESI" "ionization mode=negative" "ms level=MS2" "precursor m/z=315.1" "isolation width=5" "collision gas=Nitrogen" "collision energy=40" "peak width=0.02" "date=2013-11-09 12:58:22+01:00" "column=Waters Acquity BEH C18 1.7um x 2.1 x 150 mm" "retention time=528" "raw data file=C:\Data\Confirmed Standards\Confirmed Stds 7Nov13\6-Methoxyluteolin (vial 92) MS.d" "precursor type=[M-H]-" "mass accuracy=155.42137734061106" "mass error=0.048973276000026544" "cas number=520-11-6" "SMILES=COc1c(cc2c(c1O)c(=O)cc(o2)c3ccc(c(c3)O)O)O" "InChI=InChI=1S/C16H12O7/c1-22-16-11(20)6-13-14(15(16)21)10(19)5-12(23-13)7-2-3-8(17)9(18)4-7/h2-6,17-18,20-21H,1H3" "InChIKey=FHHSEFRSDKWJKJ-UHFFFAOYSA-N" "molecular formula=C16H12O7" "total exact mass=316.058302724" "SMILES=COC1=C(C2=C(C=C1O)OC(=CC2=O)C3=CC(=C(C=C3)O)O)O"
Num Peaks: 71
 108 5.305305; 
 110 15.715716; 
 111 4.204204; 
 119 7.207207; 
 123 3.503504; 
 124 4.004004; 
 124 4.404404; 
 132 15.415415; 
 133 31.031031; 
 134 14.714715; 
 135 4.704705; 
 135 4.704705; 
 136 85.485485; 
 137 7.407407; 
 139 12.712713; 
 146 7.307307; 
 148 4.204204; 
 149 6.506507; 
 158 11.011011; 
 159 3.403403; 
 163 7.107107; 
 164 5.405405; 
 164 4.404404; 
 165 24.724725; 
 166 6.806807; 
 170 3.703704; 
 171 6.506507; 
 172 8.808809; 
 173 4.904905; 
 174 11.211211; 
 175 5.405405; 
 185 4.004004; 
 186 5.705706; 
 187 6.506507; 
 188 6.606607; 
 191 4.604605; 
 198 6.506507; 
 199 18.218218; 
 200 10.810811; 
 201 32.132132; 
 202 22.822823; 
 203 4.304304; 
 211 4.104104; 
 213 11.611612; 
 214 9.209209; 
 215 13.113113; 
 216 16.516517; 
 226 9.409409; 
 227 41.041041; 
 228 46.446446; 
 229 11.211211; 
 230 18.018018; 
 231 5.205205; 
 239 5.405405; 
 241 9.709710; 
 242 9.109109; 
 243 40.740741; 
 244 9.209209; 
 255 15.115115; 
 256 4.304304; 
 257 3.503504; 
 269 9.309309; 
 270 18.618619; 
 271 16.616617; 
 272 12.112112; 
 273 4.004004; 
 282 3.803804; 
 283 8.308308; 
 299 21.621622; 
 300 100.000000; 
 301 12.212212; 


Name: 6-Methoxyluteolin
SYNON: $:00in-source
DB#: MetaboBASE0294
InChIKey: FHHSEFRSDKWJKJ-UHFFFAOYSA-N
Precursor_type: [M-H]-
Spectrum_type: MS2
PrecursorMZ: 315.0506
Instrument_type: LC-ESI-TOF
Instrument: impact HD
Ion_mode: N
Collision_energy: 20
InChIKey: FHHSEFRSDKWJKJ-UHFFFAOYSA-N
Formula: C16H12O7
MW: 316
ExactMass: 316.058302724
Comments: "license=License CC-BY-NC-SA 4.0 International" "author=Plant Biology, The Noble Foundation, Ardmore, OK, US/Dennis Fine, Daniel Wherritt, and Lloyd Sumner" "instrument type=LC-ESI-TOF" "instrument=impact HD" "ionization=ESI" "ionization mode=negative" "ms level=MS2" "precursor m/z=315.0506" "isolation width=5" "collision gas=Nitrogen" "collision energy=20" "peak width=0.013" "date=2013-11-09 12:58:22+01:00" "column=Waters Acquity BEH C18 1.7um x 2.1 x 150 mm" "retention time=528" "raw data file=C:\Data\Confirmed Standards\Confirmed Stds 7Nov13\6-Methoxyluteolin (vial 92) MS.d" "precursor type=[M-H]-" "mass accuracy=1.354461791286066" "mass error=-4.267240000217498E-4" "cas number=520-11-6" "SMILES=COc1c(cc2c(c1O)c(=O)cc(o2)c3ccc(c(c3)O)O)O" "InChI=InChI=1S/C16H12O7/c1-22-16-11(20)6-13-14(15(16)21)10(19)5-12(23-13)7-2-3-8(17)9(18)4-7/h2-6,17-18,20-21H,1H3" "InChIKey=FHHSEFRSDKWJKJ-UHFFFAOYSA-N" "molecular formula=C16H12O7" "total exact mass=316.058302724" "SMILES=COC1=C(C2=C(C=C1O)OC(=CC2=O)C3=CC(=C(C=C3)O)O)O"
Num Peaks: 7
 270 4.004004; 
 285 2.302302; 
 298 5.305305; 
 300 100.000000; 
 301 11.511512; 
 315 22.722723; 
 316 2.502503; 


Name: 6-Methoxyluteolin
SYNON: $:00in-source
DB#: MetaboBASE0295
InChIKey: FHHSEFRSDKWJKJ-UHFFFAOYSA-N
Instrument_type: LC-ESI-TOF
Instrument: impact HD
Ion_mode: N
Collision_energy: 10
InChIKey: FHHSEFRSDKWJKJ-UHFFFAOYSA-N
Formula: C16H12O7
MW: 316
ExactMass: 316.058302724
Comments: "license=License CC-BY-NC-SA 4.0 International" "author=Plant Biology, The Noble Foundation, Ardmore, OK, US/Dennis Fine, Daniel Wherritt, and Lloyd Sumner" "instrument type=LC-ESI-TOF" "instrument=impact HD" "ionization=ESI" "ionization mode=negative" "collision gas=Nitrogen" "collision energy=10" "peak width=0.016" "date=2013-11-08 14:11:03+01:00" "column=Waters Acquity BEH C18 1.7um x 2.1 x 150 mm" "retention time=528" "raw data file=C:\Data\Confirmed Standards\Confirmed Stds 7Nov13\6-Methoxyluteolin (vial 92).d" "annotformula=300.0270;       C15H8O7" "annotformula=315.0508;       C16H11O7" "cas number=520-11-6" "SMILES=COc1c(cc2c(c1O)c(=O)cc(o2)c3ccc(c(c3)O)O)O" "InChI=InChI=1S/C16H12O7/c1-22-16-11(20)6-13-14(15(16)21)10(19)5-12(23-13)7-2-3-8(17)9(18)4-7/h2-6,17-18,20-21H,1H3" "InChIKey=FHHSEFRSDKWJKJ-UHFFFAOYSA-N" "molecular formula=C16H12O7" "total exact mass=316.058302724" "SMILES=COC1=C(C2=C(C=C1O)OC(=CC2=O)C3=CC(=C(C=C3)O)O)O"
Num Peaks: 9
 298 1.101101; 
 300 13.413413; 
 301 1.801802; 
 313 4.104104; 
 315 100.000000; 
 316 15.215215; 
 317 1.901902; 
 631 1.401401; 
 651 1.801802; 


Name: 6-Methoxyluteolin
SYNON: $:00in-source
DB#: MetaboBASE0296
InChIKey: FHHSEFRSDKWJKJ-UHFFFAOYSA-N
Precursor_type: [M-H]-
Spectrum_type: MS2
PrecursorMZ: 315.1
Instrument_type: LC-ESI-TOF
Instrument: impact HD
Ion_mode: N
Collision_energy: 50
InChIKey: FHHSEFRSDKWJKJ-UHFFFAOYSA-N
Formula: C16H12O7
MW: 316
ExactMass: 316.058302724
Comments: "license=License CC-BY-NC-SA 4.0 International" "author=Plant Biology, The Noble Foundation, Ardmore, OK, US/Dennis Fine, Daniel Wherritt, and Lloyd Sumner" "instrument type=LC-ESI-TOF" "instrument=impact HD" "ionization=ESI" "ionization mode=negative" "ms level=MS2" "precursor m/z=315.1" "isolation width=5" "collision gas=Nitrogen" "collision energy=50" "peak width=0.02" "date=2013-11-09 12:58:22+01:00" "column=Waters Acquity BEH C18 1.7um x 2.1 x 150 mm" "retention time=528" "raw data file=C:\Data\Confirmed Standards\Confirmed Stds 7Nov13\6-Methoxyluteolin (vial 92) MS.d" "precursor type=[M-H]-" "mass accuracy=155.42137734061106" "mass error=0.048973276000026544" "cas number=520-11-6" "SMILES=COc1c(cc2c(c1O)c(=O)cc(o2)c3ccc(c(c3)O)O)O" "InChI=InChI=1S/C16H12O7/c1-22-16-11(20)6-13-14(15(16)21)10(19)5-12(23-13)7-2-3-8(17)9(18)4-7/h2-6,17-18,20-21H,1H3" "InChIKey=FHHSEFRSDKWJKJ-UHFFFAOYSA-N" "molecular formula=C16H12O7" "total exact mass=316.058302724" "SMILES=COC1=C(C2=C(C=C1O)OC(=CC2=O)C3=CC(=C(C=C3)O)O)O"
Num Peaks: 44
 108 9.209209; 
 110 37.437437; 
 111 17.117117; 
 132 40.240240; 
 133 100.000000; 
 134 19.319319; 
 135 14.314314; 
 136 59.859860; 
 139 20.420420; 
 143 13.013013; 
 145 16.516517; 
 146 11.811812; 
 158 11.711712; 
 159 12.012012; 
 163 8.008008; 
 164 8.308308; 
 165 11.411411; 
 170 7.707708; 
 171 14.014014; 
 173 17.917918; 
 174 8.408408; 
 175 8.908909; 
 182 8.408408; 
 183 12.312312; 
 185 8.708709; 
 187 10.310310; 
 199 40.640641; 
 200 9.009009; 
 201 79.079079; 
 202 11.311311; 
 213 9.609610; 
 214 10.710711; 
 215 15.015015; 
 216 8.608609; 
 226 9.309309; 
 227 42.042042; 
 228 17.517518; 
 229 12.212212; 
 230 9.509510; 
 243 19.019019; 
 255 11.511512; 
 271 14.514515; 
 299 16.116116; 
 300 12.012012; 


Name: 7,3',4',5'-Tetrahydroxyflavone
SYNON: $:00in-source
DB#: MetaboBASE0297
InChIKey: CCCIGFPBADVTFE-UHFFFAOYSA-N
Precursor_type: [M-H]-
Spectrum_type: MS2
PrecursorMZ: 285.0407
Instrument_type: LC-ESI-TOF
Instrument: impact HD
Ion_mode: N
Collision_energy: 30
InChIKey: CCCIGFPBADVTFE-UHFFFAOYSA-N
Formula: C15H10O6
MW: 286
ExactMass: 286.04773804
Comments: "license=License CC-BY-NC-SA 4.0 International" "author=Plant Biology, The Noble Foundation, Ardmore, OK, US/Dennis Fine, Daniel Wherritt, and Lloyd Sumner" "instrument type=LC-ESI-TOF" "instrument=impact HD" "ionization=ESI" "ionization mode=negative" "ms level=MS2" "precursor m/z=285.0407" "isolation width=5" "collision gas=Nitrogen" "collision energy=30" "peak width=0.022" "date=2013-11-09 12:17:32+01:00" "column=Waters Acquity BEH C18 1.7um x 2.1 x 150 mm" "retention time=276" "raw data file=C:\Data\Confirmed Standards\Confirmed Stds 7Nov13\7,3,4,5-Tetrahydroxyflavone MS.d" "precursor type=[M-H]-" "mass accuracy=0.834828149077146" "mass error=2.3795999999265405E-4" "cas number=67858-31-5" "SMILES=c1cc2c(=O)cc(oc2cc1O)c3cc(c(c(c3)O)O)O" "InChI=InChI=1S/C15H10O6/c16-8-1-2-9-10(17)6-13(21-14(9)5-8)7-3-11(18)15(20)12(19)4-7/h1-6,16,18-20H" "InChIKey=CCCIGFPBADVTFE-UHFFFAOYSA-N" "molecular formula=C15H10O6" "total exact mass=286.04773804" "SMILES=C1=CC2=C(C=C1O)OC(=CC2=O)C3=CC(=C(C(=C3)O)O)O"
Num Peaks: 3
 135 10.010010; 
 149 100.000000; 
 285 39.039039; 


Name: 7,3',4',5'-Tetrahydroxyflavone
SYNON: $:00in-source
DB#: MetaboBASE0298
InChIKey: CCCIGFPBADVTFE-UHFFFAOYSA-N
Instrument_type: LC-ESI-TOF
Instrument: impact HD
Ion_mode: N
Collision_energy: 10
InChIKey: CCCIGFPBADVTFE-UHFFFAOYSA-N
Formula: C15H10O6
MW: 286
ExactMass: 286.04773804
Comments: "license=License CC-BY-NC-SA 4.0 International" "author=Plant Biology, The Noble Foundation, Ardmore, OK, US/Dennis Fine, Daniel Wherritt, and Lloyd Sumner" "instrument type=LC-ESI-TOF" "instrument=impact HD" "ionization=ESI" "ionization mode=negative" "collision gas=Nitrogen" "collision energy=10" "peak width=0.017" "date=2013-11-08 13:30:17+01:00" "column=Waters Acquity BEH C18 1.7um x 2.1 x 150 mm" "retention time=276" "raw data file=C:\Data\Confirmed Standards\Confirmed Stds 7Nov13\7,3,4,5-Tetrahydroxyflavone.d" "annotformula=285.0407;       C15H9O6" "cas number=67858-31-5" "SMILES=c1cc2c(=O)cc(oc2cc1O)c3cc(c(c(c3)O)O)O" "InChI=InChI=1S/C15H10O6/c16-8-1-2-9-10(17)6-13(21-14(9)5-8)7-3-11(18)15(20)12(19)4-7/h1-6,16,18-20H" "InChIKey=CCCIGFPBADVTFE-UHFFFAOYSA-N" "molecular formula=C15H10O6" "total exact mass=286.04773804" "SMILES=C1=CC2=C(C=C1O)OC(=CC2=O)C3=CC(=C(C(=C3)O)O)O"
Num Peaks: 16
 283 5.105105; 
 284 1.101101; 
 285 100.000000; 
 286 11.011011; 
 287 1.201201; 
 301 1.801802; 
 319 7.407407; 
 537 1.301301; 
 541 5.705706; 
 542 1.301301; 
 567 17.517518; 
 568 4.804805; 
 569 2.202202; 
 571 1.301301; 
 585 2.602603; 
 601 1.001001; 


Name: 7,4'-Dimethoxy-3-hydroxyflavone
SYNON: $:00in-source
DB#: MetaboBASE0299
InChIKey: IFHXSMSQHPVVSF-UHFFFAOYSA-N
Precursor_type: [M-H]-
Spectrum_type: MS2
PrecursorMZ: 297.0798
Instrument_type: LC-ESI-TOF
Instrument: impact HD
Ion_mode: N
Collision_energy: 10
InChIKey: IFHXSMSQHPVVSF-UHFFFAOYSA-N
Formula: C17H14O5
MW: 298
ExactMass: 298.084123548
Comments: "license=License CC-BY-NC-SA 4.0 International" "author=Plant Biology, The Noble Foundation, Ardmore, OK, US/Dennis Fine, Daniel Wherritt, and Lloyd Sumner" "instrument type=LC-ESI-TOF" "instrument=impact HD" "ionization=ESI" "ionization mode=negative" "ms level=MS2" "precursor m/z=297.0798" "isolation width=5" "collision gas=Nitrogen" "collision energy=10" "peak width=0.013" "date=2013-11-18 23:33:31+01:00" "column=Waters Acquity BEH C18 1.7um x 2.1 x 150 mm" "retention time=1035" "raw data file=C:\Data\Confirmed Standards\Confirmed stds MSMS 14Nov13\7,4'Dimethoxy3hydroxyfMSMS v88.d" "precursor type=[M-H]-" "mass accuracy=9.938245548799248" "mass error=0.0029524519999881704" "cas number=13198-99-7" "SMILES=COc1ccc(cc1)c2c(c(=O)c3ccc(cc3o2)OC)O" "InChI=InChI=1S/C17H14O5/c1-20-11-5-3-10(4-6-11)17-16(19)15(18)13-8-7-12(21-2)9-14(13)22-17/h3-9,19H,1-2H3" "InChIKey=IFHXSMSQHPVVSF-UHFFFAOYSA-N" "molecular formula=C17H14O5" "total exact mass=298.084123548" "SMILES=COC1=CC=C(C=C1)C2=C(C(=O)C3=C(O2)C=C(C=C3)OC)O"
Num Peaks: 3
 282 32.732733; 
 297 100.000000; 
 298 19.719720; 


Name: 7,4'-Dimethoxy-3-hydroxyflavone
SYNON: $:00in-source
DB#: MetaboBASE0300
InChIKey: IFHXSMSQHPVVSF-UHFFFAOYSA-N
Precursor_type: [M-H]-
Spectrum_type: MS2
PrecursorMZ: 297.1
Instrument_type: LC-ESI-TOF
Instrument: impact HD
Ion_mode: N
Collision_energy: 20
InChIKey: IFHXSMSQHPVVSF-UHFFFAOYSA-N
Formula: C17H14O5
MW: 298
ExactMass: 298.084123548
Comments: "license=License CC-BY-NC-SA 4.0 International" "author=Plant Biology, The Noble Foundation, Ardmore, OK, US/Dennis Fine, Daniel Wherritt, and Lloyd Sumner" "instrument type=LC-ESI-TOF" "instrument=impact HD" "ionization=ESI" "ionization mode=negative" "ms level=MS2" "precursor m/z=297.1" "isolation width=5" "collision gas=Nitrogen" "collision energy=20" "peak width=0.017" "date=2013-11-18 23:33:31+01:00" "column=Waters Acquity BEH C18 1.7um x 2.1 x 150 mm" "retention time=1035" "raw data file=C:\Data\Confirmed Standards\Confirmed stds MSMS 14Nov13\7,4'Dimethoxy3hydroxyfMSMS v88.d" "precursor type=[M-H]-" "mass accuracy=77.92814540569998" "mass error=0.023152452000033463" "cas number=13198-99-7" "SMILES=COc1ccc(cc1)c2c(c(=O)c3ccc(cc3o2)OC)O" "InChI=InChI=1S/C17H14O5/c1-20-11-5-3-10(4-6-11)17-16(19)15(18)13-8-7-12(21-2)9-14(13)22-17/h3-9,19H,1-2H3" "InChIKey=IFHXSMSQHPVVSF-UHFFFAOYSA-N" "molecular formula=C17H14O5" "total exact mass=298.084123548" "SMILES=COC1=CC=C(C=C1)C2=C(C(=O)C3=C(O2)C=C(C=C3)OC)O"
Num Peaks: 4
 239 49.649650; 
 267 43.743744; 
 282 100.000000; 
 283 31.831832; 


Name: 7,4'-Dimethoxy-3-hydroxyflavone
SYNON: $:00in-source
DB#: MetaboBASE0301
InChIKey: IFHXSMSQHPVVSF-UHFFFAOYSA-N
Instrument_type: LC-ESI-TOF
Instrument: impact HD
Ion_mode: N
Collision_energy: 10
InChIKey: IFHXSMSQHPVVSF-UHFFFAOYSA-N
Formula: C17H14O5
MW: 298
ExactMass: 298.084123548
Comments: "license=License CC-BY-NC-SA 4.0 International" "author=Plant Biology, The Noble Foundation, Ardmore, OK, US/Dennis Fine, Daniel Wherritt, and Lloyd Sumner" "instrument type=LC-ESI-TOF" "instrument=impact HD" "ionization=ESI" "ionization mode=negative" "collision gas=Nitrogen" "collision energy=10" "peak width=0.022" "date=2013-11-08 11:28:01+01:00" "column=Waters Acquity BEH C18 1.7um x 2.1 x 150 mm" "retention time=1035" "raw data file=C:\Data\Confirmed Standards\Confirmed Stds 7Nov13\7,4-Dimethoxy3hydroxyflavone.d" "annotformula=257.0812;       C15H13O4" "annotformula=282.0523;       C16H10O5" "annotformula=285.0759;       C16H13O5" "annotformula=297.0759;       C17H13O5" "annotformula=313.0711;       C17H13O6" "annotformula=617.1406;       C43H21O5" "cas number=13198-99-7" "SMILES=COc1ccc(cc1)c2c(c(=O)c3ccc(cc3o2)OC)O" "InChI=InChI=1S/C17H14O5/c1-20-11-5-3-10(4-6-11)17-16(19)15(18)13-8-7-12(21-2)9-14(13)22-17/h3-9,19H,1-2H3" "InChIKey=IFHXSMSQHPVVSF-UHFFFAOYSA-N" "molecular formula=C17H14O5" "total exact mass=298.084123548" "SMILES=COC1=CC=C(C=C1)C2=C(C(=O)C3=C(O2)C=C(C=C3)OC)O"
Num Peaks: 86
 112 5.205205; 
 116 2.702703; 
 128 4.804805; 
 161 2.202202; 
 174 1.501502; 
 227 1.201201; 
 239 7.107107; 
 240 1.001001; 
 241 2.802803; 
 242 1.301301; 
 248 2.202202; 
 254 2.502503; 
 255 1.301301; 
 257 37.537538; 
 258 6.006006; 
 267 7.207207; 
 268 1.801802; 
 280 1.101101; 
 282 41.841842; 
 283 7.907908; 
 284 1.101101; 
 285 64.064064; 
 286 10.410410; 
 287 2.102102; 
 292 1.301301; 
 297 100.000000; 
 298 17.817818; 
 299 2.402402; 
 299 1.101101; 
 304 1.901902; 
 313 10.210210; 
 314 2.002002; 
 316 1.601602; 
 316 1.001001; 
 336 1.101101; 
 342 3.203203; 
 349 1.101101; 
 354 1.401401; 
 355 2.102102; 
 365 26.226226; 
 366 6.306306; 
 367 1.101101; 
 427 4.504505; 
 428 1.701702; 
 433 1.901902; 
 443 1.501502; 
 448 1.601602; 
 488 2.102102; 
 601 1.501502; 
 617 41.341341; 
 618 15.315315; 
 619 3.203203; 
 633 1.701702; 
 639 1.901902; 
 679 4.704705; 
 680 2.302302; 
 685 7.707708; 
 686 3.703704; 
 740 8.808809; 
 741 3.703704; 
 742 1.101101; 
 747 1.701702; 
 753 1.601602; 
 815 1.201201; 
 821 1.301301; 
 931 2.102102; 
 932 1.301301; 
 937 9.509510; 
 938 5.205205; 
 939 1.701702; 
 953 1.001001; 
 992 1.701702; 
 993 1.101101; 
 999 1.101101; 
 1005 1.701702; 
 1006 1.101101; 
 1073 1.201201; 
 1073 1.201201; 
 1251 1.501502; 
 1252 1.201201; 
 1257 5.105105; 
 1258 3.203203; 
 1259 1.401401; 
 1325 1.101101; 
 1577 1.101101; 
 1578 1.501502; 


Name: 7,4'-Dimethoxy-3-hydroxyflavone
SYNON: $:00in-source
DB#: MetaboBASE0302
InChIKey: IFHXSMSQHPVVSF-UHFFFAOYSA-N
Precursor_type: [M-H]-
Spectrum_type: MS2
PrecursorMZ: 297.1
Instrument_type: LC-ESI-TOF
Instrument: impact HD
Ion_mode: N
Collision_energy: 30
InChIKey: IFHXSMSQHPVVSF-UHFFFAOYSA-N
Formula: C17H14O5
MW: 298
ExactMass: 298.084123548
Comments: "license=License CC-BY-NC-SA 4.0 International" "author=Plant Biology, The Noble Foundation, Ardmore, OK, US/Dennis Fine, Daniel Wherritt, and Lloyd Sumner" "instrument type=LC-ESI-TOF" "instrument=impact HD" "ionization=ESI" "ionization mode=negative" "ms level=MS2" "precursor m/z=297.1" "isolation width=5" "collision gas=Nitrogen" "collision energy=30" "peak width=0.017" "date=2013-11-18 23:33:31+01:00" "column=Waters Acquity BEH C18 1.7um x 2.1 x 150 mm" "retention time=1035" "raw data file=C:\Data\Confirmed Standards\Confirmed stds MSMS 14Nov13\7,4'Dimethoxy3hydroxyfMSMS v88.d" "precursor type=[M-H]-" "mass accuracy=77.92814540569998" "mass error=0.023152452000033463" "cas number=13198-99-7" "SMILES=COc1ccc(cc1)c2c(c(=O)c3ccc(cc3o2)OC)O" "InChI=InChI=1S/C17H14O5/c1-20-11-5-3-10(4-6-11)17-16(19)15(18)13-8-7-12(21-2)9-14(13)22-17/h3-9,19H,1-2H3" "InChIKey=IFHXSMSQHPVVSF-UHFFFAOYSA-N" "molecular formula=C17H14O5" "total exact mass=298.084123548" "SMILES=COC1=CC=C(C=C1)C2=C(C(=O)C3=C(O2)C=C(C=C3)OC)O"
Num Peaks: 3
 239 100.000000; 
 240 18.018018; 
 267 81.381381; 


Name: 7,4'-Dimethoxy-3-hydroxyflavone
SYNON: $:00in-source
DB#: MetaboBASE0303
InChIKey: IFHXSMSQHPVVSF-UHFFFAOYSA-N
Precursor_type: [M-H]-
Spectrum_type: MS2
PrecursorMZ: 297.1
Instrument_type: LC-ESI-TOF
Instrument: impact HD
Ion_mode: N
Collision_energy: 40
InChIKey: IFHXSMSQHPVVSF-UHFFFAOYSA-N
Formula: C17H14O5
MW: 298
ExactMass: 298.084123548
Comments: "license=License CC-BY-NC-SA 4.0 International" "author=Plant Biology, The Noble Foundation, Ardmore, OK, US/Dennis Fine, Daniel Wherritt, and Lloyd Sumner" "instrument type=LC-ESI-TOF" "instrument=impact HD" "ionization=ESI" "ionization mode=negative" "ms level=MS2" "precursor m/z=297.1" "isolation width=5" "collision gas=Nitrogen" "collision energy=40" "peak width=0.014" "date=2013-11-18 23:33:31+01:00" "column=Waters Acquity BEH C18 1.7um x 2.1 x 150 mm" "retention time=1035" "raw data file=C:\Data\Confirmed Standards\Confirmed stds MSMS 14Nov13\7,4'Dimethoxy3hydroxyfMSMS v88.d" "precursor type=[M-H]-" "mass accuracy=77.92814540569998" "mass error=0.023152452000033463" "cas number=13198-99-7" "SMILES=COc1ccc(cc1)c2c(c(=O)c3ccc(cc3o2)OC)O" "InChI=InChI=1S/C17H14O5/c1-20-11-5-3-10(4-6-11)17-16(19)15(18)13-8-7-12(21-2)9-14(13)22-17/h3-9,19H,1-2H3" "InChIKey=IFHXSMSQHPVVSF-UHFFFAOYSA-N" "molecular formula=C17H14O5" "total exact mass=298.084123548" "SMILES=COC1=CC=C(C=C1)C2=C(C(=O)C3=C(O2)C=C(C=C3)OC)O"
Num Peaks: 4
 211 16.416416; 
 239 100.000000; 
 240 21.821822; 
 267 13.413413; 


Name: 7,4'-Dimethoxy-3-hydroxyflavone
SYNON: $:00in-source
DB#: MetaboBASE0304
InChIKey: IFHXSMSQHPVVSF-UHFFFAOYSA-N
Precursor_type: [M-H]-
Spectrum_type: MS2
PrecursorMZ: 297.1
Instrument_type: LC-ESI-TOF
Instrument: impact HD
Ion_mode: N
Collision_energy: 50
InChIKey: IFHXSMSQHPVVSF-UHFFFAOYSA-N
Formula: C17H14O5
MW: 298
ExactMass: 298.084123548
Comments: "license=License CC-BY-NC-SA 4.0 International" "author=Plant Biology, The Noble Foundation, Ardmore, OK, US/Dennis Fine, Daniel Wherritt, and Lloyd Sumner" "instrument type=LC-ESI-TOF" "instrument=impact HD" "ionization=ESI" "ionization mode=negative" "ms level=MS2" "precursor m/z=297.1" "isolation width=5" "collision gas=Nitrogen" "collision energy=50" "peak width=0.016" "date=2013-11-18 23:33:31+01:00" "column=Waters Acquity BEH C18 1.7um x 2.1 x 150 mm" "retention time=1035" "raw data file=C:\Data\Confirmed Standards\Confirmed stds MSMS 14Nov13\7,4'Dimethoxy3hydroxyfMSMS v88.d" "precursor type=[M-H]-" "mass accuracy=77.92814540569998" "mass error=0.023152452000033463" "cas number=13198-99-7" "SMILES=COc1ccc(cc1)c2c(c(=O)c3ccc(cc3o2)OC)O" "InChI=InChI=1S/C17H14O5/c1-20-11-5-3-10(4-6-11)17-16(19)15(18)13-8-7-12(21-2)9-14(13)22-17/h3-9,19H,1-2H3" "InChIKey=IFHXSMSQHPVVSF-UHFFFAOYSA-N" "molecular formula=C17H14O5" "total exact mass=298.084123548" "SMILES=COC1=CC=C(C=C1)C2=C(C(=O)C3=C(O2)C=C(C=C3)OC)O"
Num Peaks: 3
 210 67.767768; 
 211 56.156156; 
 239 100.000000; 


Name: Vitexin
SYNON: $:00in-source
DB#: MetaboBASE0305
InChIKey: SGEWCQFRYRRZDC-VPRICQMDSA-N
Precursor_type: [M-H]-
Spectrum_type: MS2
PrecursorMZ: 431.1
Instrument_type: LC-ESI-TOF
Instrument: impact HD
Ion_mode: N
Collision_energy: 60
InChIKey: SGEWCQFRYRRZDC-VPRICQMDSA-N
Formula: C21H20O10
MW: 432
ExactMass: 432.10564683999996
Comments: "license=License CC-BY-NC-SA 4.0 International" "author=Plant Biology, The Noble Foundation, Ardmore, OK, US/Dennis Fine, Daniel Wherritt, and Lloyd Sumner" "instrument type=LC-ESI-TOF" "instrument=impact HD" "ionization=ESI" "ionization mode=negative" "ms level=MS2" "precursor m/z=431.1" "isolation width=5" "collision gas=Nitrogen" "collision energy=60" "peak width=0.023" "date=2013-11-09 08:53:26+01:00" "column=Waters Acquity BEH C18 1.7um x 2.1 x 150 mm" "retention time=297" "raw data file=C:\Data\Confirmed Standards\Confirmed Stds 7Nov13\Vitexin (vial 86) MSMS.d" "precursor type=[M-H]-" "mass accuracy=3.779076780445322" "mass error=0.0016291600000499784" "cas number=3681-93-4" "SMILES=c1cc(ccc1c2cc(=O)c3c(cc(c(c3o2)[C@H]4[C@@H]([C@H]([C@@H]([C@H](O4)CO)O)O)O)O)O)O" "InChI=InChI=1S/C21H20O10/c22-7-14-17(27)18(28)19(29)21(31-14)16-11(25)5-10(24)15-12(26)6-13(30-20(15)16)8-1-3-9(23)4-2-8/h1-6,14,17-19,21-25,27-29H,7H2/t14-,17-,18+,19-,21+/m1/s1" "InChIKey=SGEWCQFRYRRZDC-VPRICQMDSA-N" "molecular formula=C21H20O10" "total exact mass=432.10564683999996" "SMILES=C1=CC(=CC=C1C2=CC(=O)C3=C(O2)C(=C(C=C3O)O)C4C(C(C(C(O4)CO)O)O)O)O"
Num Peaks: 39
 117 100.000000; 
 118 8.008008; 
 119 8.908909; 
 121 18.418418; 
 125 3.403403; 
 133 3.403403; 
 135 19.819820; 
 136 3.103103; 
 145 3.603604; 
 148 3.903904; 
 149 6.706707; 
 159 15.315315; 
 161 23.323323; 
 163 12.012012; 
 165 4.304304; 
 169 2.902903; 
 196 3.403403; 
 197 3.103103; 
 211 4.304304; 
 215 3.803804; 
 223 3.003003; 
 224 6.706707; 
 225 5.305305; 
 237 7.307307; 
 238 3.703704; 
 239 12.912913; 
 240 5.505506; 
 241 3.903904; 
 253 7.007007; 
 254 3.403403; 
 268 12.112112; 
 269 6.906907; 
 281 15.015015; 
 282 9.109109; 
 283 91.691692; 
 284 15.015015; 
 293 9.209209; 
 295 3.103103; 
 311 3.203203; 


Name: Vitexin
SYNON: $:00in-source
DB#: MetaboBASE0306
InChIKey: SGEWCQFRYRRZDC-VPRICQMDSA-N
Precursor_type: [M-H]-
Spectrum_type: MS2
PrecursorMZ: 431.1
Instrument_type: LC-ESI-TOF
Instrument: impact HD
Ion_mode: N
Collision_energy: 70
InChIKey: SGEWCQFRYRRZDC-VPRICQMDSA-N
Formula: C21H20O10
MW: 432
ExactMass: 432.10564683999996
Comments: "license=License CC-BY-NC-SA 4.0 International" "author=Plant Biology, The Noble Foundation, Ardmore, OK, US/Dennis Fine, Daniel Wherritt, and Lloyd Sumner" "instrument type=LC-ESI-TOF" "instrument=impact HD" "ionization=ESI" "ionization mode=negative" "ms level=MS2" "precursor m/z=431.1" "isolation width=5" "collision gas=Nitrogen" "collision energy=70" "peak width=0.023" "date=2013-11-09 08:53:26+01:00" "column=Waters Acquity BEH C18 1.7um x 2.1 x 150 mm" "retention time=297" "raw data file=C:\Data\Confirmed Standards\Confirmed Stds 7Nov13\Vitexin (vial 86) MSMS.d" "precursor type=[M-H]-" "mass accuracy=3.779076780445322" "mass error=0.0016291600000499784" "cas number=3681-93-4" "SMILES=c1cc(ccc1c2cc(=O)c3c(cc(c(c3o2)[C@H]4[C@@H]([C@H]([C@@H]([C@H](O4)CO)O)O)O)O)O)O" "InChI=InChI=1S/C21H20O10/c22-7-14-17(27)18(28)19(29)21(31-14)16-11(25)5-10(24)15-12(26)6-13(30-20(15)16)8-1-3-9(23)4-2-8/h1-6,14,17-19,21-25,27-29H,7H2/t14-,17-,18+,19-,21+/m1/s1" "InChIKey=SGEWCQFRYRRZDC-VPRICQMDSA-N" "molecular formula=C21H20O10" "total exact mass=432.10564683999996" "SMILES=C1=CC(=CC=C1C2=CC(=O)C3=C(O2)C(=C(C=C3O)O)C4C(C(C(C(O4)CO)O)O)O)O"
Num Peaks: 22
 117 100.000000; 
 118 9.409409; 
 119 7.107107; 
 121 9.909910; 
 135 14.714715; 
 145 3.803804; 
 145 3.803804; 
 149 3.403403; 
 159 7.007007; 
 161 14.714715; 
 163 6.706707; 
 197 3.203203; 
 224 3.703704; 
 225 3.803804; 
 237 3.803804; 
 239 3.103103; 
 253 5.005005; 
 269 3.603604; 
 281 5.405405; 
 282 3.503504; 
 283 12.112112; 
 284 3.703704; 


Name: Vitexin
SYNON: $:00in-source
DB#: MetaboBASE0307
InChIKey: SGEWCQFRYRRZDC-VPRICQMDSA-N
Instrument_type: LC-ESI-TOF
Instrument: impact HD
Ion_mode: N
Collision_energy: 10
InChIKey: SGEWCQFRYRRZDC-VPRICQMDSA-N
Formula: C21H20O10
MW: 432
ExactMass: 432.10564683999996
Comments: "license=License CC-BY-NC-SA 4.0 International" "author=Plant Biology, The Noble Foundation, Ardmore, OK, US/Dennis Fine, Daniel Wherritt, and Lloyd Sumner" "instrument type=LC-ESI-TOF" "instrument=impact HD" "ionization=ESI" "ionization mode=negative" "collision gas=Nitrogen" "collision energy=10" "peak width=0.016" "date=2013-11-08 10:06:26+01:00" "column=Waters Acquity BEH C18 1.7um x 2.1 x 150 mm" "retention time=297" "raw data file=C:\Data\Confirmed Standards\Confirmed Stds 7Nov13\Vitexin (vial 86).d" "cas number=3681-93-4" "SMILES=c1cc(ccc1c2cc(=O)c3c(cc(c(c3o2)[C@H]4[C@@H]([C@H]([C@@H]([C@H](O4)CO)O)O)O)O)O)O" "InChI=InChI=1S/C21H20O10/c22-7-14-17(27)18(28)19(29)21(31-14)16-11(25)5-10(24)15-12(26)6-13(30-20(15)16)8-1-3-9(23)4-2-8/h1-6,14,17-19,21-25,27-29H,7H2/t14-,17-,18+,19-,21+/m1/s1" "InChIKey=SGEWCQFRYRRZDC-VPRICQMDSA-N" "molecular formula=C21H20O10" "total exact mass=432.10564683999996" "SMILES=C1=CC(=CC=C1C2=CC(=O)C3=C(O2)C(=C(C=C3O)O)C4C(C(C(C(O4)CO)O)O)O)O"
Num Peaks: 7
 311 1.301301; 
 431 100.000000; 
 432 18.918919; 
 433 3.003003; 
 863 8.308308; 
 864 3.503504; 
 885 1.301301; 


Name: Vitexin
SYNON: $:00in-source
DB#: MetaboBASE0308
InChIKey: SGEWCQFRYRRZDC-VPRICQMDSA-N
Precursor_type: [M-H]-
Spectrum_type: MS2
PrecursorMZ: 431.0972
Instrument_type: LC-ESI-TOF
Instrument: impact HD
Ion_mode: N
Collision_energy: 20
InChIKey: SGEWCQFRYRRZDC-VPRICQMDSA-N
Formula: C21H20O10
MW: 432
ExactMass: 432.10564683999996
Comments: "license=License CC-BY-NC-SA 4.0 International" "author=Plant Biology, The Noble Foundation, Ardmore, OK, US/Dennis Fine, Daniel Wherritt, and Lloyd Sumner" "instrument type=LC-ESI-TOF" "instrument=impact HD" "ionization=ESI" "ionization mode=negative" "ms level=MS2" "precursor m/z=431.0972" "isolation width=5" "collision gas=Nitrogen" "collision energy=20" "peak width=0.015" "date=2013-11-09 08:53:26+01:00" "column=Waters Acquity BEH C18 1.7um x 2.1 x 150 mm" "retention time=297" "raw data file=C:\Data\Confirmed Standards\Confirmed Stds 7Nov13\Vitexin (vial 86) MSMS.d" "precursor type=[M-H]-" "mass accuracy=2.7159536178526062" "mass error=-0.0011708399999861285" "cas number=3681-93-4" "SMILES=c1cc(ccc1c2cc(=O)c3c(cc(c(c3o2)[C@H]4[C@@H]([C@H]([C@@H]([C@H](O4)CO)O)O)O)O)O)O" "InChI=InChI=1S/C21H20O10/c22-7-14-17(27)18(28)19(29)21(31-14)16-11(25)5-10(24)15-12(26)6-13(30-20(15)16)8-1-3-9(23)4-2-8/h1-6,14,17-19,21-25,27-29H,7H2/t14-,17-,18+,19-,21+/m1/s1" "InChIKey=SGEWCQFRYRRZDC-VPRICQMDSA-N" "molecular formula=C21H20O10" "total exact mass=432.10564683999996" "SMILES=C1=CC(=CC=C1C2=CC(=O)C3=C(O2)C(=C(C=C3O)O)C4C(C(C(C(O4)CO)O)O)O)O"
Num Peaks: 6
 311 81.581582; 
 312 12.112112; 
 341 5.505506; 
 431 100.000000; 
 432 16.016016; 
 433 2.502503; 


Name: Vitexin
SYNON: $:00in-source
DB#: MetaboBASE0309
InChIKey: SGEWCQFRYRRZDC-VPRICQMDSA-N
Precursor_type: [M-H]-
Spectrum_type: MS2
PrecursorMZ: 431.1
Instrument_type: LC-ESI-TOF
Instrument: impact HD
Ion_mode: N
Collision_energy: 40
InChIKey: SGEWCQFRYRRZDC-VPRICQMDSA-N
Formula: C21H20O10
MW: 432
ExactMass: 432.10564683999996
Comments: "license=License CC-BY-NC-SA 4.0 International" "author=Plant Biology, The Noble Foundation, Ardmore, OK, US/Dennis Fine, Daniel Wherritt, and Lloyd Sumner" "instrument type=LC-ESI-TOF" "instrument=impact HD" "ionization=ESI" "ionization mode=negative" "ms level=MS2" "precursor m/z=431.1" "isolation width=5" "collision gas=Nitrogen" "collision energy=40" "peak width=0.022" "date=2013-11-09 08:53:26+01:00" "column=Waters Acquity BEH C18 1.7um x 2.1 x 150 mm" "retention time=297" "raw data file=C:\Data\Confirmed Standards\Confirmed Stds 7Nov13\Vitexin (vial 86) MSMS.d" "precursor type=[M-H]-" "mass accuracy=3.779076780445322" "mass error=0.0016291600000499784" "cas number=3681-93-4" "SMILES=c1cc(ccc1c2cc(=O)c3c(cc(c(c3o2)[C@H]4[C@@H]([C@H]([C@@H]([C@H](O4)CO)O)O)O)O)O)O" "InChI=InChI=1S/C21H20O10/c22-7-14-17(27)18(28)19(29)21(31-14)16-11(25)5-10(24)15-12(26)6-13(30-20(15)16)8-1-3-9(23)4-2-8/h1-6,14,17-19,21-25,27-29H,7H2/t14-,17-,18+,19-,21+/m1/s1" "InChIKey=SGEWCQFRYRRZDC-VPRICQMDSA-N" "molecular formula=C21H20O10" "total exact mass=432.10564683999996" "SMILES=C1=CC(=CC=C1C2=CC(=O)C3=C(O2)C(=C(C=C3O)O)C4C(C(C(C(O4)CO)O)O)O)O"
Num Peaks: 11
 268 3.003003; 
 269 3.403403; 
 281 3.903904; 
 282 2.702703; 
 283 100.000000; 
 284 12.312312; 
 293 4.004004; 
 311 75.975976; 
 312 9.009009; 
 323 5.205205; 
 341 3.403403; 


Name: Vitexin
SYNON: $:00in-source
DB#: MetaboBASE0310
InChIKey: SGEWCQFRYRRZDC-VPRICQMDSA-N
Precursor_type: [M-H]-
Spectrum_type: MS2
PrecursorMZ: 431.1
Instrument_type: LC-ESI-TOF
Instrument: impact HD
Ion_mode: N
Collision_energy: 50
InChIKey: SGEWCQFRYRRZDC-VPRICQMDSA-N
Formula: C21H20O10
MW: 432
ExactMass: 432.10564683999996
Comments: "license=License CC-BY-NC-SA 4.0 International" "author=Plant Biology, The Noble Foundation, Ardmore, OK, US/Dennis Fine, Daniel Wherritt, and Lloyd Sumner" "instrument type=LC-ESI-TOF" "instrument=impact HD" "ionization=ESI" "ionization mode=negative" "ms level=MS2" "precursor m/z=431.1" "isolation width=5" "collision gas=Nitrogen" "collision energy=50" "peak width=0.023" "date=2013-11-09 08:53:26+01:00" "column=Waters Acquity BEH C18 1.7um x 2.1 x 150 mm" "retention time=297" "raw data file=C:\Data\Confirmed Standards\Confirmed Stds 7Nov13\Vitexin (vial 86) MSMS.d" "precursor type=[M-H]-" "mass accuracy=3.779076780445322" "mass error=0.0016291600000499784" "cas number=3681-93-4" "SMILES=c1cc(ccc1c2cc(=O)c3c(cc(c(c3o2)[C@H]4[C@@H]([C@H]([C@@H]([C@H](O4)CO)O)O)O)O)O)O" "InChI=InChI=1S/C21H20O10/c22-7-14-17(27)18(28)19(29)21(31-14)16-11(25)5-10(24)15-12(26)6-13(30-20(15)16)8-1-3-9(23)4-2-8/h1-6,14,17-19,21-25,27-29H,7H2/t14-,17-,18+,19-,21+/m1/s1" "InChIKey=SGEWCQFRYRRZDC-VPRICQMDSA-N" "molecular formula=C21H20O10" "total exact mass=432.10564683999996" "SMILES=C1=CC(=CC=C1C2=CC(=O)C3=C(O2)C(=C(C=C3O)O)C4C(C(C(C(O4)CO)O)O)O)O"
Num Peaks: 17
 117 10.710711; 
 121 2.002002; 
 135 2.202202; 
 149 2.102102; 
 161 3.003003; 
 163 2.702703; 
 239 4.404404; 
 268 5.805806; 
 269 4.004004; 
 281 4.804805; 
 282 4.304304; 
 283 100.000000; 
 284 11.911912; 
 293 5.205205; 
 295 2.202202; 
 311 11.711712; 
 323 2.002002; 


Name: Spiraeoside
SYNON: $:00in-source
DB#: MetaboBASE0311
InChIKey: OIUBYZLTFSLSBY-HMGRVEAOSA-N
Precursor_type: [M-H]-
Spectrum_type: MS2
PrecursorMZ: 463.0886
Instrument_type: LC-ESI-TOF
Instrument: impact HD
Ion_mode: N
Collision_energy: 20
InChIKey: OIUBYZLTFSLSBY-HMGRVEAOSA-N
Formula: C21H20O12
MW: 464
ExactMass: 464.09547607999997
Comments: "license=License CC-BY-NC-SA 4.0 International" "author=Plant Biology, The Noble Foundation, Ardmore, OK, US/Dennis Fine, Daniel Wherritt, and Lloyd Sumner" "instrument type=LC-ESI-TOF" "instrument=impact HD" "ionization=ESI" "ionization mode=negative" "ms level=MS2" "precursor m/z=463.0886" "isolation width=5" "collision gas=Nitrogen" "collision energy=20" "peak width=0.013" "date=2013-11-09 13:39:13+01:00" "column=Waters Acquity BEH C18 1.7um x 2.1 x 150 mm" "retention time=375" "raw data file=C:\Data\Confirmed Standards\Confirmed Stds 7Nov13\Spiraeoside (vial 96) MSMS.d" "precursor type=[M-H]-" "mass accuracy=0.8635928416433905" "mass error=3.999200000066594E-4" "cas number=20229-56-5" "SMILES=c1cc(c(cc1c2c(c(=O)c3c(cc(cc3o2)O)O)O)O)O[C@H]4[C@@H]([C@H]([C@@H]([C@H](O4)CO)O)O)O" "InChI=InChI=1S/C21H20O12/c22-6-13-15(26)17(28)19(30)21(33-13)32-11-2-1-7(3-9(11)24)20-18(29)16(27)14-10(25)4-8(23)5-12(14)31-20/h1-5,13,15,17,19,21-26,28-30H,6H2/t13-,15-,17+,19-,21-/m1/s1" "InChIKey=OIUBYZLTFSLSBY-HMGRVEAOSA-N" "molecular formula=C21H20O12" "total exact mass=464.09547607999997" "SMILES=C1=CC(=C(C=C1C2=C(C(=O)C3=C(C=C(C=C3O2)O)O)O)O)OC4C(C(C(C(O4)CO)O)O)O"
Num Peaks: 4
 301 100.000000; 
 302 10.910911; 
 463 17.417417; 
 464 3.303303; 


Name: Spiraeoside
SYNON: $:00in-source
DB#: MetaboBASE0312
InChIKey: OIUBYZLTFSLSBY-HMGRVEAOSA-N
Precursor_type: [M-H]-
Spectrum_type: MS2
PrecursorMZ: 463.0886
Instrument_type: LC-ESI-TOF
Instrument: impact HD
Ion_mode: N
Collision_energy: 40
InChIKey: OIUBYZLTFSLSBY-HMGRVEAOSA-N
Formula: C21H20O12
MW: 464
ExactMass: 464.09547607999997
Comments: "license=License CC-BY-NC-SA 4.0 International" "author=Plant Biology, The Noble Foundation, Ardmore, OK, US/Dennis Fine, Daniel Wherritt, and Lloyd Sumner" "instrument type=LC-ESI-TOF" "instrument=impact HD" "ionization=ESI" "ionization mode=negative" "ms level=MS2" "precursor m/z=463.0886" "isolation width=5" "collision gas=Nitrogen" "collision energy=40" "peak width=0.019" "date=2013-11-09 13:39:13+01:00" "column=Waters Acquity BEH C18 1.7um x 2.1 x 150 mm" "retention time=375" "raw data file=C:\Data\Confirmed Standards\Confirmed Stds 7Nov13\Spiraeoside (vial 96) MSMS.d" "precursor type=[M-H]-" "mass accuracy=0.8635928416433905" "mass error=3.999200000066594E-4" "cas number=20229-56-5" "SMILES=c1cc(c(cc1c2c(c(=O)c3c(cc(cc3o2)O)O)O)O)O[C@H]4[C@@H]([C@H]([C@@H]([C@H](O4)CO)O)O)O" "InChI=InChI=1S/C21H20O12/c22-6-13-15(26)17(28)19(30)21(33-13)32-11-2-1-7(3-9(11)24)20-18(29)16(27)14-10(25)4-8(23)5-12(14)31-20/h1-5,13,15,17,19,21-26,28-30H,6H2/t13-,15-,17+,19-,21-/m1/s1" "InChIKey=OIUBYZLTFSLSBY-HMGRVEAOSA-N" "molecular formula=C21H20O12" "total exact mass=464.09547607999997" "SMILES=C1=CC(=C(C=C1C2=C(C(=O)C3=C(C=C(C=C3O2)O)O)O)O)OC4C(C(C(C(O4)CO)O)O)O"
Num Peaks: 10
 121 4.304304; 
 151 26.226226; 
 178 14.214214; 
 229 2.202202; 
 257 2.402402; 
 273 6.106106; 
 300 62.562563; 
 301 100.000000; 
 302 12.412412; 
 463 2.802803; 


Name: Spiraeoside
SYNON: $:00in-source
DB#: MetaboBASE0313
InChIKey: OIUBYZLTFSLSBY-HMGRVEAOSA-N
Precursor_type: [M-H]-
Spectrum_type: MS2
PrecursorMZ: 463.1
Instrument_type: LC-ESI-TOF
Instrument: impact HD
Ion_mode: N
Collision_energy: 50
InChIKey: OIUBYZLTFSLSBY-HMGRVEAOSA-N
Formula: C21H20O12
MW: 464
ExactMass: 464.09547607999997
Comments: "license=License CC-BY-NC-SA 4.0 International" "author=Plant Biology, The Noble Foundation, Ardmore, OK, US/Dennis Fine, Daniel Wherritt, and Lloyd Sumner" "instrument type=LC-ESI-TOF" "instrument=impact HD" "ionization=ESI" "ionization mode=negative" "ms level=MS2" "precursor m/z=463.1" "isolation width=5" "collision gas=Nitrogen" "collision energy=50" "peak width=0.021" "date=2013-11-09 13:39:13+01:00" "column=Waters Acquity BEH C18 1.7um x 2.1 x 150 mm" "retention time=375" "raw data file=C:\Data\Confirmed Standards\Confirmed Stds 7Nov13\Spiraeoside (vial 96) MSMS.d" "precursor type=[M-H]-" "mass accuracy=25.48028503572455" "mass error=0.01179992000004404" "cas number=20229-56-5" "SMILES=c1cc(c(cc1c2c(c(=O)c3c(cc(cc3o2)O)O)O)O)O[C@H]4[C@@H]([C@H]([C@@H]([C@H](O4)CO)O)O)O" "InChI=InChI=1S/C21H20O12/c22-6-13-15(26)17(28)19(30)21(33-13)32-11-2-1-7(3-9(11)24)20-18(29)16(27)14-10(25)4-8(23)5-12(14)31-20/h1-5,13,15,17,19,21-26,28-30H,6H2/t13-,15-,17+,19-,21-/m1/s1" "InChIKey=OIUBYZLTFSLSBY-HMGRVEAOSA-N" "molecular formula=C21H20O12" "total exact mass=464.09547607999997" "SMILES=C1=CC(=C(C=C1C2=C(C(=O)C3=C(C=C(C=C3O2)O)O)O)O)OC4C(C(C(C(O4)CO)O)O)O"
Num Peaks: 21
 107 12.312312; 
 121 25.125125; 
 149 3.503504; 
 151 100.000000; 
 152 7.307307; 
 164 4.004004; 
 169 3.503504; 
 178 38.338338; 
 227 7.607608; 
 229 8.208208; 
 243 4.104104; 
 245 8.208208; 
 255 7.207207; 
 271 12.212212; 
 272 4.004004; 
 273 9.809810; 
 283 5.505506; 
 299 5.405405; 
 300 87.787788; 
 301 42.442442; 
 302 5.505506; 


Name: Spiraeoside
SYNON: $:00in-source
DB#: MetaboBASE0314
InChIKey: OIUBYZLTFSLSBY-HMGRVEAOSA-N
Precursor_type: [M-H]-
Spectrum_type: MS2
PrecursorMZ: 463.1
Instrument_type: LC-ESI-TOF
Instrument: impact HD
Ion_mode: N
Collision_energy: 60
InChIKey: OIUBYZLTFSLSBY-HMGRVEAOSA-N
Formula: C21H20O12
MW: 464
ExactMass: 464.09547607999997
Comments: "license=License CC-BY-NC-SA 4.0 International" "author=Plant Biology, The Noble Foundation, Ardmore, OK, US/Dennis Fine, Daniel Wherritt, and Lloyd Sumner" "instrument type=LC-ESI-TOF" "instrument=impact HD" "ionization=ESI" "ionization mode=negative" "ms level=MS2" "precursor m/z=463.1" "isolation width=5" "collision gas=Nitrogen" "collision energy=60" "peak width=0.019" "date=2013-11-09 13:39:13+01:00" "column=Waters Acquity BEH C18 1.7um x 2.1 x 150 mm" "retention time=375" "raw data file=C:\Data\Confirmed Standards\Confirmed Stds 7Nov13\Spiraeoside (vial 96) MSMS.d" "precursor type=[M-H]-" "mass accuracy=25.48028503572455" "mass error=0.01179992000004404" "cas number=20229-56-5" "SMILES=c1cc(c(cc1c2c(c(=O)c3c(cc(cc3o2)O)O)O)O)O[C@H]4[C@@H]([C@H]([C@@H]([C@H](O4)CO)O)O)O" "InChI=InChI=1S/C21H20O12/c22-6-13-15(26)17(28)19(30)21(33-13)32-11-2-1-7(3-9(11)24)20-18(29)16(27)14-10(25)4-8(23)5-12(14)31-20/h1-5,13,15,17,19,21-26,28-30H,6H2/t13-,15-,17+,19-,21-/m1/s1" "InChIKey=OIUBYZLTFSLSBY-HMGRVEAOSA-N" "molecular formula=C21H20O12" "total exact mass=464.09547607999997" "SMILES=C1=CC(=C(C=C1C2=C(C(=O)C3=C(C=C(C=C3O2)O)O)O)O)OC4C(C(C(C(O4)CO)O)O)O"
Num Peaks: 19
 107 13.213213; 
 121 30.630631; 
 148 5.005005; 
 149 10.610611; 
 151 100.000000; 
 152 7.907908; 
 164 7.007007; 
 178 15.015015; 
 227 11.011011; 
 229 6.606607; 
 243 18.018018; 
 245 6.406406; 
 255 11.811812; 
 271 19.719720; 
 273 6.406406; 
 283 5.705706; 
 299 5.905906; 
 300 44.244244; 
 301 9.909910; 


Name: Spiraeoside
SYNON: $:00in-source
DB#: MetaboBASE0315
InChIKey: OIUBYZLTFSLSBY-HMGRVEAOSA-N
Instrument_type: LC-ESI-TOF
Instrument: impact HD
Ion_mode: N
Collision_energy: 10
InChIKey: OIUBYZLTFSLSBY-HMGRVEAOSA-N
Formula: C21H20O12
MW: 464
ExactMass: 464.09547607999997
Comments: "license=License CC-BY-NC-SA 4.0 International" "author=Plant Biology, The Noble Foundation, Ardmore, OK, US/Dennis Fine, Daniel Wherritt, and Lloyd Sumner" "instrument type=LC-ESI-TOF" "instrument=impact HD" "ionization=ESI" "ionization mode=negative" "collision gas=Nitrogen" "collision energy=10" "peak width=0.02" "date=2013-11-08 16:54:11+01:00" "column=Waters Acquity BEH C18 1.7um x 2.1 x 150 mm" "retention time=375" "raw data file=C:\Data\Confirmed Standards\Confirmed Stds 7Nov13\Spiraeoside (vial 96).d" "cas number=20229-56-5" "SMILES=c1cc(c(cc1c2c(c(=O)c3c(cc(cc3o2)O)O)O)O)O[C@H]4[C@@H]([C@H]([C@@H]([C@H](O4)CO)O)O)O" "InChI=InChI=1S/C21H20O12/c22-6-13-15(26)17(28)19(30)21(33-13)32-11-2-1-7(3-9(11)24)20-18(29)16(27)14-10(25)4-8(23)5-12(14)31-20/h1-5,13,15,17,19,21-26,28-30H,6H2/t13-,15-,17+,19-,21-/m1/s1" "InChIKey=OIUBYZLTFSLSBY-HMGRVEAOSA-N" "molecular formula=C21H20O12" "total exact mass=464.09547607999997" "SMILES=C1=CC(=C(C=C1C2=C(C(=O)C3=C(C=C(C=C3O2)O)O)O)O)OC4C(C(C(C(O4)CO)O)O)O"
Num Peaks: 19
 301 40.340340; 
 302 5.405405; 
 317 1.101101; 
 339 1.101101; 
 462 2.102102; 
 463 100.000000; 
 464 20.220220; 
 465 3.803804; 
 479 31.031031; 
 480 6.706707; 
 481 1.401401; 
 501 2.302302; 
 531 3.503504; 
 553 2.002002; 
 927 13.013013; 
 928 6.106106; 
 929 1.501502; 
 943 5.605606; 
 944 2.702703; 


Name: Sissotrin
SYNON: $:00in-source
DB#: MetaboBASE0316
InChIKey: LFEUICHQZGNOHD-RECXWPGBSA-N
Spectrum_type: MS2
PrecursorMZ: 283.0601
Instrument_type: LC-ESI-TOF
Instrument: impact HD
Ion_mode: N
Collision_energy: 30
InChIKey: LFEUICHQZGNOHD-RECXWPGBSA-N
Formula: C22H22O10
MW: 446
ExactMass: 446.12129690399996
Comments: "license=License CC-BY-NC-SA 4.0 International" "author=Plant Biology, The Noble Foundation, Ardmore, OK, US/Dennis Fine, Daniel Wherritt, and Lloyd Sumner" "instrument type=LC-ESI-TOF" "instrument=impact HD" "ionization=ESI" "ionization mode=negative" "ms level=MS2" "precursor m/z=283.0601" "isolation width=5" "collision gas=Nitrogen" "collision energy=30" "peak width=0.017" "date=2014-08-05 23:12:13+02:00" "column=Waters Acquity BEH C18 1.7um x 2.1 x 150 mm" "retention time=613.8" "raw data file=C:\Data\Confirmed standards 24_July_2014\MSMS\Sissotin vial 87 dil 50%MeOH_1-F,6_01_542.d" "cas number=5928-26-7" "SMILES=COc1ccc(cc1)c2coc3cc(cc(c3c2=O)O)O[C@H]4[C@@H]([C@H]([C@@H]([C@H](O4)CO)O)O)O" "InChI=InChI=1S/C22H22O10/c1-29-11-4-2-10(3-5-11)13-9-30-15-7-12(6-14(24)17(15)18(13)25)31-22-21(28)20(27)19(26)16(8-23)32-22/h2-7,9,16,19-24,26-28H,8H2,1H3/t16-,19-,20+,21-,22-/m1/s1" "InChIKey=LFEUICHQZGNOHD-RECXWPGBSA-N" "molecular formula=C22H22O10" "total exact mass=446.12129690399996" "SMILES=O=C1C=2C(O)=CC(OC3OC(C(O)C(O)C3O)CO)=CC2OC=C1C=4C=CC(OC)=CC4"
Num Peaks: 54
 132 1.601602; 
 133 0.200200; 
 135 0.800801; 
 151 0.300300; 
 153 0.200200; 
 168 0.200200; 
 180 0.200200; 
 184 0.300300; 
 195 0.400400; 
 196 0.600601; 
 211 2.402402; 
 212 1.401401; 
 213 0.200200; 
 222 0.200200; 
 223 3.403403; 
 224 4.504505; 
 225 0.200200; 
 225 0.500501; 
 226 1.901902; 
 227 0.400400; 
 239 18.218218; 
 240 8.408408; 
 241 1.001001; 
 250 0.400400; 
 251 0.300300; 
 267 18.118118; 
 268 100.000000; 
 269 12.112112; 
 270 1.001001; 
 283 5.605606; 
 284 0.900901; 
 665 0.200200; 
 820 0.200200; 
 886 0.200200; 
 981 0.200200; 
 1041 0.200200; 
 1079 0.200200; 
 1116 0.200200; 
 1152 0.200200; 
 1154 0.200200; 
 1263 0.200200; 
 1288 0.200200; 
 1289 0.200200; 
 1306 0.200200; 
 1348 0.200200; 
 1355 0.200200; 
 1360 0.200200; 
 1361 0.200200; 
 1390 0.200200; 
 1403 0.200200; 
 1415 0.200200; 
 1416 0.200200; 
 1436 0.200200; 
 1466 0.200200; 


Name: Sissotrin
SYNON: $:00in-source
DB#: MetaboBASE0317
InChIKey: LFEUICHQZGNOHD-RECXWPGBSA-N
Precursor_type: [M+FA-H]-
Spectrum_type: MS2
PrecursorMZ: 491.12
Instrument_type: LC-ESI-TOF
Instrument: impact HD
Ion_mode: N
Collision_energy: 20
InChIKey: LFEUICHQZGNOHD-RECXWPGBSA-N
Formula: C22H22O10
MW: 446
ExactMass: 446.121296904
Comments: "license=License CC-BY-NC-SA 4.0 International" "author=Plant Biology, The Noble Foundation, Ardmore, OK, US/Dennis Fine, Daniel Wherritt, and Lloyd Sumner" "instrument type=LC-ESI-TOF" "instrument=impact HD" "ionization=ESI" "ionization mode=negative" "ms level=MS2" "precursor m/z=491.12" "isolation width=5" "collision gas=Nitrogen" "collision energy=20" "peak width=0.014" "date=2014-08-07 02:12:41+02:00" "column=Waters Acquity BEH C18 1.7um x 2.1 x 150 mm" "retention time=613.8" "raw data file=C:\Data\Confirmed standards 24_July_2014\MSMS\Sissotin vial 87 dil 50%MeOH_1-F,6_01_561.d" "precursor type=[M+FA-H]-" "mass accuracy=1.022348916743505" "mass error=5.020959999910701E-4" "cas number=5928-26-7" "SMILES=COc1ccc(cc1)c2coc3cc(cc(c3c2=O)O)O[C@H]4[C@@H]([C@H]([C@@H]([C@H](O4)CO)O)O)O" "InChI=InChI=1S/C22H22O10/c1-29-11-4-2-10(3-5-11)13-9-30-15-7-12(6-14(24)17(15)18(13)25)31-22-21(28)20(27)19(26)16(8-23)32-22/h2-7,9,16,19-24,26-28H,8H2,1H3/t16-,19-,20+,21-,22-/m1/s1" "InChIKey=LFEUICHQZGNOHD-RECXWPGBSA-N" "molecular formula=C22H22O10" "total exact mass=446.121296904" "SMILES=O=C1C=2C(O)=CC(OC3OC(C(O)C(O)C3O)CO)=CC2OC=C1C=4C=CC(OC)=CC4"
Num Peaks: 16
 239 0.100100; 
 267 0.200200; 
 267 0.300300; 
 268 2.202202; 
 269 0.200200; 
 283 100.000000; 
 284 11.311311; 
 285 0.700701; 
 297 0.200200; 
 305 0.300300; 
 325 2.002002; 
 326 0.300300; 
 349 0.200200; 
 367 0.300300; 
 445 1.401401; 
 446 0.300300; 


Name: Sissotrin
SYNON: $:00in-source
DB#: MetaboBASE0318
InChIKey: LFEUICHQZGNOHD-RECXWPGBSA-N
Precursor_type: [M-H]-
Spectrum_type: MS2
PrecursorMZ: 445.12
Instrument_type: LC-ESI-TOF
Instrument: impact HD
Ion_mode: N
Collision_energy: 20
InChIKey: LFEUICHQZGNOHD-RECXWPGBSA-N
Formula: C22H22O10
MW: 446
ExactMass: 446.12129690399996
Comments: "license=License CC-BY-NC-SA 4.0 International" "author=Plant Biology, The Noble Foundation, Ardmore, OK, US/Dennis Fine, Daniel Wherritt, and Lloyd Sumner" "instrument type=LC-ESI-TOF" "instrument=impact HD" "ionization=ESI" "ionization mode=negative" "ms level=MS2" "precursor m/z=445.12" "isolation width=5" "collision gas=Nitrogen" "collision energy=20" "peak width=0.017" "date=2014-08-07 01:31:49+02:00" "column=Waters Acquity BEH C18 1.7um x 2.1 x 150 mm" "retention time=613.8" "raw data file=C:\Data\Confirmed standards 24_July_2014\MSMS\Sissotin vial 87 dil 50%MeOH_1-F,6_01_560.d" "precursor type=[M-H]-" "mass accuracy=13.432548526313733" "mass error=0.005979096000032769" "cas number=5928-26-7" "SMILES=COc1ccc(cc1)c2coc3cc(cc(c3c2=O)O)O[C@H]4[C@@H]([C@H]([C@@H]([C@H](O4)CO)O)O)O" "InChI=InChI=1S/C22H22O10/c1-29-11-4-2-10(3-5-11)13-9-30-15-7-12(6-14(24)17(15)18(13)25)31-22-21(28)20(27)19(26)16(8-23)32-22/h2-7,9,16,19-24,26-28H,8H2,1H3/t16-,19-,20+,21-,22-/m1/s1" "InChIKey=LFEUICHQZGNOHD-RECXWPGBSA-N" "molecular formula=C22H22O10" "total exact mass=446.12129690399996" "SMILES=O=C1C=2C(O)=CC(OC3OC(C(O)C(O)C3O)CO)=CC2OC=C1C=4C=CC(OC)=CC4"
Num Peaks: 21
 239 0.300300; 
 240 0.100100; 
 267 0.400400; 
 267 0.700701; 
 268 5.305305; 
 268 0.100100; 
 269 0.600601; 
 282 0.100100; 
 283 100.000000; 
 283 0.100100; 
 284 14.514515; 
 285 1.001001; 
 296 0.300300; 
 297 0.900901; 
 298 0.100100; 
 300 0.200200; 
 305 0.400400; 
 307 0.100100; 
 325 1.401401; 
 326 0.300300; 
 349 0.300300; 


Name: Sissotrin
SYNON: $:00in-source
DB#: MetaboBASE0319
InChIKey: LFEUICHQZGNOHD-RECXWPGBSA-N
Instrument_type: LC-ESI-TOF
Instrument: impact HD
Ion_mode: N
Collision_energy: 10
InChIKey: LFEUICHQZGNOHD-RECXWPGBSA-N
Formula: C22H22O10
MW: 446
ExactMass: 446.121296904
Comments: "license=License CC-BY-NC-SA 4.0 International" "author=Plant Biology, The Noble Foundation, Ardmore, OK, US/Dennis Fine, Daniel Wherritt, and Lloyd Sumner" "instrument type=LC-ESI-TOF" "instrument=impact HD" "ionization=ESI" "ionization mode=negative" "collision gas=Nitrogen" "collision energy=10" "peak width=0.018" "date=2013-11-08 10:47:13+01:00" "column=Waters Acquity BEH C18 1.7um x 2.1 x 150 mm" "retention time=615" "raw data file=C:\Data\Confirmed Standards\Confirmed Stds 7Nov13\Sissotrin (vial 87).d" "annotformula=283.0608;       C16H11O5" "annotformula=445.1140;       C22H21O10" "annotformula=491.1192;       C23H23O12" "cas number=5928-26-7" "SMILES=COc1ccc(cc1)c2coc3cc(cc(c3c2=O)O)O[C@H]4[C@@H]([C@H]([C@@H]([C@H](O4)CO)O)O)O" "InChI=InChI=1S/C22H22O10/c1-29-11-4-2-10(3-5-11)13-9-30-15-7-12(6-14(24)17(15)18(13)25)31-22-21(28)20(27)19(26)16(8-23)32-22/h2-7,9,16,19-24,26-28H,8H2,1H3/t16-,19-,20+,21-,22-/m1/s1" "InChIKey=LFEUICHQZGNOHD-RECXWPGBSA-N" "molecular formula=C22H22O10" "total exact mass=446.121296904" "SMILES=O=C1C=2C(O)=CC(OC3OC(C(O)C(O)C3O)CO)=CC2OC=C1C=4C=CC(OC)=CC4"
Num Peaks: 17
 283 100.000000; 
 284 14.314314; 
 285 1.501502; 
 325 1.101101; 
 445 14.714715; 
 446 3.103103; 
 491 41.441441; 
 492 9.009009; 
 493 1.501502; 
 513 1.401401; 
 581 1.101101; 
 729 1.801802; 
 891 3.103103; 
 892 1.301301; 
 937 6.406406; 
 938 3.003003; 
 959 1.201201; 


Name: Sissotrin
SYNON: $:00in-source
DB#: MetaboBASE0320
InChIKey: LFEUICHQZGNOHD-RECXWPGBSA-N
Precursor_type: [M-H]-
Spectrum_type: MS2
PrecursorMZ: 445.119
Instrument_type: LC-ESI-TOF
Instrument: impact HD
Ion_mode: N
Collision_energy: 10
InChIKey: LFEUICHQZGNOHD-RECXWPGBSA-N
Formula: C22H22O10
MW: 446
ExactMass: 446.12129690399996
Comments: "license=License CC-BY-NC-SA 4.0 International" "author=Plant Biology, The Noble Foundation, Ardmore, OK, US/Dennis Fine, Daniel Wherritt, and Lloyd Sumner" "instrument type=LC-ESI-TOF" "instrument=impact HD" "ionization=ESI" "ionization mode=negative" "ms level=MS2" "precursor m/z=445.119" "isolation width=5" "collision gas=Nitrogen" "collision energy=10" "peak width=0.017" "date=2014-08-07 01:31:49+02:00" "column=Waters Acquity BEH C18 1.7um x 2.1 x 150 mm" "retention time=613.8" "raw data file=C:\Data\Confirmed standards 24_July_2014\MSMS\Sissotin vial 87 dil 50%MeOH_1-F,6_01_560.d" "precursor type=[M-H]-" "mass accuracy=11.18598846613246" "mass error=0.0049790960000564155" "cas number=5928-26-7" "SMILES=COc1ccc(cc1)c2coc3cc(cc(c3c2=O)O)O[C@H]4[C@@H]([C@H]([C@@H]([C@H](O4)CO)O)O)O" "InChI=InChI=1S/C22H22O10/c1-29-11-4-2-10(3-5-11)13-9-30-15-7-12(6-14(24)17(15)18(13)25)31-22-21(28)20(27)19(26)16(8-23)32-22/h2-7,9,16,19-24,26-28H,8H2,1H3/t16-,19-,20+,21-,22-/m1/s1" "InChIKey=LFEUICHQZGNOHD-RECXWPGBSA-N" "molecular formula=C22H22O10" "total exact mass=446.12129690399996" "SMILES=O=C1C=2C(O)=CC(OC3OC(C(O)C(O)C3O)CO)=CC2OC=C1C=4C=CC(OC)=CC4"
Num Peaks: 13
 267 0.100100; 
 268 1.101101; 
 283 100.000000; 
 284 14.014014; 
 285 0.800801; 
 305 0.300300; 
 325 2.302302; 
 326 0.500501; 
 349 0.300300; 
 355 0.100100; 
 367 0.200200; 
 445 2.902903; 
 446 0.800801; 


Name: Sissotrin
SYNON: $:00in-source
DB#: MetaboBASE0321
InChIKey: LFEUICHQZGNOHD-RECXWPGBSA-N
Spectrum_type: MS2
PrecursorMZ: 283.062
Instrument_type: LC-ESI-TOF
Instrument: impact HD
Ion_mode: N
Collision_energy: 10
InChIKey: LFEUICHQZGNOHD-RECXWPGBSA-N
Formula: C22H22O10
MW: 446
ExactMass: 446.12129690399996
Comments: "license=License CC-BY-NC-SA 4.0 International" "author=Plant Biology, The Noble Foundation, Ardmore, OK, US/Dennis Fine, Daniel Wherritt, and Lloyd Sumner" "instrument type=LC-ESI-TOF" "instrument=impact HD" "ionization=ESI" "ionization mode=negative" "ms level=MS2" "precursor m/z=283.062" "isolation width=5" "collision gas=Nitrogen" "collision energy=10" "peak width=0.014" "date=2014-08-05 23:12:13+02:00" "column=Waters Acquity BEH C18 1.7um x 2.1 x 150 mm" "retention time=613.8" "raw data file=C:\Data\Confirmed standards 24_July_2014\MSMS\Sissotin vial 87 dil 50%MeOH_1-F,6_01_542.d" "cas number=5928-26-7" "SMILES=COc1ccc(cc1)c2coc3cc(cc(c3c2=O)O)O[C@H]4[C@@H]([C@H]([C@@H]([C@H](O4)CO)O)O)O" "InChI=InChI=1S/C22H22O10/c1-29-11-4-2-10(3-5-11)13-9-30-15-7-12(6-14(24)17(15)18(13)25)31-22-21(28)20(27)19(26)16(8-23)32-22/h2-7,9,16,19-24,26-28H,8H2,1H3/t16-,19-,20+,21-,22-/m1/s1" "InChIKey=LFEUICHQZGNOHD-RECXWPGBSA-N" "molecular formula=C22H22O10" "total exact mass=446.12129690399996" "SMILES=O=C1C=2C(O)=CC(OC3OC(C(O)C(O)C3O)CO)=CC2OC=C1C=4C=CC(OC)=CC4"
Num Peaks: 9
 239 0.100100; 
 267 0.300300; 
 268 5.205205; 
 269 0.600601; 
 283 100.000000; 
 284 14.214214; 
 285 1.201201; 
 980 0.100100; 
 1157 0.100100; 


Name: Sissotrin
SYNON: $:00in-source
DB#: MetaboBASE0322
InChIKey: LFEUICHQZGNOHD-RECXWPGBSA-N
Instrument_type: LC-ESI-TOF
Instrument: impact HD
Ion_mode: N
InChIKey: LFEUICHQZGNOHD-RECXWPGBSA-N
Formula: C22H22O10
MW: 446
ExactMass: 446.121296904
Comments: "license=License CC-BY-NC-SA 4.0 International" "author=Plant Biology, The Noble Foundation, Ardmore, OK, US/Dennis Fine, Daniel Wherritt, and Lloyd Sumner" "instrument type=LC-ESI-TOF" "instrument=impact HD" "ionization=ESI" "ionization mode=negative" "collision gas=Nitrogen" "peak width=0.013" "date=2014-01-10 21:50:41+01:00" "column=Waters Acquity BEH C18 1.7um x 2.1 x 150 mm" "retention time=613.8" "raw data file=C:\Data\Confirmed Standards\14Jan10 Confirmed stds MSMS\Sissotrin (vial 87).d" "cas number=5928-26-7" "SMILES=COc1ccc(cc1)c2coc3cc(cc(c3c2=O)O)O[C@H]4[C@@H]([C@H]([C@@H]([C@H](O4)CO)O)O)O" "InChI=InChI=1S/C22H22O10/c1-29-11-4-2-10(3-5-11)13-9-30-15-7-12(6-14(24)17(15)18(13)25)31-22-21(28)20(27)19(26)16(8-23)32-22/h2-7,9,16,19-24,26-28H,8H2,1H3/t16-,19-,20+,21-,22-/m1/s1" "InChIKey=LFEUICHQZGNOHD-RECXWPGBSA-N" "molecular formula=C22H22O10" "total exact mass=446.121296904" "SMILES=O=C1C=2C(O)=CC(OC3OC(C(O)C(O)C3O)CO)=CC2OC=C1C=4C=CC(OC)=CC4"
Num Peaks: 16
 112 1.001001; 
 283 9.009009; 
 284 1.401401; 
 445 8.108108; 
 446 1.401401; 
 481 1.301301; 
 491 100.000000; 
 492 22.922923; 
 493 3.703704; 
 891 1.801802; 
 937 26.326326; 
 938 11.111111; 
 939 3.003003; 
 959 1.401401; 
 1337 1.501502; 
 1338 1.001001; 


Name: Sissotrin
SYNON: $:00in-source
DB#: MetaboBASE0323
InChIKey: LFEUICHQZGNOHD-RECXWPGBSA-N
Precursor_type: [M+FA-H]-
Spectrum_type: MS2
PrecursorMZ: 491.12
Instrument_type: LC-ESI-TOF
Instrument: impact HD
Ion_mode: N
Collision_energy: 30
InChIKey: LFEUICHQZGNOHD-RECXWPGBSA-N
Formula: C22H22O10
MW: 446
ExactMass: 446.121296904
Comments: "license=License CC-BY-NC-SA 4.0 International" "author=Plant Biology, The Noble Foundation, Ardmore, OK, US/Dennis Fine, Daniel Wherritt, and Lloyd Sumner" "instrument type=LC-ESI-TOF" "instrument=impact HD" "ionization=ESI" "ionization mode=negative" "ms level=MS2" "precursor m/z=491.12" "isolation width=5" "collision gas=Nitrogen" "collision energy=30" "peak width=0.014" "date=2014-08-07 02:12:41+02:00" "column=Waters Acquity BEH C18 1.7um x 2.1 x 150 mm" "retention time=613.8" "raw data file=C:\Data\Confirmed standards 24_July_2014\MSMS\Sissotin vial 87 dil 50%MeOH_1-F,6_01_561.d" "precursor type=[M+FA-H]-" "mass accuracy=1.022348916743505" "mass error=5.020959999910701E-4" "cas number=5928-26-7" "SMILES=COc1ccc(cc1)c2coc3cc(cc(c3c2=O)O)O[C@H]4[C@@H]([C@H]([C@@H]([C@H](O4)CO)O)O)O" "InChI=InChI=1S/C22H22O10/c1-29-11-4-2-10(3-5-11)13-9-30-15-7-12(6-14(24)17(15)18(13)25)31-22-21(28)20(27)19(26)16(8-23)32-22/h2-7,9,16,19-24,26-28H,8H2,1H3/t16-,19-,20+,21-,22-/m1/s1" "InChIKey=LFEUICHQZGNOHD-RECXWPGBSA-N" "molecular formula=C22H22O10" "total exact mass=446.121296904" "SMILES=O=C1C=2C(O)=CC(OC3OC(C(O)C(O)C3O)CO)=CC2OC=C1C=4C=CC(OC)=CC4"
Num Peaks: 26
 224 0.100100; 
 239 0.400400; 
 240 0.200200; 
 252 0.100100; 
 267 0.700701; 
 267 0.500501; 
 268 7.807808; 
 269 0.700701; 
 269 0.100100; 
 282 0.100100; 
 283 100.000000; 
 283 0.100100; 
 284 11.911912; 
 285 0.700701; 
 296 0.100100; 
 297 0.600601; 
 305 0.400400; 
 325 0.900901; 
 326 0.200200; 
 349 0.200200; 
 1067 0.100100; 
 1216 0.100100; 
 1220 0.100100; 
 1268 0.100100; 
 1318 0.100100; 
 1395 0.100100; 


Name: Sissotrin
SYNON: $:00in-source
DB#: MetaboBASE0324
InChIKey: LFEUICHQZGNOHD-RECXWPGBSA-N
Precursor_type: [M-H]-
Spectrum_type: MS2
PrecursorMZ: 445.12
Instrument_type: LC-ESI-TOF
Instrument: impact HD
Ion_mode: N
Collision_energy: 50
InChIKey: LFEUICHQZGNOHD-RECXWPGBSA-N
Formula: C22H22O10
MW: 446
ExactMass: 446.12129690399996
Comments: "license=License CC-BY-NC-SA 4.0 International" "author=Plant Biology, The Noble Foundation, Ardmore, OK, US/Dennis Fine, Daniel Wherritt, and Lloyd Sumner" "instrument type=LC-ESI-TOF" "instrument=impact HD" "ionization=ESI" "ionization mode=negative" "ms level=MS2" "precursor m/z=445.12" "isolation width=5" "collision gas=Nitrogen" "collision energy=50" "peak width=0.016" "date=2014-08-07 01:31:49+02:00" "column=Waters Acquity BEH C18 1.7um x 2.1 x 150 mm" "retention time=613.8" "raw data file=C:\Data\Confirmed standards 24_July_2014\MSMS\Sissotin vial 87 dil 50%MeOH_1-F,6_01_560.d" "precursor type=[M-H]-" "mass accuracy=13.432548526313733" "mass error=0.005979096000032769" "cas number=5928-26-7" "SMILES=COc1ccc(cc1)c2coc3cc(cc(c3c2=O)O)O[C@H]4[C@@H]([C@H]([C@@H]([C@H](O4)CO)O)O)O" "InChI=InChI=1S/C22H22O10/c1-29-11-4-2-10(3-5-11)13-9-30-15-7-12(6-14(24)17(15)18(13)25)31-22-21(28)20(27)19(26)16(8-23)32-22/h2-7,9,16,19-24,26-28H,8H2,1H3/t16-,19-,20+,21-,22-/m1/s1" "InChIKey=LFEUICHQZGNOHD-RECXWPGBSA-N" "molecular formula=C22H22O10" "total exact mass=446.12129690399996" "SMILES=O=C1C=2C(O)=CC(OC3OC(C(O)C(O)C3O)CO)=CC2OC=C1C=4C=CC(OC)=CC4"
Num Peaks: 73
 132 1.201201; 
 135 0.700701; 
 151 0.600601; 
 167 0.100100; 
 180 0.400400; 
 183 0.200200; 
 184 0.200200; 
 195 0.300300; 
 196 0.400400; 
 198 0.100100; 
 199 0.100100; 
 200 0.200200; 
 211 1.201201; 
 212 0.900901; 
 215 0.200200; 
 223 2.102102; 
 224 3.803804; 
 225 0.600601; 
 226 1.601602; 
 226 0.100100; 
 227 0.300300; 
 237 0.200200; 
 239 10.010010; 
 239 0.200200; 
 240 5.505506; 
 241 0.600601; 
 250 0.200200; 
 251 0.300300; 
 252 1.301301; 
 253 0.600601; 
 254 0.300300; 
 255 0.200200; 
 264 0.200200; 
 267 11.211211; 
 268 100.000000; 
 269 13.013013; 
 270 0.700701; 
 280 0.200200; 
 281 0.200200; 
 282 0.300300; 
 283 13.813814; 
 284 2.302302; 
 285 0.100100; 
 290 0.300300; 
 295 0.200200; 
 310 0.200200; 
 930 0.100100; 
 942 0.100100; 
 1063 0.100100; 
 1131 0.100100; 
 1145 0.100100; 
 1159 0.100100; 
 1201 0.100100; 
 1238 0.100100; 
 1259 0.100100; 
 1275 0.100100; 
 1281 0.100100; 
 1329 0.100100; 
 1339 0.100100; 
 1346 0.100100; 
 1376 0.100100; 
 1380 0.100100; 
 1400 0.100100; 
 1406 0.100100; 
 1410 0.100100; 
 1418 0.100100; 
 1421 0.100100; 
 1436 0.100100; 
 1448 0.100100; 
 1471 0.100100; 
 1478 0.100100; 
 1480 0.100100; 
 1494 0.100100; 


Name: Sissotrin
SYNON: $:00in-source
DB#: MetaboBASE0325
InChIKey: LFEUICHQZGNOHD-RECXWPGBSA-N
Precursor_type: [M-H]-
Spectrum_type: MS2
PrecursorMZ: 445.12
Instrument_type: LC-ESI-TOF
Instrument: impact HD
Ion_mode: N
Collision_energy: 30
InChIKey: LFEUICHQZGNOHD-RECXWPGBSA-N
Formula: C22H22O10
MW: 446
ExactMass: 446.121296904
Comments: "license=License CC-BY-NC-SA 4.0 International" "author=Plant Biology, The Noble Foundation, Ardmore, OK, US/Dennis Fine, Daniel Wherritt, and Lloyd Sumner" "instrument type=LC-ESI-TOF" "instrument=impact HD" "ionization=ESI" "ionization mode=negative" "ms level=MS2" "precursor m/z=445.12" "isolation width=5" "collision gas=Nitrogen" "collision energy=30" "peak width=0.015" "date=2014-08-07 01:31:49+02:00" "column=Waters Acquity BEH C18 1.7um x 2.1 x 150 mm" "retention time=613.8" "raw data file=C:\Data\Confirmed standards 24_July_2014\MSMS\Sissotin vial 87 dil 50%MeOH_1-F,6_01_560.d" "precursor type=[M-H]-" "mass accuracy=13.432548526186029" "mass error=0.005979095999975925" "cas number=5928-26-7" "SMILES=COc1ccc(cc1)c2coc3cc(cc(c3c2=O)O)O[C@H]4[C@@H]([C@H]([C@@H]([C@H](O4)CO)O)O)O" "InChI=InChI=1S/C22H22O10/c1-29-11-4-2-10(3-5-11)13-9-30-15-7-12(6-14(24)17(15)18(13)25)31-22-21(28)20(27)19(26)16(8-23)32-22/h2-7,9,16,19-24,26-28H,8H2,1H3/t16-,19-,20+,21-,22-/m1/s1" "InChIKey=LFEUICHQZGNOHD-RECXWPGBSA-N" "molecular formula=C22H22O10" "total exact mass=446.121296904" "SMILES=O=C1C=2C(O)=CC(OC3OC(C(O)C(O)C3O)CO)=CC2OC=C1C=4C=CC(OC)=CC4"
Num Peaks: 33
 223 0.200200; 
 224 0.200200; 
 226 0.100100; 
 239 1.001001; 
 239 0.300300; 
 240 0.600601; 
 252 0.500501; 
 254 0.100100; 
 267 1.201201; 
 267 1.001001; 
 268 28.628629; 
 269 3.103103; 
 269 0.100100; 
 270 0.300300; 
 282 0.500501; 
 283 100.000000; 
 284 15.215215; 
 285 1.001001; 
 286 0.100100; 
 290 0.200200; 
 296 0.300300; 
 297 0.500501; 
 300 0.100100; 
 305 0.200200; 
 307 0.200200; 
 310 0.100100; 
 311 0.100100; 
 325 0.600601; 
 349 0.100100; 
 1147 0.100100; 
 1315 0.100100; 
 1316 0.100100; 
 1316 0.100100; 


Name: Sissotrin
SYNON: $:00in-source
DB#: MetaboBASE0326
InChIKey: LFEUICHQZGNOHD-RECXWPGBSA-N
Precursor_type: [M-H]-
Spectrum_type: MS2
PrecursorMZ: 445.12
Instrument_type: LC-ESI-TOF
Instrument: impact HD
Ion_mode: N
Collision_energy: 40
InChIKey: LFEUICHQZGNOHD-RECXWPGBSA-N
Formula: C22H22O10
MW: 446
ExactMass: 446.121296904
Comments: "license=License CC-BY-NC-SA 4.0 International" "author=Plant Biology, The Noble Foundation, Ardmore, OK, US/Dennis Fine, Daniel Wherritt, and Lloyd Sumner" "instrument type=LC-ESI-TOF" "instrument=impact HD" "ionization=ESI" "ionization mode=negative" "ms level=MS2" "precursor m/z=445.12" "isolation width=5" "collision gas=Nitrogen" "collision energy=40" "peak width=0.015" "date=2014-08-07 01:31:49+02:00" "column=Waters Acquity BEH C18 1.7um x 2.1 x 150 mm" "retention time=613.8" "raw data file=C:\Data\Confirmed standards 24_July_2014\MSMS\Sissotin vial 87 dil 50%MeOH_1-F,6_01_560.d" "precursor type=[M-H]-" "mass accuracy=13.432548526186029" "mass error=0.005979095999975925" "cas number=5928-26-7" "SMILES=COc1ccc(cc1)c2coc3cc(cc(c3c2=O)O)O[C@H]4[C@@H]([C@H]([C@@H]([C@H](O4)CO)O)O)O" "InChI=InChI=1S/C22H22O10/c1-29-11-4-2-10(3-5-11)13-9-30-15-7-12(6-14(24)17(15)18(13)25)31-22-21(28)20(27)19(26)16(8-23)32-22/h2-7,9,16,19-24,26-28H,8H2,1H3/t16-,19-,20+,21-,22-/m1/s1" "InChIKey=LFEUICHQZGNOHD-RECXWPGBSA-N" "molecular formula=C22H22O10" "total exact mass=446.121296904" "SMILES=O=C1C=2C(O)=CC(OC3OC(C(O)C(O)C3O)CO)=CC2OC=C1C=4C=CC(OC)=CC4"
Num Peaks: 83
 132 0.300300; 
 151 0.200200; 
 200 0.100100; 
 211 0.300300; 
 212 0.200200; 
 215 0.200200; 
 223 0.800801; 
 224 1.501502; 
 225 0.300300; 
 226 0.500501; 
 238 0.100100; 
 239 4.204204; 
 239 0.400400; 
 240 2.302302; 
 241 0.300300; 
 251 0.100100; 
 252 2.102102; 
 253 0.400400; 
 254 0.400400; 
 255 0.300300; 
 264 0.300300; 
 267 4.904905; 
 267 0.700701; 
 268 100.000000; 
 269 13.413413; 
 270 0.700701; 
 279 0.200200; 
 281 0.400400; 
 282 0.600601; 
 283 65.965966; 
 284 10.710711; 
 285 0.600601; 
 290 0.400400; 
 292 0.200200; 
 295 0.100100; 
 296 0.200200; 
 297 0.200200; 
 307 0.100100; 
 310 0.200200; 
 311 0.100100; 
 325 0.100100; 
 830 0.100100; 
 999 0.100100; 
 1012 0.100100; 
 1049 0.100100; 
 1049 0.100100; 
 1062 0.100100; 
 1086 0.100100; 
 1086 0.100100; 
 1092 0.100100; 
 1142 0.100100; 
 1144 0.100100; 
 1146 0.100100; 
 1152 0.100100; 
 1167 0.100100; 
 1168 0.100100; 
 1169 0.100100; 
 1184 0.100100; 
 1187 0.200200; 
 1233 0.100100; 
 1253 0.100100; 
 1259 0.100100; 
 1268 0.100100; 
 1276 0.100100; 
 1290 0.100100; 
 1318 0.100100; 
 1338 0.100100; 
 1350 0.100100; 
 1356 0.100100; 
 1365 0.200200; 
 1368 0.100100; 
 1383 0.100100; 
 1397 0.100100; 
 1398 0.100100; 
 1403 0.100100; 
 1406 0.100100; 
 1414 0.200200; 
 1441 0.100100; 
 1470 0.100100; 
 1480 0.100100; 
 1492 0.200200; 
 1500 0.100100; 
 1504 0.100100; 


Name: Sissotrin
SYNON: $:00in-source
DB#: MetaboBASE0327
InChIKey: LFEUICHQZGNOHD-RECXWPGBSA-N
Spectrum_type: MS2
PrecursorMZ: 283.06
Instrument_type: LC-ESI-TOF
Instrument: impact HD
Ion_mode: N
Collision_energy: 50
InChIKey: LFEUICHQZGNOHD-RECXWPGBSA-N
Formula: C22H22O10
MW: 446
ExactMass: 446.121296904
Comments: "license=License CC-BY-NC-SA 4.0 International" "author=Plant Biology, The Noble Foundation, Ardmore, OK, US/Dennis Fine, Daniel Wherritt, and Lloyd Sumner" "instrument type=LC-ESI-TOF" "instrument=impact HD" "ionization=ESI" "ionization mode=negative" "ms level=MS2" "precursor m/z=283.06" "isolation width=5" "collision gas=Nitrogen" "collision energy=50" "peak width=0.019" "date=2014-08-05 23:12:13+02:00" "column=Waters Acquity BEH C18 1.7um x 2.1 x 150 mm" "retention time=613.8" "raw data file=C:\Data\Confirmed standards 24_July_2014\MSMS\Sissotin vial 87 dil 50%MeOH_1-F,6_01_542.d" "cas number=5928-26-7" "SMILES=COc1ccc(cc1)c2coc3cc(cc(c3c2=O)O)O[C@H]4[C@@H]([C@H]([C@@H]([C@H](O4)CO)O)O)O" "InChI=InChI=1S/C22H22O10/c1-29-11-4-2-10(3-5-11)13-9-30-15-7-12(6-14(24)17(15)18(13)25)31-22-21(28)20(27)19(26)16(8-23)32-22/h2-7,9,16,19-24,26-28H,8H2,1H3/t16-,19-,20+,21-,22-/m1/s1" "InChIKey=LFEUICHQZGNOHD-RECXWPGBSA-N" "molecular formula=C22H22O10" "total exact mass=446.121296904" "SMILES=O=C1C=2C(O)=CC(OC3OC(C(O)C(O)C3O)CO)=CC2OC=C1C=4C=CC(OC)=CC4"
Num Peaks: 39
 104 2.302302; 
 117 2.702703; 
 130 3.903904; 
 132 40.840841; 
 133 2.602603; 
 134 4.904905; 
 135 3.103103; 
 141 3.103103; 
 142 1.801802; 
 143 3.203203; 
 151 2.602603; 
 154 5.205205; 
 155 6.206206; 
 156 3.003003; 
 166 2.102102; 
 167 27.527528; 
 168 3.303303; 
 169 2.402402; 
 179 4.704705; 
 182 5.005005; 
 183 19.719720; 
 184 9.709710; 
 195 24.324324; 
 196 6.906907; 
 197 2.402402; 
 210 9.709710; 
 211 100.000000; 
 212 13.413413; 
 222 2.402402; 
 223 26.326326; 
 224 7.207207; 
 225 2.002002; 
 226 2.102102; 
 227 2.302302; 
 239 91.691692; 
 240 18.118118; 
 267 63.263263; 
 268 12.512513; 
 1026 1.901902; 


Name: Sissotrin
SYNON: $:00in-source
DB#: MetaboBASE0328
InChIKey: LFEUICHQZGNOHD-RECXWPGBSA-N
Spectrum_type: MS2
PrecursorMZ: 283.06
Instrument_type: LC-ESI-TOF
Instrument: impact HD
Ion_mode: N
Collision_energy: 40
InChIKey: LFEUICHQZGNOHD-RECXWPGBSA-N
Formula: C22H22O10
MW: 446
ExactMass: 446.121296904
Comments: "license=License CC-BY-NC-SA 4.0 International" "author=Plant Biology, The Noble Foundation, Ardmore, OK, US/Dennis Fine, Daniel Wherritt, and Lloyd Sumner" "instrument type=LC-ESI-TOF" "instrument=impact HD" "ionization=ESI" "ionization mode=negative" "ms level=MS2" "precursor m/z=283.06" "isolation width=5" "collision gas=Nitrogen" "collision energy=40" "peak width=0.019" "date=2014-08-05 23:12:13+02:00" "column=Waters Acquity BEH C18 1.7um x 2.1 x 150 mm" "retention time=613.8" "raw data file=C:\Data\Confirmed standards 24_July_2014\MSMS\Sissotin vial 87 dil 50%MeOH_1-F,6_01_542.d" "cas number=5928-26-7" "SMILES=COc1ccc(cc1)c2coc3cc(cc(c3c2=O)O)O[C@H]4[C@@H]([C@H]([C@@H]([C@H](O4)CO)O)O)O" "InChI=InChI=1S/C22H22O10/c1-29-11-4-2-10(3-5-11)13-9-30-15-7-12(6-14(24)17(15)18(13)25)31-22-21(28)20(27)19(26)16(8-23)32-22/h2-7,9,16,19-24,26-28H,8H2,1H3/t16-,19-,20+,21-,22-/m1/s1" "InChIKey=LFEUICHQZGNOHD-RECXWPGBSA-N" "molecular formula=C22H22O10" "total exact mass=446.121296904" "SMILES=O=C1C=2C(O)=CC(OC3OC(C(O)C(O)C3O)CO)=CC2OC=C1C=4C=CC(OC)=CC4"
Num Peaks: 40
 130 0.900901; 
 132 21.721722; 
 133 0.900901; 
 134 2.302302; 
 135 3.403403; 
 142 0.900901; 
 143 1.001001; 
 147 0.900901; 
 151 2.102102; 
 154 1.701702; 
 156 1.101101; 
 167 5.205205; 
 179 1.301301; 
 180 1.001001; 
 182 0.800801; 
 183 3.103103; 
 184 4.804805; 
 185 0.800801; 
 195 9.509510; 
 196 4.204204; 
 198 0.800801; 
 199 1.001001; 
 210 0.800801; 
 211 36.536537; 
 212 7.307307; 
 222 1.401401; 
 223 18.218218; 
 224 10.310310; 
 225 1.201201; 
 226 9.309309; 
 227 1.201201; 
 239 100.000000; 
 240 30.430430; 
 241 3.303303; 
 250 1.701702; 
 251 1.001001; 
 267 80.680681; 
 268 64.364364; 
 269 8.808809; 
 270 1.201201; 


Name: Sissotrin
SYNON: $:00in-source
DB#: MetaboBASE0329
InChIKey: LFEUICHQZGNOHD-RECXWPGBSA-N
Precursor_type: [M+FA-H]-
Spectrum_type: MS2
PrecursorMZ: 491.12
Instrument_type: LC-ESI-TOF
Instrument: impact HD
Ion_mode: N
Collision_energy: 50
InChIKey: LFEUICHQZGNOHD-RECXWPGBSA-N
Formula: C22H22O10
MW: 446
ExactMass: 446.121296904
Comments: "license=License CC-BY-NC-SA 4.0 International" "author=Plant Biology, The Noble Foundation, Ardmore, OK, US/Dennis Fine, Daniel Wherritt, and Lloyd Sumner" "instrument type=LC-ESI-TOF" "instrument=impact HD" "ionization=ESI" "ionization mode=negative" "ms level=MS2" "precursor m/z=491.12" "isolation width=5" "collision gas=Nitrogen" "collision energy=50" "peak width=0.016" "date=2014-08-07 02:12:41+02:00" "column=Waters Acquity BEH C18 1.7um x 2.1 x 150 mm" "retention time=613.8" "raw data file=C:\Data\Confirmed standards 24_July_2014\MSMS\Sissotin vial 87 dil 50%MeOH_1-F,6_01_561.d" "precursor type=[M+FA-H]-" "mass accuracy=1.022348916743505" "mass error=5.020959999910701E-4" "cas number=5928-26-7" "SMILES=COc1ccc(cc1)c2coc3cc(cc(c3c2=O)O)O[C@H]4[C@@H]([C@H]([C@@H]([C@H](O4)CO)O)O)O" "InChI=InChI=1S/C22H22O10/c1-29-11-4-2-10(3-5-11)13-9-30-15-7-12(6-14(24)17(15)18(13)25)31-22-21(28)20(27)19(26)16(8-23)32-22/h2-7,9,16,19-24,26-28H,8H2,1H3/t16-,19-,20+,21-,22-/m1/s1" "InChIKey=LFEUICHQZGNOHD-RECXWPGBSA-N" "molecular formula=C22H22O10" "total exact mass=446.121296904" "SMILES=O=C1C=2C(O)=CC(OC3OC(C(O)C(O)C3O)CO)=CC2OC=C1C=4C=CC(OC)=CC4"
Num Peaks: 95
 132 0.200200; 
 151 0.100100; 
 200 0.200200; 
 211 0.600601; 
 223 1.101101; 
 224 1.601602; 
 225 0.200200; 
 226 0.700701; 
 227 0.100100; 
 239 5.205205; 
 239 0.300300; 
 240 2.402402; 
 241 0.300300; 
 250 0.100100; 
 252 1.501502; 
 253 0.300300; 
 254 0.300300; 
 255 0.200200; 
 264 0.200200; 
 267 5.005005; 
 267 0.400400; 
 268 100.000000; 
 269 12.012012; 
 269 0.100100; 
 270 0.500501; 
 281 0.300300; 
 282 0.400400; 
 283 62.762763; 
 284 8.508509; 
 285 0.400400; 
 290 0.400400; 
 292 0.200200; 
 305 0.200200; 
 307 0.200200; 
 310 0.200200; 
 325 0.200200; 
 757 0.200200; 
 760 0.100100; 
 801 0.100100; 
 803 0.200200; 
 859 0.200200; 
 906 0.200200; 
 956 0.100100; 
 974 0.200200; 
 976 0.200200; 
 976 0.100100; 
 1021 0.200200; 
 1028 0.100100; 
 1039 0.200200; 
 1040 0.100100; 
 1069 0.100100; 
 1087 0.200200; 
 1098 0.100100; 
 1102 0.200200; 
 1107 0.200200; 
 1109 0.200200; 
 1114 0.200200; 
 1159 0.200200; 
 1166 0.100100; 
 1167 0.200200; 
 1185 0.200200; 
 1217 0.200200; 
 1230 0.200200; 
 1264 0.200200; 
 1270 0.200200; 
 1271 0.200200; 
 1278 0.100100; 
 1280 0.100100; 
 1288 0.200200; 
 1300 0.200200; 
 1310 0.100100; 
 1315 0.100100; 
 1316 0.200200; 
 1333 0.200200; 
 1349 0.200200; 
 1357 0.100100; 
 1362 0.200200; 
 1367 0.200200; 
 1373 0.200200; 
 1373 0.200200; 
 1384 0.200200; 
 1389 0.200200; 
 1397 0.200200; 
 1418 0.200200; 
 1419 0.200200; 
 1419 0.200200; 
 1420 0.200200; 
 1424 0.200200; 
 1426 0.100100; 
 1438 0.200200; 
 1456 0.200200; 
 1460 0.200200; 
 1489 0.200200; 
 1493 0.200200; 
 1496 0.200200; 


Name: Sissotrin
SYNON: $:00in-source
DB#: MetaboBASE0330
InChIKey: LFEUICHQZGNOHD-RECXWPGBSA-N
Spectrum_type: MS2
PrecursorMZ: 283.0616
Instrument_type: LC-ESI-TOF
Instrument: impact HD
Ion_mode: N
Collision_energy: 20
InChIKey: LFEUICHQZGNOHD-RECXWPGBSA-N
Formula: C22H22O10
MW: 446
ExactMass: 446.121296904
Comments: "license=License CC-BY-NC-SA 4.0 International" "author=Plant Biology, The Noble Foundation, Ardmore, OK, US/Dennis Fine, Daniel Wherritt, and Lloyd Sumner" "instrument type=LC-ESI-TOF" "instrument=impact HD" "ionization=ESI" "ionization mode=negative" "ms level=MS2" "precursor m/z=283.0616" "isolation width=5" "collision gas=Nitrogen" "collision energy=20" "peak width=0.015" "date=2014-08-05 23:12:13+02:00" "column=Waters Acquity BEH C18 1.7um x 2.1 x 150 mm" "retention time=613.8" "raw data file=C:\Data\Confirmed standards 24_July_2014\MSMS\Sissotin vial 87 dil 50%MeOH_1-F,6_01_542.d" "cas number=5928-26-7" "SMILES=COc1ccc(cc1)c2coc3cc(cc(c3c2=O)O)O[C@H]4[C@@H]([C@H]([C@@H]([C@H](O4)CO)O)O)O" "InChI=InChI=1S/C22H22O10/c1-29-11-4-2-10(3-5-11)13-9-30-15-7-12(6-14(24)17(15)18(13)25)31-22-21(28)20(27)19(26)16(8-23)32-22/h2-7,9,16,19-24,26-28H,8H2,1H3/t16-,19-,20+,21-,22-/m1/s1" "InChIKey=LFEUICHQZGNOHD-RECXWPGBSA-N" "molecular formula=C22H22O10" "total exact mass=446.121296904" "SMILES=O=C1C=2C(O)=CC(OC3OC(C(O)C(O)C3O)CO)=CC2OC=C1C=4C=CC(OC)=CC4"
Num Peaks: 86
 211 0.200200; 
 223 0.500501; 
 224 0.900901; 
 226 0.500501; 
 239 2.302302; 
 240 1.501502; 
 241 0.200200; 
 267 3.303303; 
 268 100.000000; 
 269 12.412412; 
 270 1.101101; 
 283 74.274274; 
 283 0.200200; 
 284 10.810811; 
 285 0.900901; 
 799 0.100100; 
 896 0.100100; 
 939 0.100100; 
 951 0.100100; 
 952 0.100100; 
 968 0.100100; 
 975 0.200200; 
 1012 0.100100; 
 1014 0.100100; 
 1016 0.100100; 
 1016 0.100100; 
 1053 0.100100; 
 1093 0.100100; 
 1098 0.100100; 
 1104 0.100100; 
 1110 0.200200; 
 1112 0.200200; 
 1123 0.200200; 
 1128 0.200200; 
 1130 0.100100; 
 1135 0.200200; 
 1136 0.100100; 
 1137 0.100100; 
 1144 0.100100; 
 1151 0.100100; 
 1157 0.200200; 
 1179 0.200200; 
 1185 0.100100; 
 1190 0.100100; 
 1200 0.100100; 
 1201 0.100100; 
 1239 0.100100; 
 1243 0.100100; 
 1251 0.100100; 
 1257 0.200200; 
 1258 0.100100; 
 1260 0.200200; 
 1264 0.200200; 
 1269 0.100100; 
 1270 0.200200; 
 1272 0.100100; 
 1275 0.100100; 
 1278 0.100100; 
 1280 0.100100; 
 1283 0.100100; 
 1283 0.200200; 
 1286 0.200200; 
 1289 0.100100; 
 1303 0.100100; 
 1306 0.100100; 
 1315 0.100100; 
 1335 0.100100; 
 1348 0.200200; 
 1360 0.100100; 
 1364 0.100100; 
 1369 0.200200; 
 1372 0.200200; 
 1376 0.100100; 
 1380 0.100100; 
 1401 0.100100; 
 1401 0.100100; 
 1420 0.200200; 
 1436 0.100100; 
 1436 0.100100; 
 1438 0.200200; 
 1440 0.100100; 
 1440 0.200200; 
 1456 0.100100; 
 1463 0.100100; 
 1469 0.100100; 
 1497 0.100100; 


Name: Sissotrin
SYNON: $:00in-source
DB#: MetaboBASE0331
InChIKey: LFEUICHQZGNOHD-RECXWPGBSA-N
Precursor_type: [M+FA-H]-
Spectrum_type: MS2
PrecursorMZ: 491.1187
Instrument_type: LC-ESI-TOF
Instrument: impact HD
Ion_mode: N
Collision_energy: 10
InChIKey: LFEUICHQZGNOHD-RECXWPGBSA-N
Formula: C22H22O10
MW: 446
ExactMass: 446.12129690399996
Comments: "license=License CC-BY-NC-SA 4.0 International" "author=Plant Biology, The Noble Foundation, Ardmore, OK, US/Dennis Fine, Daniel Wherritt, and Lloyd Sumner" "instrument type=LC-ESI-TOF" "instrument=impact HD" "ionization=ESI" "ionization mode=negative" "ms level=MS2" "precursor m/z=491.1187" "isolation width=5" "collision gas=Nitrogen" "collision energy=10" "peak width=0.014" "date=2014-08-07 02:12:41+02:00" "column=Waters Acquity BEH C18 1.7um x 2.1 x 150 mm" "retention time=613.8" "raw data file=C:\Data\Confirmed standards 24_July_2014\MSMS\Sissotin vial 87 dil 50%MeOH_1-F,6_01_561.d" "precursor type=[M+FA-H]-" "mass accuracy=1.6246662975097879" "mass error=-7.979039999668203E-4" "cas number=5928-26-7" "SMILES=COc1ccc(cc1)c2coc3cc(cc(c3c2=O)O)O[C@H]4[C@@H]([C@H]([C@@H]([C@H](O4)CO)O)O)O" "InChI=InChI=1S/C22H22O10/c1-29-11-4-2-10(3-5-11)13-9-30-15-7-12(6-14(24)17(15)18(13)25)31-22-21(28)20(27)19(26)16(8-23)32-22/h2-7,9,16,19-24,26-28H,8H2,1H3/t16-,19-,20+,21-,22-/m1/s1" "InChIKey=LFEUICHQZGNOHD-RECXWPGBSA-N" "molecular formula=C22H22O10" "total exact mass=446.12129690399996" "SMILES=O=C1C=2C(O)=CC(OC3OC(C(O)C(O)C3O)CO)=CC2OC=C1C=4C=CC(OC)=CC4"
Num Peaks: 103
 207 0.100100; 
 268 0.700701; 
 283 100.000000; 
 283 0.200200; 
 284 11.011011; 
 285 0.700701; 
 325 1.401401; 
 326 0.200200; 
 349 0.100100; 
 367 0.300300; 
 445 38.938939; 
 445 0.200200; 
 446 7.107107; 
 447 0.700701; 
 491 33.533534; 
 492 7.507508; 
 493 0.600601; 
 752 0.100100; 
 766 0.100100; 
 828 0.100100; 
 882 0.100100; 
 941 0.100100; 
 951 0.100100; 
 1017 0.100100; 
 1031 0.100100; 
 1036 0.100100; 
 1043 0.100100; 
 1061 0.100100; 
 1068 0.100100; 
 1071 0.100100; 
 1086 0.100100; 
 1089 0.100100; 
 1094 0.100100; 
 1095 0.100100; 
 1110 0.100100; 
 1116 0.100100; 
 1124 0.100100; 
 1142 0.100100; 
 1152 0.100100; 
 1154 0.100100; 
 1159 0.100100; 
 1163 0.100100; 
 1170 0.100100; 
 1179 0.100100; 
 1200 0.100100; 
 1204 0.100100; 
 1212 0.100100; 
 1217 0.100100; 
 1225 0.100100; 
 1226 0.100100; 
 1233 0.100100; 
 1240 0.100100; 
 1240 0.100100; 
 1248 0.100100; 
 1251 0.100100; 
 1255 0.100100; 
 1258 0.100100; 
 1269 0.100100; 
 1272 0.100100; 
 1278 0.100100; 
 1286 0.100100; 
 1289 0.100100; 
 1301 0.100100; 
 1304 0.100100; 
 1304 0.100100; 
 1306 0.100100; 
 1309 0.100100; 
 1311 0.100100; 
 1311 0.100100; 
 1319 0.100100; 
 1331 0.100100; 
 1332 0.100100; 
 1352 0.100100; 
 1360 0.100100; 
 1364 0.100100; 
 1369 0.100100; 
 1371 0.100100; 
 1379 0.100100; 
 1395 0.100100; 
 1397 0.200200; 
 1399 0.100100; 
 1407 0.100100; 
 1409 0.100100; 
 1421 0.100100; 
 1421 0.100100; 
 1431 0.100100; 
 1443 0.100100; 
 1443 0.100100; 
 1445 0.100100; 
 1451 0.100100; 
 1455 0.100100; 
 1457 0.100100; 
 1464 0.100100; 
 1474 0.100100; 
 1477 0.100100; 
 1479 0.100100; 
 1480 0.100100; 
 1489 0.100100; 
 1490 0.100100; 
 1491 0.100100; 
 1497 0.100100; 
 1499 0.100100; 
 1503 0.100100; 


Name: Sissotrin
SYNON: $:00in-source
DB#: MetaboBASE0332
InChIKey: LFEUICHQZGNOHD-RECXWPGBSA-N
Precursor_type: [M+FA-H]-
Spectrum_type: MS2
PrecursorMZ: 491.12
Instrument_type: LC-ESI-TOF
Instrument: impact HD
Ion_mode: N
Collision_energy: 40
InChIKey: LFEUICHQZGNOHD-RECXWPGBSA-N
Formula: C22H22O10
MW: 446
ExactMass: 446.12129690399996
Comments: "license=License CC-BY-NC-SA 4.0 International" "author=Plant Biology, The Noble Foundation, Ardmore, OK, US/Dennis Fine, Daniel Wherritt, and Lloyd Sumner" "instrument type=LC-ESI-TOF" "instrument=impact HD" "ionization=ESI" "ionization mode=negative" "ms level=MS2" "precursor m/z=491.12" "isolation width=5" "collision gas=Nitrogen" "collision energy=40" "peak width=0.015" "date=2014-08-07 02:12:41+02:00" "column=Waters Acquity BEH C18 1.7um x 2.1 x 150 mm" "retention time=613.8" "raw data file=C:\Data\Confirmed standards 24_July_2014\MSMS\Sissotin vial 87 dil 50%MeOH_1-F,6_01_561.d" "precursor type=[M+FA-H]-" "mass accuracy=1.0223489168592472" "mass error=5.020960000479135E-4" "cas number=5928-26-7" "SMILES=COc1ccc(cc1)c2coc3cc(cc(c3c2=O)O)O[C@H]4[C@@H]([C@H]([C@@H]([C@H](O4)CO)O)O)O" "InChI=InChI=1S/C22H22O10/c1-29-11-4-2-10(3-5-11)13-9-30-15-7-12(6-14(24)17(15)18(13)25)31-22-21(28)20(27)19(26)16(8-23)32-22/h2-7,9,16,19-24,26-28H,8H2,1H3/t16-,19-,20+,21-,22-/m1/s1" "InChIKey=LFEUICHQZGNOHD-RECXWPGBSA-N" "molecular formula=C22H22O10" "total exact mass=446.12129690399996" "SMILES=O=C1C=2C(O)=CC(OC3OC(C(O)C(O)C3O)CO)=CC2OC=C1C=4C=CC(OC)=CC4"
Num Peaks: 110
 215 0.100100; 
 223 0.300300; 
 224 0.300300; 
 226 0.100100; 
 239 1.401401; 
 239 0.200200; 
 240 0.600601; 
 252 0.700701; 
 253 0.100100; 
 254 0.200200; 
 255 0.200200; 
 267 1.701702; 
 267 0.700701; 
 268 37.337337; 
 269 3.703704; 
 270 0.300300; 
 279 0.100100; 
 282 0.500501; 
 283 100.000000; 
 283 0.100100; 
 284 12.412412; 
 285 0.800801; 
 290 0.100100; 
 296 0.200200; 
 297 0.500501; 
 305 0.200200; 
 307 0.200200; 
 325 0.400400; 
 349 0.100100; 
 702 0.100100; 
 761 0.100100; 
 813 0.100100; 
 826 0.100100; 
 847 0.100100; 
 906 0.100100; 
 943 0.100100; 
 943 0.100100; 
 968 0.100100; 
 982 0.100100; 
 997 0.100100; 
 1006 0.100100; 
 1008 0.100100; 
 1028 0.100100; 
 1030 0.100100; 
 1032 0.100100; 
 1036 0.100100; 
 1061 0.100100; 
 1065 0.100100; 
 1074 0.100100; 
 1082 0.100100; 
 1091 0.100100; 
 1104 0.100100; 
 1128 0.100100; 
 1154 0.100100; 
 1160 0.100100; 
 1162 0.100100; 
 1164 0.100100; 
 1168 0.100100; 
 1171 0.100100; 
 1179 0.100100; 
 1182 0.100100; 
 1201 0.100100; 
 1201 0.100100; 
 1201 0.100100; 
 1209 0.100100; 
 1234 0.200200; 
 1237 0.100100; 
 1238 0.100100; 
 1240 0.100100; 
 1264 0.100100; 
 1277 0.100100; 
 1291 0.100100; 
 1299 0.100100; 
 1307 0.100100; 
 1308 0.100100; 
 1309 0.100100; 
 1317 0.100100; 
 1322 0.100100; 
 1324 0.100100; 
 1330 0.100100; 
 1336 0.100100; 
 1343 0.100100; 
 1351 0.100100; 
 1359 0.100100; 
 1365 0.100100; 
 1382 0.100100; 
 1391 0.100100; 
 1394 0.100100; 
 1400 0.100100; 
 1403 0.100100; 
 1411 0.100100; 
 1423 0.100100; 
 1432 0.100100; 
 1432 0.100100; 
 1433 0.100100; 
 1434 0.100100; 
 1437 0.100100; 
 1440 0.100100; 
 1443 0.100100; 
 1445 0.100100; 
 1448 0.100100; 
 1449 0.100100; 
 1460 0.100100; 
 1462 0.100100; 
 1462 0.100100; 
 1467 0.100100; 
 1470 0.100100; 
 1486 0.100100; 
 1500 0.100100; 
 1501 0.100100; 


Name: Puerarin
SYNON: $:00in-source
DB#: MetaboBASE0333
InChIKey: HKEAFJYKMMKDOR-VPRICQMDSA-N
Precursor_type: [M-H]-
Spectrum_type: MS2
PrecursorMZ: 415.1031
Instrument_type: LC-ESI-TOF
Instrument: impact HD
Ion_mode: N
Collision_energy: 10
InChIKey: HKEAFJYKMMKDOR-VPRICQMDSA-N
Formula: C21H20O9
MW: 416
ExactMass: 416.11073222
Comments: "license=License CC-BY-NC-SA 4.0 International" "author=Plant Biology, The Noble Foundation, Ardmore, OK, US/Dennis Fine, Daniel Wherritt, and Lloyd Sumner" "instrument type=LC-ESI-TOF" "instrument=impact HD" "ionization=ESI" "ionization mode=negative" "ms level=MS2" "precursor m/z=415.1031" "isolation width=5" "collision gas=Nitrogen" "collision energy=10" "peak width=0.0082" "date=2014-01-10 22:31:27+01:00" "column=Waters Acquity BEH C18 1.7um x 2.1 x 150 mm" "retention time=188.4" "raw data file=C:\Data\Confirmed Standards\14Jan10 Confirmed stds MSMS\Puerarin (vial 94).d" "precursor type=[M-H]-" "mass accuracy=0.8581482528429037" "mass error=-3.5622000001467313E-4" "SMILES=c1cc(ccc1c2coc3c(c2=O)ccc(c3[C@H]4[C@@H]([C@H]([C@@H]([C@H](O4)CO)O)O)O)O)O" "InChI=InChI=1S/C21H20O9/c22-7-14-17(26)18(27)19(28)21(30-14)15-13(24)6-5-11-16(25)12(8-29-20(11)15)9-1-3-10(23)4-2-9/h1-6,8,14,17-19,21-24,26-28H,7H2/t14-,17-,18+,19-,21+/m1/s1" "InChIKey=HKEAFJYKMMKDOR-VPRICQMDSA-N" "molecular formula=C21H20O9" "total exact mass=416.11073222" "SMILES=C1=CC(=CC=C1C2=COC3=C(C2=O)C=CC(=C3C4C(C(C(C(O4)CO)O)O)O)O)O"
Num Peaks: 2
 415 100.000000; 
 416 13.613614; 


Name: Puerarin
SYNON: $:00in-source
DB#: MetaboBASE0334
InChIKey: HKEAFJYKMMKDOR-VPRICQMDSA-N
Instrument_type: LC-ESI-TOF
Instrument: impact HD
Ion_mode: N
InChIKey: HKEAFJYKMMKDOR-VPRICQMDSA-N
Formula: C21H20O9
MW: 416
ExactMass: 416.11073222
Comments: "license=License CC-BY-NC-SA 4.0 International" "author=Plant Biology, The Noble Foundation, Ardmore, OK, US/Dennis Fine, Daniel Wherritt, and Lloyd Sumner" "instrument type=LC-ESI-TOF" "instrument=impact HD" "ionization=ESI" "ionization mode=negative" "collision gas=Nitrogen" "peak width=0.0082" "date=2014-01-10 22:31:27+01:00" "column=Waters Acquity BEH C18 1.7um x 2.1 x 150 mm" "retention time=188.4" "raw data file=C:\Data\Confirmed Standards\14Jan10 Confirmed stds MSMS\Puerarin (vial 94).d" "SMILES=c1cc(ccc1c2coc3c(c2=O)ccc(c3[C@H]4[C@@H]([C@H]([C@@H]([C@H](O4)CO)O)O)O)O)O" "InChI=InChI=1S/C21H20O9/c22-7-14-17(26)18(27)19(28)21(30-14)15-13(24)6-5-11-16(25)12(8-29-20(11)15)9-1-3-10(23)4-2-9/h1-6,8,14,17-19,21-24,26-28H,7H2/t14-,17-,18+,19-,21+/m1/s1" "InChIKey=HKEAFJYKMMKDOR-VPRICQMDSA-N" "molecular formula=C21H20O9" "total exact mass=416.11073222" "SMILES=C1=CC(=CC=C1C2=COC3=C(C2=O)C=CC(=C3C4C(C(C(C(O4)CO)O)O)O)O)O"
Num Peaks: 4
 415 100.000000; 
 416 16.316316; 
 831 9.309309; 
 832 4.004004; 


Name: Puerarin
SYNON: $:00in-source
DB#: MetaboBASE0335
InChIKey: HKEAFJYKMMKDOR-VPRICQMDSA-N
Precursor_type: [M-H]-
Spectrum_type: MS2
PrecursorMZ: 415.1022
Instrument_type: LC-ESI-TOF
Instrument: impact HD
Ion_mode: N
Collision_energy: 30
InChIKey: HKEAFJYKMMKDOR-VPRICQMDSA-N
Formula: C21H20O9
MW: 416
ExactMass: 416.11073222
Comments: "license=License CC-BY-NC-SA 4.0 International" "author=Plant Biology, The Noble Foundation, Ardmore, OK, US/Dennis Fine, Daniel Wherritt, and Lloyd Sumner" "instrument type=LC-ESI-TOF" "instrument=impact HD" "ionization=ESI" "ionization mode=negative" "ms level=MS2" "precursor m/z=415.1022" "isolation width=5" "collision gas=Nitrogen" "collision energy=30" "peak width=0.011" "date=2014-01-10 22:31:27+01:00" "column=Waters Acquity BEH C18 1.7um x 2.1 x 150 mm" "retention time=188.4" "raw data file=C:\Data\Confirmed Standards\14Jan10 Confirmed stds MSMS\Puerarin (vial 94).d" "precursor type=[M-H]-" "mass accuracy=3.0262908749125597" "mass error=-0.0012562200000161283" "SMILES=c1cc(ccc1c2coc3c(c2=O)ccc(c3[C@H]4[C@@H]([C@H]([C@@H]([C@H](O4)CO)O)O)O)O)O" "InChI=InChI=1S/C21H20O9/c22-7-14-17(26)18(27)19(28)21(30-14)15-13(24)6-5-11-16(25)12(8-29-20(11)15)9-1-3-10(23)4-2-9/h1-6,8,14,17-19,21-24,26-28H,7H2/t14-,17-,18+,19-,21+/m1/s1" "InChIKey=HKEAFJYKMMKDOR-VPRICQMDSA-N" "molecular formula=C21H20O9" "total exact mass=416.11073222" "SMILES=C1=CC(=CC=C1C2=COC3=C(C2=O)C=CC(=C3C4C(C(C(C(O4)CO)O)O)O)O)O"
Num Peaks: 8
 267 51.551552; 
 268 5.105105; 
 277 4.704705; 
 295 100.000000; 
 296 12.912913; 
 325 2.202202; 
 415 14.714715; 
 416 2.502503; 


Name: Puerarin
SYNON: $:00in-source
DB#: MetaboBASE0336
InChIKey: HKEAFJYKMMKDOR-VPRICQMDSA-N
Instrument_type: LC-ESI-TOF
Instrument: impact HD
Ion_mode: N
Collision_energy: 10
InChIKey: HKEAFJYKMMKDOR-VPRICQMDSA-N
Formula: C21H20O9
MW: 416
ExactMass: 416.11073222
Comments: "license=License CC-BY-NC-SA 4.0 International" "author=Plant Biology, The Noble Foundation, Ardmore, OK, US/Dennis Fine, Daniel Wherritt, and Lloyd Sumner" "instrument type=LC-ESI-TOF" "instrument=impact HD" "ionization=ESI" "ionization mode=negative" "collision gas=Nitrogen" "collision energy=10" "peak width=0.018" "date=2013-11-08 15:32:36+01:00" "column=Waters Acquity BEH C18 1.7um x 2.1 x 150 mm" "retention time=187.2" "raw data file=C:\Data\Confirmed Standards\Confirmed Stds 7Nov13\Puerarin (vial 94).d" "annotformula=415.1012;       C16H19N2O11" "annotformula=416.1041;       C28H16O4" "SMILES=c1cc(ccc1c2coc3c(c2=O)ccc(c3[C@H]4[C@@H]([C@H]([C@@H]([C@H](O4)CO)O)O)O)O)O" "InChI=InChI=1S/C21H20O9/c22-7-14-17(26)18(27)19(28)21(30-14)15-13(24)6-5-11-16(25)12(8-29-20(11)15)9-1-3-10(23)4-2-9/h1-6,8,14,17-19,21-24,26-28H,7H2/t14-,17-,18+,19-,21+/m1/s1" "InChIKey=HKEAFJYKMMKDOR-VPRICQMDSA-N" "molecular formula=C21H20O9" "total exact mass=416.11073222" "SMILES=C1=CC(=CC=C1C2=COC3=C(C2=O)C=CC(=C3C4C(C(C(C(O4)CO)O)O)O)O)O"
Num Peaks: 5
 415 100.000000; 
 416 18.018018; 
 417 3.103103; 
 831 1.801802; 
 853 1.501502; 


Name: Puerarin
SYNON: $:00in-source
DB#: MetaboBASE0337
InChIKey: HKEAFJYKMMKDOR-VPRICQMDSA-N
Spectrum_type: MS2
PrecursorMZ: 415
Instrument_type: LC-ESI-TOF
Instrument: impact HD
Ion_mode: N
Collision_energy: 40
InChIKey: HKEAFJYKMMKDOR-VPRICQMDSA-N
Formula: C21H20O9
MW: 416
ExactMass: 416.11073222
Comments: "license=License CC-BY-NC-SA 4.0 International" "author=Plant Biology, The Noble Foundation, Ardmore, OK, US/Dennis Fine, Daniel Wherritt, and Lloyd Sumner" "instrument type=LC-ESI-TOF" "instrument=impact HD" "ionization=ESI" "ionization mode=negative" "ms level=MS2" "precursor m/z=415" "isolation width=5" "collision gas=Nitrogen" "collision energy=40" "peak width=0.011" "date=2014-01-10 22:31:27+01:00" "column=Waters Acquity BEH C18 1.7um x 2.1 x 150 mm" "retention time=188.4" "raw data file=C:\Data\Confirmed Standards\14Jan10 Confirmed stds MSMS\Puerarin (vial 94).d" "SMILES=c1cc(ccc1c2coc3c(c2=O)ccc(c3[C@H]4[C@@H]([C@H]([C@@H]([C@H](O4)CO)O)O)O)O)O" "InChI=InChI=1S/C21H20O9/c22-7-14-17(26)18(27)19(28)21(30-14)15-13(24)6-5-11-16(25)12(8-29-20(11)15)9-1-3-10(23)4-2-9/h1-6,8,14,17-19,21-24,26-28H,7H2/t14-,17-,18+,19-,21+/m1/s1" "InChIKey=HKEAFJYKMMKDOR-VPRICQMDSA-N" "molecular formula=C21H20O9" "total exact mass=416.11073222" "SMILES=C1=CC(=CC=C1C2=COC3=C(C2=O)C=CC(=C3C4C(C(C(C(O4)CO)O)O)O)O)O"
Num Peaks: 6
 253 2.002002; 
 267 100.000000; 
 268 11.211211; 
 277 8.608609; 
 295 18.318318; 
 296 3.103103; 


Name: Puerarin
SYNON: $:00in-source
DB#: MetaboBASE0338
InChIKey: HKEAFJYKMMKDOR-VPRICQMDSA-N
Precursor_type: [M-H]-
Spectrum_type: MS2
PrecursorMZ: 415.1031
Instrument_type: LC-ESI-TOF
Instrument: impact HD
Ion_mode: N
Collision_energy: 20
InChIKey: HKEAFJYKMMKDOR-VPRICQMDSA-N
Formula: C21H20O9
MW: 416
ExactMass: 416.11073222
Comments: "license=License CC-BY-NC-SA 4.0 International" "author=Plant Biology, The Noble Foundation, Ardmore, OK, US/Dennis Fine, Daniel Wherritt, and Lloyd Sumner" "instrument type=LC-ESI-TOF" "instrument=impact HD" "ionization=ESI" "ionization mode=negative" "ms level=MS2" "precursor m/z=415.1031" "isolation width=5" "collision gas=Nitrogen" "collision energy=20" "peak width=0.0096" "date=2014-01-10 22:31:27+01:00" "column=Waters Acquity BEH C18 1.7um x 2.1 x 150 mm" "retention time=188.4" "raw data file=C:\Data\Confirmed Standards\14Jan10 Confirmed stds MSMS\Puerarin (vial 94).d" "precursor type=[M-H]-" "mass accuracy=0.8581482528429037" "mass error=-3.5622000001467313E-4" "SMILES=c1cc(ccc1c2coc3c(c2=O)ccc(c3[C@H]4[C@@H]([C@H]([C@@H]([C@H](O4)CO)O)O)O)O)O" "InChI=InChI=1S/C21H20O9/c22-7-14-17(26)18(27)19(28)21(30-14)15-13(24)6-5-11-16(25)12(8-29-20(11)15)9-1-3-10(23)4-2-9/h1-6,8,14,17-19,21-24,26-28H,7H2/t14-,17-,18+,19-,21+/m1/s1" "InChIKey=HKEAFJYKMMKDOR-VPRICQMDSA-N" "molecular formula=C21H20O9" "total exact mass=416.11073222" "SMILES=C1=CC(=CC=C1C2=COC3=C(C2=O)C=CC(=C3C4C(C(C(C(O4)CO)O)O)O)O)O"
Num Peaks: 5
 267 2.302302; 
 295 33.133133; 
 296 4.104104; 
 415 100.000000; 
 416 15.315315; 


Name: Morin
SYNON: $:00in-source
DB#: MetaboBASE0339
InChIKey: YXOLAZRVSSWPPT-UHFFFAOYSA-N
Spectrum_type: MS2
PrecursorMZ: 299.0208
Instrument_type: LC-ESI-TOF
Instrument: impact HD
Ion_mode: N
Collision_energy: 20
InChIKey: YXOLAZRVSSWPPT-UHFFFAOYSA-N
Formula: C15H10O7
MW: 302
ExactMass: 302.04265266
Comments: "license=License CC-BY-NC-SA 4.0 International" "author=Plant Biology, The Noble Foundation, Ardmore, OK, US/Dennis Fine, Daniel Wherritt, and Lloyd Sumner" "instrument type=LC-ESI-TOF" "instrument=impact HD" "ionization=ESI" "ionization mode=negative" "ms level=MS2" "precursor m/z=299.0208" "isolation width=5" "collision gas=Nitrogen" "collision energy=20" "peak width=0.02" "date=2013-11-09 10:55:56+01:00" "column=Waters Acquity BEH C18 1.7um x 2.1 x 150 mm" "retention time=414" "raw data file=C:\Data\Confirmed Standards\Confirmed Stds 7Nov13\Morin (vial 89) MSMS.d" "cas number=11128-85-1" "SMILES=c1cc(c(cc1O)O)c2c(c(=O)c3c(cc(cc3o2)O)O)O" "InChI=InChI=1S/C15H10O7/c16-6-1-2-8(9(18)3-6)15-14(21)13(20)12-10(19)4-7(17)5-11(12)22-15/h1-5,16-19,21H" "InChIKey=YXOLAZRVSSWPPT-UHFFFAOYSA-N" "molecular formula=C15H10O7" "total exact mass=302.04265266" "SMILES=C1=CC(=C(C=C1O)O)C2=C(C(=O)C3=C(C=C(C=C3O2)O)O)O"
Num Peaks: 18
 125 9.509510; 
 149 4.504505; 
 151 17.517518; 
 163 2.602603; 
 227 13.513514; 
 229 5.205205; 
 237 3.003003; 
 243 2.902903; 
 255 8.908909; 
 257 2.702703; 
 271 100.000000; 
 272 9.509510; 
 273 3.303303; 
 283 2.102102; 
 299 25.025025; 
 300 3.303303; 
 301 52.352352; 
 302 3.103103; 


Name: Morin
SYNON: $:00in-source
DB#: MetaboBASE0340
InChIKey: YXOLAZRVSSWPPT-UHFFFAOYSA-N
Spectrum_type: MS2
PrecursorMZ: 299
Instrument_type: LC-ESI-TOF
Instrument: impact HD
Ion_mode: N
Collision_energy: 40
InChIKey: YXOLAZRVSSWPPT-UHFFFAOYSA-N
Formula: C15H10O7
MW: 302
ExactMass: 302.04265266
Comments: "license=License CC-BY-NC-SA 4.0 International" "author=Plant Biology, The Noble Foundation, Ardmore, OK, US/Dennis Fine, Daniel Wherritt, and Lloyd Sumner" "instrument type=LC-ESI-TOF" "instrument=impact HD" "ionization=ESI" "ionization mode=negative" "ms level=MS2" "precursor m/z=299" "isolation width=5" "collision gas=Nitrogen" "collision energy=40" "peak width=0.021" "date=2013-11-09 10:55:56+01:00" "column=Waters Acquity BEH C18 1.7um x 2.1 x 150 mm" "retention time=414" "raw data file=C:\Data\Confirmed Standards\Confirmed Stds 7Nov13\Morin (vial 89) MSMS.d" "cas number=11128-85-1" "SMILES=c1cc(c(cc1O)O)c2c(c(=O)c3c(cc(cc3o2)O)O)O" "InChI=InChI=1S/C15H10O7/c16-6-1-2-8(9(18)3-6)15-14(21)13(20)12-10(19)4-7(17)5-11(12)22-15/h1-5,16-19,21H" "InChIKey=YXOLAZRVSSWPPT-UHFFFAOYSA-N" "molecular formula=C15H10O7" "total exact mass=302.04265266" "SMILES=C1=CC(=C(C=C1O)O)C2=C(C(=O)C3=C(C=C(C=C3O2)O)O)O"
Num Peaks: 52
 107 17.217217; 
 109 6.806807; 
 113 5.305305; 
 115 8.608609; 
 117 8.808809; 
 119 11.211211; 
 121 21.621622; 
 123 5.905906; 
 124 4.104104; 
 125 23.123123; 
 127 6.506507; 
 129 7.207207; 
 131 5.405405; 
 133 24.724725; 
 135 42.742743; 
 139 6.206206; 
 143 13.013013; 
 145 11.111111; 
 147 20.020020; 
 148 56.756757; 
 149 100.000000; 
 150 4.204204; 
 151 33.633634; 
 153 6.206206; 
 154 4.604605; 
 155 8.708709; 
 157 21.321321; 
 158 4.504505; 
 159 20.720721; 
 161 12.712713; 
 163 16.116116; 
 171 19.719720; 
 173 15.215215; 
 175 23.423423; 
 176 4.204204; 
 182 9.009009; 
 183 17.717718; 
 185 21.021021; 
 187 5.505506; 
 198 11.211211; 
 199 19.519520; 
 201 5.705706; 
 203 7.907908; 
 215 8.108108; 
 226 5.805806; 
 227 24.224224; 
 228 4.004004; 
 243 19.819820; 
 253 4.104104; 
 271 20.620621; 
 272 5.205205; 
 283 3.903904; 


Name: Morin
SYNON: $:00in-source
DB#: MetaboBASE0341
InChIKey: YXOLAZRVSSWPPT-UHFFFAOYSA-N
Instrument_type: LC-ESI-TOF
Instrument: impact HD
Ion_mode: N
Collision_energy: 10
InChIKey: YXOLAZRVSSWPPT-UHFFFAOYSA-N
Formula: C15H10O7
MW: 302
ExactMass: 302.04265266
Comments: "license=License CC-BY-NC-SA 4.0 International" "author=Plant Biology, The Noble Foundation, Ardmore, OK, US/Dennis Fine, Daniel Wherritt, and Lloyd Sumner" "instrument type=LC-ESI-TOF" "instrument=impact HD" "ionization=ESI" "ionization mode=negative" "collision gas=Nitrogen" "collision energy=10" "peak width=0.018" "date=2013-11-08 12:08:46+01:00" "column=Waters Acquity BEH C18 1.7um x 2.1 x 150 mm" "retention time=414" "raw data file=C:\Data\Confirmed Standards\Confirmed Stds 7Nov13\Morin (vial 89).d" "annotformula=163.0043;       C8H3O4" "annotformula=271.0251;       C14H7O6" "annotformula=299.0201;       C15H7O7" "annotformula=301.0356;       C15H9O7" "annotformula=317.0305;       C15H9O8" "cas number=11128-85-1" "SMILES=c1cc(c(cc1O)O)c2c(c(=O)c3c(cc(cc3o2)O)O)O" "InChI=InChI=1S/C15H10O7/c16-6-1-2-8(9(18)3-6)15-14(21)13(20)12-10(19)4-7(17)5-11(12)22-15/h1-5,16-19,21H" "InChIKey=YXOLAZRVSSWPPT-UHFFFAOYSA-N" "molecular formula=C15H10O7" "total exact mass=302.04265266" "SMILES=C1=CC(=C(C=C1O)O)C2=C(C(=O)C3=C(C=C(C=C3O2)O)O)O"
Num Peaks: 23
 151 2.302302; 
 153 3.003003; 
 163 12.112112; 
 190 2.302302; 
 206 8.308308; 
 207 1.401401; 
 229 1.001001; 
 255 1.601602; 
 271 12.512513; 
 272 1.401401; 
 273 2.802803; 
 289 1.301301; 
 299 63.163163; 
 300 8.208208; 
 301 100.000000; 
 302 13.713714; 
 303 1.501502; 
 317 29.429429; 
 318 3.703704; 
 345 3.903904; 
 617 1.201201; 
 625 3.003003; 
 635 2.502503; 


Name: Chrysoeriol
SYNON: $:00in-source
DB#: MetaboBASE0342
InChIKey: SCZVLDHREVKTSH-UHFFFAOYSA-N
Instrument_type: LC-ESI-TOF
Instrument: impact HD
Ion_mode: N
InChIKey: SCZVLDHREVKTSH-UHFFFAOYSA-N
Formula: C16H12O6
MW: 300
ExactMass: 300.06338810399996
Comments: "license=License CC-BY-NC-SA 4.0 International" "author=Plant Biology, The Noble Foundation, Ardmore, OK, US/Dennis Fine, Daniel Wherritt, and Lloyd Sumner" "instrument type=LC-ESI-TOF" "instrument=impact HD" "ionization=ESI" "ionization mode=negative" "collision gas=Nitrogen" "peak width=0.0092" "date=2013-11-19 03:38:56+01:00" "column=Waters Acquity BEH C18 1.7um x 2.1 x 150 mm" "retention time=624.6" "raw data file=C:\Data\Confirmed Standards\Confirmed stds MSMS 14Nov13\Chrysoeriol MSMS (vial 112).d" "cas number=491-71-4" "SMILES=COc1cc(ccc1O)c2cc(=O)c3c(cc(cc3o2)O)O" "InChI=InChI=1S/C16H12O6/c1-21-14-4-8(2-3-10(14)18)13-7-12(20)16-11(19)5-9(17)6-15(16)22-13/h2-7,17-19H,1H3" "InChIKey=SCZVLDHREVKTSH-UHFFFAOYSA-N" "molecular formula=C16H12O6" "total exact mass=300.06338810399996" "SMILES=COC1=C(C=CC(=C1)C2=CC(=O)C3=C(C=C(C=C3O2)O)O)O"
Num Peaks: 4
 299 100.000000; 
 300 14.014014; 
 599 14.514515; 
 600 4.204204; 


Name: Chrysoeriol
SYNON: $:00in-source
DB#: MetaboBASE0343
InChIKey: SCZVLDHREVKTSH-UHFFFAOYSA-N
Precursor_type: [M-H]-
Spectrum_type: MS2
PrecursorMZ: 299.0552
Instrument_type: LC-ESI-TOF
Instrument: impact HD
Ion_mode: N
Collision_energy: 20
InChIKey: SCZVLDHREVKTSH-UHFFFAOYSA-N
Formula: C16H12O6
MW: 300
ExactMass: 300.06338810399996
Comments: "license=License CC-BY-NC-SA 4.0 International" "author=Plant Biology, The Noble Foundation, Ardmore, OK, US/Dennis Fine, Daniel Wherritt, and Lloyd Sumner" "instrument type=LC-ESI-TOF" "instrument=impact HD" "ionization=ESI" "ionization mode=negative" "ms level=MS2" "precursor m/z=299.0552" "isolation width=5" "collision gas=Nitrogen" "collision energy=20" "peak width=0.011" "date=2013-11-19 03:38:56+01:00" "column=Waters Acquity BEH C18 1.7um x 2.1 x 150 mm" "retention time=624.6" "raw data file=C:\Data\Confirmed Standards\Confirmed stds MSMS 14Nov13\Chrysoeriol MSMS (vial 112).d" "precursor type=[M-H]-" "mass accuracy=3.049951981946281" "mass error=-9.121039999513414E-4" "cas number=491-71-4" "SMILES=COc1cc(ccc1O)c2cc(=O)c3c(cc(cc3o2)O)O" "InChI=InChI=1S/C16H12O6/c1-21-14-4-8(2-3-10(14)18)13-7-12(20)16-11(19)5-9(17)6-15(16)22-13/h2-7,17-19H,1H3" "InChIKey=SCZVLDHREVKTSH-UHFFFAOYSA-N" "molecular formula=C16H12O6" "total exact mass=300.06338810399996" "SMILES=COC1=C(C=CC(=C1)C2=CC(=O)C3=C(C=C(C=C3O2)O)O)O"
Num Peaks: 5
 256 2.202202; 
 284 100.000000; 
 285 10.510511; 
 299 58.658659; 
 300 6.206206; 


Name: Chrysoeriol
SYNON: $:00in-source
DB#: MetaboBASE0344
InChIKey: SCZVLDHREVKTSH-UHFFFAOYSA-N
Precursor_type: [M-H]-
Spectrum_type: MS2
PrecursorMZ: 299.1
Instrument_type: LC-ESI-TOF
Instrument: impact HD
Ion_mode: N
Collision_energy: 40
InChIKey: SCZVLDHREVKTSH-UHFFFAOYSA-N
Formula: C16H12O6
MW: 300
ExactMass: 300.06338810399996
Comments: "license=License CC-BY-NC-SA 4.0 International" "author=Plant Biology, The Noble Foundation, Ardmore, OK, US/Dennis Fine, Daniel Wherritt, and Lloyd Sumner" "instrument type=LC-ESI-TOF" "instrument=impact HD" "ionization=ESI" "ionization mode=negative" "ms level=MS2" "precursor m/z=299.1" "isolation width=5" "collision gas=Nitrogen" "collision energy=40" "peak width=0.016" "date=2013-11-19 03:38:56+01:00" "column=Waters Acquity BEH C18 1.7um x 2.1 x 150 mm" "retention time=624.6" "raw data file=C:\Data\Confirmed Standards\Confirmed stds MSMS 14Nov13\Chrysoeriol MSMS (vial 112).d" "precursor type=[M-H]-" "mass accuracy=146.7331862255364" "mass error=0.043887896000057935" "cas number=491-71-4" "SMILES=COc1cc(ccc1O)c2cc(=O)c3c(cc(cc3o2)O)O" "InChI=InChI=1S/C16H12O6/c1-21-14-4-8(2-3-10(14)18)13-7-12(20)16-11(19)5-9(17)6-15(16)22-13/h2-7,17-19H,1H3" "InChIKey=SCZVLDHREVKTSH-UHFFFAOYSA-N" "molecular formula=C16H12O6" "total exact mass=300.06338810399996" "SMILES=COC1=C(C=CC(=C1)C2=CC(=O)C3=C(C=C(C=C3O2)O)O)O"
Num Peaks: 22
 107 3.003003; 
 132 3.203203; 
 133 3.803804; 
 134 3.703704; 
 149 2.102102; 
 151 13.313313; 
 183 2.502503; 
 187 2.802803; 
 199 2.102102; 
 200 2.802803; 
 211 5.005005; 
 227 41.141141; 
 228 6.506507; 
 239 4.804805; 
 255 21.521522; 
 256 100.000000; 
 257 11.211211; 
 258 2.402402; 
 283 5.705706; 
 284 96.596597; 
 285 15.415415; 
 286 2.402402; 


Name: Chrysoeriol
SYNON: $:00in-source
DB#: MetaboBASE0345
InChIKey: SCZVLDHREVKTSH-UHFFFAOYSA-N
Precursor_type: [M-H]-
Spectrum_type: MS2
PrecursorMZ: 299.1
Instrument_type: LC-ESI-TOF
Instrument: impact HD
Ion_mode: N
Collision_energy: 50
InChIKey: SCZVLDHREVKTSH-UHFFFAOYSA-N
Formula: C16H12O6
MW: 300
ExactMass: 300.06338810399996
Comments: "license=License CC-BY-NC-SA 4.0 International" "author=Plant Biology, The Noble Foundation, Ardmore, OK, US/Dennis Fine, Daniel Wherritt, and Lloyd Sumner" "instrument type=LC-ESI-TOF" "instrument=impact HD" "ionization=ESI" "ionization mode=negative" "ms level=MS2" "precursor m/z=299.1" "isolation width=5" "collision gas=Nitrogen" "collision energy=50" "peak width=0.016" "date=2013-11-19 03:38:56+01:00" "column=Waters Acquity BEH C18 1.7um x 2.1 x 150 mm" "retention time=624.6" "raw data file=C:\Data\Confirmed Standards\Confirmed stds MSMS 14Nov13\Chrysoeriol MSMS (vial 112).d" "precursor type=[M-H]-" "mass accuracy=146.7331862255364" "mass error=0.043887896000057935" "cas number=491-71-4" "SMILES=COc1cc(ccc1O)c2cc(=O)c3c(cc(cc3o2)O)O" "InChI=InChI=1S/C16H12O6/c1-21-14-4-8(2-3-10(14)18)13-7-12(20)16-11(19)5-9(17)6-15(16)22-13/h2-7,17-19H,1H3" "InChIKey=SCZVLDHREVKTSH-UHFFFAOYSA-N" "molecular formula=C16H12O6" "total exact mass=300.06338810399996" "SMILES=COC1=C(C=CC(=C1)C2=CC(=O)C3=C(C=C(C=C3O2)O)O)O"
Num Peaks: 16
 107 16.216216; 
 124 11.311311; 
 132 9.909910; 
 133 31.131131; 
 134 7.507508; 
 151 32.532533; 
 155 7.307307; 
 183 16.416416; 
 199 11.911912; 
 211 13.213213; 
 227 100.000000; 
 228 10.110110; 
 239 7.907908; 
 255 35.735736; 
 256 35.435435; 
 284 18.218218; 


Name: Chrysoeriol
SYNON: $:00in-source
DB#: MetaboBASE0346
InChIKey: SCZVLDHREVKTSH-UHFFFAOYSA-N
Instrument_type: LC-ESI-TOF
Instrument: impact HD
Ion_mode: N
Collision_energy: 10
InChIKey: SCZVLDHREVKTSH-UHFFFAOYSA-N
Formula: C16H12O6
MW: 300
ExactMass: 300.06338810399996
Comments: "license=License CC-BY-NC-SA 4.0 International" "author=Plant Biology, The Noble Foundation, Ardmore, OK, US/Dennis Fine, Daniel Wherritt, and Lloyd Sumner" "instrument type=LC-ESI-TOF" "instrument=impact HD" "ionization=ESI" "ionization mode=negative" "collision gas=Nitrogen" "collision energy=10" "peak width=0.017" "date=2013-11-09 05:29:28+01:00" "column=Waters Acquity BEH C18 1.7um x 2.1 x 150 mm" "retention time=624.6" "raw data file=C:\Data\Confirmed Standards\Confirmed Stds 7Nov13\Chrysoeriol (vial 112).d" "annotformula=299.0567;       C16H11O6" "cas number=491-71-4" "SMILES=COc1cc(ccc1O)c2cc(=O)c3c(cc(cc3o2)O)O" "InChI=InChI=1S/C16H12O6/c1-21-14-4-8(2-3-10(14)18)13-7-12(20)16-11(19)5-9(17)6-15(16)22-13/h2-7,17-19H,1H3" "InChIKey=SCZVLDHREVKTSH-UHFFFAOYSA-N" "molecular formula=C16H12O6" "total exact mass=300.06338810399996" "SMILES=COC1=C(C=CC(=C1)C2=CC(=O)C3=C(C=C(C=C3O2)O)O)O"
Num Peaks: 7
 284 8.408408; 
 285 1.101101; 
 299 100.000000; 
 300 16.416416; 
 301 1.801802; 
 599 1.901902; 
 621 2.402402; 


Name: Demethyl medicarpin
SYNON: $:00in-source
DB#: MetaboBASE0347
InChIKey: ODMIEGVTNZNSLD-WFASDCNBSA-N
Precursor_type: [M-H]-
Spectrum_type: MS2
PrecursorMZ: 255.0656
Instrument_type: LC-ESI-TOF
Instrument: impact HD
Ion_mode: N
Collision_energy: 20
InChIKey: ODMIEGVTNZNSLD-WFASDCNBSA-N
Formula: C15H12O4
MW: 256
ExactMass: 256.073558864
Comments: "license=License CC-BY-NC-SA 4.0 International" "author=Plant Biology, The Noble Foundation, Ardmore, OK, US/Dennis Fine, Daniel Wherritt, and Lloyd Sumner" "instrument type=LC-ESI-TOF" "instrument=impact HD" "ionization=ESI" "ionization mode=negative" "ms level=MS2" "precursor m/z=255.0656" "isolation width=5" "collision gas=Nitrogen" "collision energy=20" "peak width=0.0089" "date=2014-01-10 23:53:00+01:00" "column=Waters Acquity BEH C18 1.7um x 2.1 x 150 mm" "retention time=493.8" "raw data file=C:\Data\Confirmed Standards\14Jan10 Confirmed stds MSMS\Demethyl medicarpin (vial 104).d" "precursor type=[M-H]-" "mass accuracy=2.677209314099918" "mass error=-6.828640000264841E-4" "cas number=61135-91-9" "SMILES=c1cc2c(cc1O)O[C@@H]3[C@H]2COc4c3ccc(c4)O" "InChI=InChI=1S/C15H12O4/c16-8-2-4-11-13(5-8)18-7-12-10-3-1-9(17)6-14(10)19-15(11)12/h1-6,12,15-17H,7H2/t12-,15-/m0/s1" "InChIKey=ODMIEGVTNZNSLD-WFASDCNBSA-N" "molecular formula=C15H12O4" "total exact mass=256.073558864" "SMILES=C1C2C(C3=C(O1)C=C(C=C3)O)OC4=C2C=CC(=C4)O" "InChI=InChI=1S/C15H12O4/c16-8-2-4-11-13(5-8)18-7-12-10-3-1-9(17)6-14(10)19-15(11)12/h1-6,12,15-17H,7H2" "InChIKey=ODMIEGVTNZNSLD-UHFFFAOYSA-N"
Num Peaks: 7
 140 54.154154; 
 212 26.126126; 
 213 32.132132; 
 237 23.223223; 
 240 46.346346; 
 242 21.721722; 
 255 100.000000; 


Name: Demethyl medicarpin
SYNON: $:00in-source
DB#: MetaboBASE0348
InChIKey: ODMIEGVTNZNSLD-WFASDCNBSA-N
Precursor_type: [M-H]-
Spectrum_type: MS2
PrecursorMZ: 255.0668
Instrument_type: LC-ESI-TOF
Instrument: impact HD
Ion_mode: N
Collision_energy: 10
InChIKey: ODMIEGVTNZNSLD-WFASDCNBSA-N
Formula: C15H12O4
MW: 256
ExactMass: 256.073558864
Comments: "license=License CC-BY-NC-SA 4.0 International" "author=Plant Biology, The Noble Foundation, Ardmore, OK, US/Dennis Fine, Daniel Wherritt, and Lloyd Sumner" "instrument type=LC-ESI-TOF" "instrument=impact HD" "ionization=ESI" "ionization mode=negative" "ms level=MS2" "precursor m/z=255.0668" "isolation width=5" "collision gas=Nitrogen" "collision energy=10" "peak width=0.015" "date=2014-01-10 23:53:00+01:00" "column=Waters Acquity BEH C18 1.7um x 2.1 x 150 mm" "retention time=493.8" "raw data file=C:\Data\Confirmed Standards\14Jan10 Confirmed stds MSMS\Demethyl medicarpin (vial 104).d" "precursor type=[M-H]-" "mass accuracy=2.027453200435847" "mass error=5.171359999849301E-4" "cas number=61135-91-9" "SMILES=c1cc2c(cc1O)O[C@@H]3[C@H]2COc4c3ccc(c4)O" "InChI=InChI=1S/C15H12O4/c16-8-2-4-11-13(5-8)18-7-12-10-3-1-9(17)6-14(10)19-15(11)12/h1-6,12,15-17H,7H2/t12-,15-/m0/s1" "InChIKey=ODMIEGVTNZNSLD-WFASDCNBSA-N" "molecular formula=C15H12O4" "total exact mass=256.073558864" "SMILES=C1C2C(C3=C(O1)C=C(C=C3)O)OC4=C2C=CC(=C4)O" "InChI=InChI=1S/C15H12O4/c16-8-2-4-11-13(5-8)18-7-12-10-3-1-9(17)6-14(10)19-15(11)12/h1-6,12,15-17H,7H2" "InChIKey=ODMIEGVTNZNSLD-UHFFFAOYSA-N"
Num Peaks: 2
 255 100.000000; 
 256 16.216216; 


Name: Demethyl medicarpin
SYNON: $:00in-source
DB#: MetaboBASE0349
InChIKey: ODMIEGVTNZNSLD-WFASDCNBSA-N
Instrument_type: LC-ESI-TOF
Instrument: impact HD
Ion_mode: N
InChIKey: ODMIEGVTNZNSLD-WFASDCNBSA-N
Formula: C15H12O4
MW: 256
ExactMass: 256.073558864
Comments: "license=License CC-BY-NC-SA 4.0 International" "author=Plant Biology, The Noble Foundation, Ardmore, OK, US/Dennis Fine, Daniel Wherritt, and Lloyd Sumner" "instrument type=LC-ESI-TOF" "instrument=impact HD" "ionization=ESI" "ionization mode=negative" "collision gas=Nitrogen" "peak width=0.015" "date=2014-01-10 23:53:00+01:00" "column=Waters Acquity BEH C18 1.7um x 2.1 x 150 mm" "retention time=493.8" "raw data file=C:\Data\Confirmed Standards\14Jan10 Confirmed stds MSMS\Demethyl medicarpin (vial 104).d" "cas number=61135-91-9" "SMILES=c1cc2c(cc1O)O[C@@H]3[C@H]2COc4c3ccc(c4)O" "InChI=InChI=1S/C15H12O4/c16-8-2-4-11-13(5-8)18-7-12-10-3-1-9(17)6-14(10)19-15(11)12/h1-6,12,15-17H,7H2/t12-,15-/m0/s1" "InChIKey=ODMIEGVTNZNSLD-WFASDCNBSA-N" "molecular formula=C15H12O4" "total exact mass=256.073558864" "SMILES=C1C2C(C3=C(O1)C=C(C=C3)O)OC4=C2C=CC(=C4)O" "InChI=InChI=1S/C15H12O4/c16-8-2-4-11-13(5-8)18-7-12-10-3-1-9(17)6-14(10)19-15(11)12/h1-6,12,15-17H,7H2" "InChIKey=ODMIEGVTNZNSLD-UHFFFAOYSA-N"
Num Peaks: 12
 112 33.733734; 
 116 10.210210; 
 128 7.107107; 
 174 5.905906; 
 240 8.208208; 
 252 6.506507; 
 253 21.221221; 
 254 10.810811; 
 255 100.000000; 
 256 20.820821; 
 301 10.510511; 
 511 6.706707; 


Name: Demethyl medicarpin
SYNON: $:00in-source
DB#: MetaboBASE0350
InChIKey: ODMIEGVTNZNSLD-WFASDCNBSA-N
Precursor_type: [M-H]-
Spectrum_type: MS2
PrecursorMZ: 255.0663
Instrument_type: LC-ESI-TOF
Instrument: impact HD
Ion_mode: N
Collision_energy: 6
InChIKey: ODMIEGVTNZNSLD-WFASDCNBSA-N
Formula: C15H12O4
MW: 256
ExactMass: 256.073558864
Comments: "license=License CC-BY-NC-SA 4.0 International" "author=Plant Biology, The Noble Foundation, Ardmore, OK, US/Dennis Fine, Daniel Wherritt, and Lloyd Sumner" "instrument type=LC-ESI-TOF" "instrument=impact HD" "ionization=ESI" "ionization mode=negative" "ms level=MS2" "precursor m/z=255.0663" "isolation width=5" "collision gas=Nitrogen" "collision energy=6" "peak width=0.012" "date=2014-01-10 23:53:00+01:00" "column=Waters Acquity BEH C18 1.7um x 2.1 x 150 mm" "retention time=493.8" "raw data file=C:\Data\Confirmed Standards\14Jan10 Confirmed stds MSMS\Demethyl medicarpin (vial 104).d" "precursor type=[M-H]-" "mass accuracy=0.06718253252881123" "mass error=1.7135999996753526E-5" "cas number=61135-91-9" "SMILES=c1cc2c(cc1O)O[C@@H]3[C@H]2COc4c3ccc(c4)O" "InChI=InChI=1S/C15H12O4/c16-8-2-4-11-13(5-8)18-7-12-10-3-1-9(17)6-14(10)19-15(11)12/h1-6,12,15-17H,7H2/t12-,15-/m0/s1" "InChIKey=ODMIEGVTNZNSLD-WFASDCNBSA-N" "molecular formula=C15H12O4" "total exact mass=256.073558864" "SMILES=C1C2C(C3=C(O1)C=C(C=C3)O)OC4=C2C=CC(=C4)O" "InChI=InChI=1S/C15H12O4/c16-8-2-4-11-13(5-8)18-7-12-10-3-1-9(17)6-14(10)19-15(11)12/h1-6,12,15-17H,7H2" "InChIKey=ODMIEGVTNZNSLD-UHFFFAOYSA-N"
Num Peaks: 2
 255 100.000000; 
 256 31.331331; 


Name: Demethyl medicarpin
SYNON: $:00in-source
DB#: MetaboBASE0351
InChIKey: ODMIEGVTNZNSLD-WFASDCNBSA-N
Instrument_type: LC-ESI-TOF
Instrument: impact HD
Ion_mode: N
Collision_energy: 10
InChIKey: ODMIEGVTNZNSLD-WFASDCNBSA-N
Formula: C15H12O4
MW: 256
ExactMass: 256.073558864
Comments: "license=License CC-BY-NC-SA 4.0 International" "author=Plant Biology, The Noble Foundation, Ardmore, OK, US/Dennis Fine, Daniel Wherritt, and Lloyd Sumner" "instrument type=LC-ESI-TOF" "instrument=impact HD" "ionization=ESI" "ionization mode=negative" "collision gas=Nitrogen" "collision energy=10" "peak width=0.016" "date=2013-11-09 00:03:14+01:00" "column=Waters Acquity BEH C18 1.7um x 2.1 x 150 mm" "retention time=493.2" "raw data file=C:\Data\Confirmed Standards\Confirmed Stds 7Nov13\Demethyl medicarpin (vial 104).d" "cas number=61135-91-9" "SMILES=c1cc2c(cc1O)O[C@@H]3[C@H]2COc4c3ccc(c4)O" "InChI=InChI=1S/C15H12O4/c16-8-2-4-11-13(5-8)18-7-12-10-3-1-9(17)6-14(10)19-15(11)12/h1-6,12,15-17H,7H2/t12-,15-/m0/s1" "InChIKey=ODMIEGVTNZNSLD-WFASDCNBSA-N" "molecular formula=C15H12O4" "total exact mass=256.073558864" "SMILES=C1C2C(C3=C(O1)C=C(C=C3)O)OC4=C2C=CC(=C4)O" "InChI=InChI=1S/C15H12O4/c16-8-2-4-11-13(5-8)18-7-12-10-3-1-9(17)6-14(10)19-15(11)12/h1-6,12,15-17H,7H2" "InChIKey=ODMIEGVTNZNSLD-UHFFFAOYSA-N"
Num Peaks: 6
 240 3.003003; 
 255 100.000000; 
 256 12.312312; 
 257 1.501502; 
 301 1.301301; 
 511 1.701702; 


Name: Fisetin
SYNON: $:00in-source
DB#: MetaboBASE0352
InChIKey: XHEFDIBZLJXQHF-UHFFFAOYSA-N
Precursor_type: [M-H]-
Spectrum_type: MS2
PrecursorMZ: 285.0353
Instrument_type: LC-ESI-TOF
Instrument: impact HD
Ion_mode: N
Collision_energy: 20
InChIKey: XHEFDIBZLJXQHF-UHFFFAOYSA-N
Formula: C15H10O6
MW: 286
ExactMass: 286.04773803999996
Comments: "license=License CC-BY-NC-SA 4.0 International" "author=Plant Biology, The Noble Foundation, Ardmore, OK, US/Dennis Fine, Daniel Wherritt, and Lloyd Sumner" "instrument type=LC-ESI-TOF" "instrument=impact HD" "ionization=ESI" "ionization mode=negative" "ms level=MS2" "precursor m/z=285.0353" "isolation width=5" "collision gas=Nitrogen" "collision energy=20" "peak width=0.017" "date=2013-11-19 04:19:49+01:00" "column=Waters Acquity BEH C18 1.7um x 2.1 x 150 mm" "retention time=381.6" "raw data file=C:\Data\Confirmed Standards\Confirmed stds MSMS 14Nov13\Fisetin MSMS (vial 113).d" "precursor type=[M-H]-" "mass accuracy=18.110177932204305" "mass error=-0.005162039999959234" "cas number=528-48-3" "SMILES=c1cc(c(cc1c2c(c(=O)c3ccc(cc3o2)O)O)O)O" "InChI=InChI=1S/C15H10O6/c16-8-2-3-9-12(6-8)21-15(14(20)13(9)19)7-1-4-10(17)11(18)5-7/h1-6,16-18,20H" "InChIKey=XHEFDIBZLJXQHF-UHFFFAOYSA-N" "molecular formula=C15H10O6" "total exact mass=286.04773803999996" "SMILES=C1=CC(=C(C=C1C2=C(C(=O)C3=C(O2)C=C(C=C3)O)O)O)O"
Num Peaks: 14
 121 15.915916; 
 135 21.621622; 
 149 3.103103; 
 163 12.712713; 
 227 4.704705; 
 229 8.308308; 
 241 6.706707; 
 255 100.000000; 
 256 14.714715; 
 257 8.808809; 
 283 11.411411; 
 284 4.204204; 
 285 55.755756; 
 286 7.607608; 


Name: Fisetin
SYNON: $:00in-source
DB#: MetaboBASE0353
InChIKey: XHEFDIBZLJXQHF-UHFFFAOYSA-N
Instrument_type: LC-ESI-TOF
Instrument: impact HD
Ion_mode: N
Collision_energy: 10
InChIKey: XHEFDIBZLJXQHF-UHFFFAOYSA-N
Formula: C15H10O6
MW: 286
ExactMass: 286.04773803999996
Comments: "license=License CC-BY-NC-SA 4.0 International" "author=Plant Biology, The Noble Foundation, Ardmore, OK, US/Dennis Fine, Daniel Wherritt, and Lloyd Sumner" "instrument type=LC-ESI-TOF" "instrument=impact HD" "ionization=ESI" "ionization mode=negative" "collision gas=Nitrogen" "collision energy=10" "peak width=0.019" "date=2013-11-09 06:10:16+01:00" "column=Waters Acquity BEH C18 1.7um x 2.1 x 150 mm" "retention time=381.6" "raw data file=C:\Data\Confirmed Standards\Confirmed Stds 7Nov13\Fisetin (vial 113).d" "annotformula=255.0300;       C14H7O5" "annotformula=283.0249;       C15H7O6" "annotformula=301.0351;       C15H9O7" "cas number=528-48-3" "SMILES=c1cc(c(cc1c2c(c(=O)c3ccc(cc3o2)O)O)O)O" "InChI=InChI=1S/C15H10O6/c16-8-2-3-9-12(6-8)21-15(14(20)13(9)19)7-1-4-10(17)11(18)5-7/h1-6,16-18,20H" "InChIKey=XHEFDIBZLJXQHF-UHFFFAOYSA-N" "molecular formula=C15H10O6" "total exact mass=286.04773803999996" "SMILES=C1=CC(=C(C=C1C2=C(C(=O)C3=C(O2)C=C(C=C3)O)O)O)O"
Num Peaks: 14
 135 2.402402; 
 163 2.302302; 
 190 1.401401; 
 255 23.823824; 
 256 2.902903; 
 257 1.401401; 
 283 100.000000; 
 284 13.413413; 
 285 35.935936; 
 286 4.604605; 
 301 11.511512; 
 302 1.501502; 
 569 1.301301; 
 589 1.201201; 


Name: Fisetin
SYNON: $:00in-source
DB#: MetaboBASE0354
InChIKey: XHEFDIBZLJXQHF-UHFFFAOYSA-N
Precursor_type: [M-H]-
Spectrum_type: MS2
PrecursorMZ: 285
Instrument_type: LC-ESI-TOF
Instrument: impact HD
Ion_mode: N
Collision_energy: 40
InChIKey: XHEFDIBZLJXQHF-UHFFFAOYSA-N
Formula: C15H10O6
MW: 286
ExactMass: 286.04773804
Comments: "license=License CC-BY-NC-SA 4.0 International" "author=Plant Biology, The Noble Foundation, Ardmore, OK, US/Dennis Fine, Daniel Wherritt, and Lloyd Sumner" "instrument type=LC-ESI-TOF" "instrument=impact HD" "ionization=ESI" "ionization mode=negative" "ms level=MS2" "precursor m/z=285" "isolation width=5" "collision gas=Nitrogen" "collision energy=40" "peak width=0.016" "date=2013-11-19 04:19:49+01:00" "column=Waters Acquity BEH C18 1.7um x 2.1 x 150 mm" "retention time=381.6" "raw data file=C:\Data\Confirmed Standards\Confirmed stds MSMS 14Nov13\Fisetin MSMS (vial 113).d" "precursor type=[M-H]-" "mass accuracy=141.97207017551798" "mass error=-0.040462040000022625" "cas number=528-48-3" "SMILES=c1cc(c(cc1c2c(c(=O)c3ccc(cc3o2)O)O)O)O" "InChI=InChI=1S/C15H10O6/c16-8-2-3-9-12(6-8)21-15(14(20)13(9)19)7-1-4-10(17)11(18)5-7/h1-6,16-18,20H" "InChIKey=XHEFDIBZLJXQHF-UHFFFAOYSA-N" "molecular formula=C15H10O6" "total exact mass=286.04773804" "SMILES=C1=CC(=C(C=C1C2=C(C(=O)C3=C(O2)C=C(C=C3)O)O)O)O"
Num Peaks: 9
 121 100.000000; 
 135 70.370370; 
 143 31.931932; 
 171 34.534535; 
 210 31.031031; 
 226 86.786787; 
 227 58.858859; 
 229 33.733734; 
 255 48.548549; 


Name: Formononetin
SYNON: $:00in-source
DB#: MetaboBASE0355
InChIKey: HKQYGTCOTHHOMP-UHFFFAOYSA-N
Precursor_type: [M-H]-
Spectrum_type: MS2
PrecursorMZ: 267.1
Instrument_type: LC-ESI-TOF
Instrument: impact HD
Ion_mode: N
Collision_energy: 50
InChIKey: HKQYGTCOTHHOMP-UHFFFAOYSA-N
Formula: C16H12O4
MW: 268
ExactMass: 268.073558864
Comments: "license=License CC-BY-NC-SA 4.0 International" "author=Plant Biology, The Noble Foundation, Ardmore, OK, US/Dennis Fine, Daniel Wherritt, and Lloyd Sumner" "instrument type=LC-ESI-TOF" "instrument=impact HD" "ionization=ESI" "ionization mode=negative" "ms level=MS2" "precursor m/z=267.1" "isolation width=5" "collision gas=Nitrogen" "collision energy=50" "peak width=0.018" "date=2013-11-19 02:17:07+01:00" "column=Waters Acquity BEH C18 1.7um x 2.1 x 150 mm" "retention time=720" "raw data file=C:\Data\Confirmed Standards\Confirmed stds MSMS 14Nov13\Formononetin MSMS (vial 108).d" "precursor type=[M-H]-" "mass accuracy=126.23412953952464" "mass error=0.03371713600000703" "cas number=485-72-3" "SMILES=COc1ccc(cc1)c2coc3cc(ccc3c2=O)O" "InChI=InChI=1S/C16H12O4/c1-19-12-5-2-10(3-6-12)14-9-20-15-8-11(17)4-7-13(15)16(14)18/h2-9,17H,1H3" "InChIKey=HKQYGTCOTHHOMP-UHFFFAOYSA-N" "molecular formula=C16H12O4" "total exact mass=268.073558864" "SMILES=COC1=CC=C(C=C1)C2=COC3=C(C2=O)C=CC(=C3)O"
Num Peaks: 11
 132 21.321321; 
 135 14.414414; 
 167 18.218218; 
 168 2.202202; 
 180 2.902903; 
 195 100.000000; 
 196 10.610611; 
 223 78.678679; 
 224 10.510511; 
 251 21.321321; 
 252 4.104104; 


Name: Formononetin
SYNON: $:00in-source
DB#: MetaboBASE0356
InChIKey: HKQYGTCOTHHOMP-UHFFFAOYSA-N
Precursor_type: [M-H]-
Spectrum_type: MS2
PrecursorMZ: 267.0664
Instrument_type: LC-ESI-TOF
Instrument: impact HD
Ion_mode: N
Collision_energy: 30
InChIKey: HKQYGTCOTHHOMP-UHFFFAOYSA-N
Formula: C16H12O4
MW: 268
ExactMass: 268.073558864
Comments: "license=License CC-BY-NC-SA 4.0 International" "author=Plant Biology, The Noble Foundation, Ardmore, OK, US/Dennis Fine, Daniel Wherritt, and Lloyd Sumner" "instrument type=LC-ESI-TOF" "instrument=impact HD" "ionization=ESI" "ionization mode=negative" "ms level=MS2" "precursor m/z=267.0664" "isolation width=5" "collision gas=Nitrogen" "collision energy=30" "peak width=0.011" "date=2013-11-19 02:17:07+01:00" "column=Waters Acquity BEH C18 1.7um x 2.1 x 150 mm" "retention time=720" "raw data file=C:\Data\Confirmed Standards\Confirmed stds MSMS 14Nov13\Formononetin MSMS (vial 108).d" "precursor type=[M-H]-" "mass accuracy=0.4386025346941864" "mass error=1.1713599997165147E-4" "cas number=485-72-3" "SMILES=COc1ccc(cc1)c2coc3cc(ccc3c2=O)O" "InChI=InChI=1S/C16H12O4/c1-19-12-5-2-10(3-6-12)14-9-20-15-8-11(17)4-7-13(15)16(14)18/h2-9,17H,1H3" "InChIKey=HKQYGTCOTHHOMP-UHFFFAOYSA-N" "molecular formula=C16H12O4" "total exact mass=268.073558864" "SMILES=COC1=CC=C(C=C1)C2=COC3=C(C2=O)C=CC(=C3)O"
Num Peaks: 9
 132 4.504505; 
 135 2.102102; 
 195 3.103103; 
 223 25.425425; 
 224 8.608609; 
 251 16.716717; 
 252 100.000000; 
 253 10.610611; 
 267 2.302302; 


Name: Formononetin
SYNON: $:00in-source
DB#: MetaboBASE0357
InChIKey: HKQYGTCOTHHOMP-UHFFFAOYSA-N
Precursor_type: [M-H]-
Spectrum_type: MS2
PrecursorMZ: 267.0671
Instrument_type: LC-ESI-TOF
Instrument: impact HD
Ion_mode: N
Collision_energy: 10
InChIKey: HKQYGTCOTHHOMP-UHFFFAOYSA-N
Formula: C16H12O4
MW: 268
ExactMass: 268.073558864
Comments: "license=License CC-BY-NC-SA 4.0 International" "author=Plant Biology, The Noble Foundation, Ardmore, OK, US/Dennis Fine, Daniel Wherritt, and Lloyd Sumner" "instrument type=LC-ESI-TOF" "instrument=impact HD" "ionization=ESI" "ionization mode=negative" "ms level=MS2" "precursor m/z=267.0671" "isolation width=5" "collision gas=Nitrogen" "collision energy=10" "peak width=0.012" "date=2013-11-19 02:17:07+01:00" "column=Waters Acquity BEH C18 1.7um x 2.1 x 150 mm" "retention time=720" "raw data file=C:\Data\Confirmed Standards\Confirmed stds MSMS 14Nov13\Formononetin MSMS (vial 108).d" "precursor type=[M-H]-" "mass accuracy=3.059665529623332" "mass error=8.171359999664674E-4" "cas number=485-72-3" "SMILES=COc1ccc(cc1)c2coc3cc(ccc3c2=O)O" "InChI=InChI=1S/C16H12O4/c1-19-12-5-2-10(3-6-12)14-9-20-15-8-11(17)4-7-13(15)16(14)18/h2-9,17H,1H3" "InChIKey=HKQYGTCOTHHOMP-UHFFFAOYSA-N" "molecular formula=C16H12O4" "total exact mass=268.073558864" "SMILES=COC1=CC=C(C=C1)C2=COC3=C(C2=O)C=CC(=C3)O"
Num Peaks: 3
 252 6.006006; 
 267 100.000000; 
 268 12.112112; 


Name: Formononetin
SYNON: $:00in-source
DB#: MetaboBASE0358
InChIKey: HKQYGTCOTHHOMP-UHFFFAOYSA-N
Precursor_type: [M-H]-
Spectrum_type: MS2
PrecursorMZ: 267.1
Instrument_type: LC-ESI-TOF
Instrument: impact HD
Ion_mode: N
Collision_energy: 40
InChIKey: HKQYGTCOTHHOMP-UHFFFAOYSA-N
Formula: C16H12O4
MW: 268
ExactMass: 268.073558864
Comments: "license=License CC-BY-NC-SA 4.0 International" "author=Plant Biology, The Noble Foundation, Ardmore, OK, US/Dennis Fine, Daniel Wherritt, and Lloyd Sumner" "instrument type=LC-ESI-TOF" "instrument=impact HD" "ionization=ESI" "ionization mode=negative" "ms level=MS2" "precursor m/z=267.1" "isolation width=5" "collision gas=Nitrogen" "collision energy=40" "peak width=0.015" "date=2013-11-19 02:17:07+01:00" "column=Waters Acquity BEH C18 1.7um x 2.1 x 150 mm" "retention time=720" "raw data file=C:\Data\Confirmed Standards\Confirmed stds MSMS 14Nov13\Formononetin MSMS (vial 108).d" "precursor type=[M-H]-" "mass accuracy=126.23412953952464" "mass error=0.03371713600000703" "cas number=485-72-3" "SMILES=COc1ccc(cc1)c2coc3cc(ccc3c2=O)O" "InChI=InChI=1S/C16H12O4/c1-19-12-5-2-10(3-6-12)14-9-20-15-8-11(17)4-7-13(15)16(14)18/h2-9,17H,1H3" "InChIKey=HKQYGTCOTHHOMP-UHFFFAOYSA-N" "molecular formula=C16H12O4" "total exact mass=268.073558864" "SMILES=COC1=CC=C(C=C1)C2=COC3=C(C2=O)C=CC(=C3)O"
Num Peaks: 11
 132 24.524525; 
 135 15.515516; 
 167 3.603604; 
 195 40.840841; 
 196 4.704705; 
 208 3.703704; 
 223 100.000000; 
 224 21.121121; 
 251 41.741742; 
 252 32.132132; 
 253 3.303303; 


Name: Formononetin
SYNON: $:00in-source
DB#: MetaboBASE0359
InChIKey: HKQYGTCOTHHOMP-UHFFFAOYSA-N
Precursor_type: [M-H]-
Spectrum_type: MS2
PrecursorMZ: 267.0667
Instrument_type: LC-ESI-TOF
Instrument: impact HD
Ion_mode: N
Collision_energy: 20
InChIKey: HKQYGTCOTHHOMP-UHFFFAOYSA-N
Formula: C16H12O4
MW: 268
ExactMass: 268.073558864
Comments: "license=License CC-BY-NC-SA 4.0 International" "author=Plant Biology, The Noble Foundation, Ardmore, OK, US/Dennis Fine, Daniel Wherritt, and Lloyd Sumner" "instrument type=LC-ESI-TOF" "instrument=impact HD" "ionization=ESI" "ionization mode=negative" "ms level=MS2" "precursor m/z=267.0667" "isolation width=5" "collision gas=Nitrogen" "collision energy=20" "peak width=0.0098" "date=2013-11-19 02:17:07+01:00" "column=Waters Acquity BEH C18 1.7um x 2.1 x 150 mm" "retention time=720" "raw data file=C:\Data\Confirmed Standards\Confirmed stds MSMS 14Nov13\Formononetin MSMS (vial 108).d" "precursor type=[M-H]-" "mass accuracy=1.5619169294038984" "mass error=4.1713600001003215E-4" "cas number=485-72-3" "SMILES=COc1ccc(cc1)c2coc3cc(ccc3c2=O)O" "InChI=InChI=1S/C16H12O4/c1-19-12-5-2-10(3-6-12)14-9-20-15-8-11(17)4-7-13(15)16(14)18/h2-9,17H,1H3" "InChIKey=HKQYGTCOTHHOMP-UHFFFAOYSA-N" "molecular formula=C16H12O4" "total exact mass=268.073558864" "SMILES=COC1=CC=C(C=C1)C2=COC3=C(C2=O)C=CC(=C3)O"
Num Peaks: 6
 223 2.602603; 
 251 2.302302; 
 252 100.000000; 
 253 10.910911; 
 267 56.756757; 
 268 5.405405; 


Name: Formononetin
SYNON: $:00in-source
DB#: MetaboBASE0360
InChIKey: HKQYGTCOTHHOMP-UHFFFAOYSA-N
Instrument_type: LC-ESI-TOF
Instrument: impact HD
Ion_mode: N
InChIKey: HKQYGTCOTHHOMP-UHFFFAOYSA-N
Formula: C16H12O4
MW: 268
ExactMass: 268.073558864
Comments: "license=License CC-BY-NC-SA 4.0 International" "author=Plant Biology, The Noble Foundation, Ardmore, OK, US/Dennis Fine, Daniel Wherritt, and Lloyd Sumner" "instrument type=LC-ESI-TOF" "instrument=impact HD" "ionization=ESI" "ionization mode=negative" "collision gas=Nitrogen" "peak width=0.017" "date=2013-11-19 02:17:07+01:00" "column=Waters Acquity BEH C18 1.7um x 2.1 x 150 mm" "retention time=720" "raw data file=C:\Data\Confirmed Standards\Confirmed stds MSMS 14Nov13\Formononetin MSMS (vial 108).d" "cas number=485-72-3" "SMILES=COc1ccc(cc1)c2coc3cc(ccc3c2=O)O" "InChI=InChI=1S/C16H12O4/c1-19-12-5-2-10(3-6-12)14-9-20-15-8-11(17)4-7-13(15)16(14)18/h2-9,17H,1H3" "InChIKey=HKQYGTCOTHHOMP-UHFFFAOYSA-N" "molecular formula=C16H12O4" "total exact mass=268.073558864" "SMILES=COC1=CC=C(C=C1)C2=COC3=C(C2=O)C=CC(=C3)O"
Num Peaks: 4
 267 100.000000; 
 268 29.129129; 
 269 2.502503; 
 535 3.903904; 


Name: Kaempferol
SYNON: $:00in-source
DB#: MetaboBASE0361
InChIKey: IYRMWMYZSQPJKC-UHFFFAOYSA-N
Precursor_type: [M-H]-
Spectrum_type: MS2
PrecursorMZ: 285.0415
Instrument_type: LC-ESI-TOF
Instrument: impact HD
Ion_mode: N
Collision_energy: 40
InChIKey: IYRMWMYZSQPJKC-UHFFFAOYSA-N
Formula: C15H10O6
MW: 286
ExactMass: 286.04773804
Comments: "license=License CC-BY-NC-SA 4.0 International" "author=Plant Biology, The Noble Foundation, Ardmore, OK, US/Dennis Fine, Daniel Wherritt, and Lloyd Sumner" "instrument type=LC-ESI-TOF" "instrument=impact HD" "ionization=ESI" "ionization mode=negative" "ms level=MS2" "precursor m/z=285.0415" "isolation width=5" "collision gas=Nitrogen" "collision energy=40" "peak width=0.016" "date=2013-11-19 02:58:02+01:00" "column=Waters Acquity BEH C18 1.7um x 2.1 x 150 mm" "retention time=588.6" "raw data file=C:\Data\Confirmed Standards\Confirmed stds MSMS 14Nov13\Kaempferol MSMS (vial 109).d" "precursor type=[M-H]-" "mass accuracy=3.6414346681531216" "mass error=0.0010379599999623679" "cas number=520-18-3" "SMILES=c1cc(ccc1c2c(c(=O)c3c(cc(cc3o2)O)O)O)O" "InChI=InChI=1S/C15H10O6/c16-8-3-1-7(2-4-8)15-14(20)13(19)12-10(18)5-9(17)6-11(12)21-15/h1-6,16-18,20H" "InChIKey=IYRMWMYZSQPJKC-UHFFFAOYSA-N" "molecular formula=C15H10O6" "total exact mass=286.04773804" "SMILES=C1=CC(=CC=C1C2=C(C(=O)C3=C(C=C(C=C3O2)O)O)O)O"
Num Peaks: 58
 107 9.609610; 
 108 18.118118; 
 109 18.118118; 
 115 10.010010; 
 117 74.874875; 
 118 8.608609; 
 121 10.110110; 
 123 7.207207; 
 130 15.715716; 
 131 24.224224; 
 133 16.616617; 
 135 21.721722; 
 136 9.609610; 
 137 13.413413; 
 143 33.033033; 
 145 37.337337; 
 151 15.015015; 
 151 15.015015; 
 154 12.812813; 
 155 14.814815; 
 156 21.121121; 
 157 31.431431; 
 158 14.214214; 
 159 42.042042; 
 161 32.732733; 
 163 15.515516; 
 164 11.711712; 
 167 12.712713; 
 169 7.807808; 
 171 29.629630; 
 173 9.909910; 
 183 16.716717; 
 184 17.017017; 
 185 37.537538; 
 187 37.137137; 
 195 7.807808; 
 196 9.409409; 
 199 12.812813; 
 201 9.309309; 
 210 8.108108; 
 211 28.828829; 
 213 8.108108; 
 214 9.709710; 
 215 8.508509; 
 219 7.707708; 
 227 60.160160; 
 228 12.612613; 
 229 37.837838; 
 239 55.155155; 
 240 16.616617; 
 243 12.412412; 
 255 37.337337; 
 256 12.312312; 
 257 7.307307; 
 267 19.619620; 
 268 10.710711; 
 285 100.000000; 
 286 18.018018; 


Name: Kaempferol
SYNON: $:00in-source
DB#: MetaboBASE0362
InChIKey: IYRMWMYZSQPJKC-UHFFFAOYSA-N
Instrument_type: LC-ESI-TOF
Instrument: impact HD
Ion_mode: N
InChIKey: IYRMWMYZSQPJKC-UHFFFAOYSA-N
Formula: C15H10O6
MW: 286
ExactMass: 286.04773804
Comments: "license=License CC-BY-NC-SA 4.0 International" "author=Plant Biology, The Noble Foundation, Ardmore, OK, US/Dennis Fine, Daniel Wherritt, and Lloyd Sumner" "instrument type=LC-ESI-TOF" "instrument=impact HD" "ionization=ESI" "ionization mode=negative" "collision gas=Nitrogen" "peak width=0.011" "date=2013-11-19 02:58:02+01:00" "column=Waters Acquity BEH C18 1.7um x 2.1 x 150 mm" "retention time=588.6" "raw data file=C:\Data\Confirmed Standards\Confirmed stds MSMS 14Nov13\Kaempferol MSMS (vial 109).d" "cas number=520-18-3" "SMILES=c1cc(ccc1c2c(c(=O)c3c(cc(cc3o2)O)O)O)O" "InChI=InChI=1S/C15H10O6/c16-8-3-1-7(2-4-8)15-14(20)13(19)12-10(18)5-9(17)6-11(12)21-15/h1-6,16-18,20H" "InChIKey=IYRMWMYZSQPJKC-UHFFFAOYSA-N" "molecular formula=C15H10O6" "total exact mass=286.04773804" "SMILES=C1=CC(=CC=C1C2=C(C(=O)C3=C(C=C(C=C3O2)O)O)O)O"
Num Peaks: 5
 285 100.000000; 
 286 15.015015; 
 301 14.214214; 
 571 7.907908; 
 572 2.102102; 


Name: Kaempferol
SYNON: $:00in-source
DB#: MetaboBASE0363
InChIKey: IYRMWMYZSQPJKC-UHFFFAOYSA-N
Precursor_type: [M-H]-
Spectrum_type: MS2
PrecursorMZ: 285
Instrument_type: LC-ESI-TOF
Instrument: impact HD
Ion_mode: N
Collision_energy: 50
InChIKey: IYRMWMYZSQPJKC-UHFFFAOYSA-N
Formula: C15H10O6
MW: 286
ExactMass: 286.04773804
Comments: "license=License CC-BY-NC-SA 4.0 International" "author=Plant Biology, The Noble Foundation, Ardmore, OK, US/Dennis Fine, Daniel Wherritt, and Lloyd Sumner" "instrument type=LC-ESI-TOF" "instrument=impact HD" "ionization=ESI" "ionization mode=negative" "ms level=MS2" "precursor m/z=285" "isolation width=5" "collision gas=Nitrogen" "collision energy=50" "peak width=0.017" "date=2013-11-19 02:58:02+01:00" "column=Waters Acquity BEH C18 1.7um x 2.1 x 150 mm" "retention time=588.6" "raw data file=C:\Data\Confirmed Standards\Confirmed stds MSMS 14Nov13\Kaempferol MSMS (vial 109).d" "precursor type=[M-H]-" "mass accuracy=141.97207017551798" "mass error=-0.040462040000022625" "cas number=520-18-3" "SMILES=c1cc(ccc1c2c(c(=O)c3c(cc(cc3o2)O)O)O)O" "InChI=InChI=1S/C15H10O6/c16-8-3-1-7(2-4-8)15-14(20)13(19)12-10(18)5-9(17)6-11(12)21-15/h1-6,16-18,20H" "InChIKey=IYRMWMYZSQPJKC-UHFFFAOYSA-N" "molecular formula=C15H10O6" "total exact mass=286.04773804" "SMILES=C1=CC(=CC=C1C2=C(C(=O)C3=C(C=C(C=C3O2)O)O)O)O"
Num Peaks: 30
 108 13.913914; 
 109 18.218218; 
 117 100.000000; 
 119 12.012012; 
 130 15.115115; 
 131 16.416416; 
 132 12.712713; 
 133 12.012012; 
 135 12.912913; 
 141 11.811812; 
 143 23.523524; 
 145 18.318318; 
 154 10.310310; 
 156 11.211211; 
 157 11.311311; 
 158 29.229229; 
 159 20.720721; 
 161 17.917918; 
 167 10.310310; 
 171 13.213213; 
 182 13.313313; 
 183 23.823824; 
 187 16.316316; 
 210 11.611612; 
 211 17.117117; 
 227 48.748749; 
 228 10.210210; 
 239 19.219219; 
 255 28.828829; 
 267 14.014014; 


Name: Kaempferol
SYNON: $:00in-source
DB#: MetaboBASE0364
InChIKey: IYRMWMYZSQPJKC-UHFFFAOYSA-N
Precursor_type: [M-H]-
Spectrum_type: MS2
PrecursorMZ: 285.0409
Instrument_type: LC-ESI-TOF
Instrument: impact HD
Ion_mode: N
Collision_energy: 20
InChIKey: IYRMWMYZSQPJKC-UHFFFAOYSA-N
Formula: C15H10O6
MW: 286
ExactMass: 286.04773804
Comments: "license=License CC-BY-NC-SA 4.0 International" "author=Plant Biology, The Noble Foundation, Ardmore, OK, US/Dennis Fine, Daniel Wherritt, and Lloyd Sumner" "instrument type=LC-ESI-TOF" "instrument=impact HD" "ionization=ESI" "ionization mode=negative" "ms level=MS2" "precursor m/z=285.0409" "isolation width=5" "collision gas=Nitrogen" "collision energy=20" "peak width=0.0091" "date=2013-11-19 02:58:02+01:00" "column=Waters Acquity BEH C18 1.7um x 2.1 x 150 mm" "retention time=588.6" "raw data file=C:\Data\Confirmed Standards\Confirmed stds MSMS 14Nov13\Kaempferol MSMS (vial 109).d" "precursor type=[M-H]-" "mass accuracy=1.536481255845366" "mass error=4.3795999999929336E-4" "cas number=520-18-3" "SMILES=c1cc(ccc1c2c(c(=O)c3c(cc(cc3o2)O)O)O)O" "InChI=InChI=1S/C15H10O6/c16-8-3-1-7(2-4-8)15-14(20)13(19)12-10(18)5-9(17)6-11(12)21-15/h1-6,16-18,20H" "InChIKey=IYRMWMYZSQPJKC-UHFFFAOYSA-N" "molecular formula=C15H10O6" "total exact mass=286.04773804" "SMILES=C1=CC(=CC=C1C2=C(C(=O)C3=C(C=C(C=C3O2)O)O)O)O"
Num Peaks: 2
 285 100.000000; 
 286 10.610611; 


Name: Liquiritigenin
SYNON: $:00in-source
DB#: MetaboBASE0365
InChIKey: FURUXTVZLHCCNA-AWEZNQCLSA-N
Precursor_type: [M-H]-
Spectrum_type: MS2
PrecursorMZ: 255.0685
Instrument_type: LC-ESI-TOF
Instrument: impact HD
Ion_mode: N
Collision_energy: 20
InChIKey: FURUXTVZLHCCNA-AWEZNQCLSA-N
Formula: C15H12O4
MW: 256
ExactMass: 256.073558864
Comments: "license=License CC-BY-NC-SA 4.0 International" "author=Plant Biology, The Noble Foundation, Ardmore, OK, US/Dennis Fine, Daniel Wherritt, and Lloyd Sumner" "instrument type=LC-ESI-TOF" "instrument=impact HD" "ionization=ESI" "ionization mode=negative" "ms level=MS2" "precursor m/z=255.0685" "isolation width=5" "collision gas=Nitrogen" "collision energy=20" "peak width=0.014" "date=2013-11-19 11:49:19+01:00" "column=Waters Acquity BEH C18 1.7um x 2.1 x 150 mm" "retention time=445.8" "raw data file=C:\Data\Confirmed Standards\Confirmed stds MSMS 14Nov13\Liquiritigenin (vial 101).d" "precursor type=[M-H]-" "mass accuracy=8.692315985645115" "mass error=0.002217135999984521" "cas number=578-86-9" "SMILES=c1cc(ccc1[C@@H]2CC(=O)c3ccc(cc3O2)O)O" "InChI=InChI=1S/C15H12O4/c16-10-3-1-9(2-4-10)14-8-13(18)12-6-5-11(17)7-15(12)19-14/h1-7,14,16-17H,8H2/t14-/m0/s1" "InChIKey=FURUXTVZLHCCNA-AWEZNQCLSA-N" "molecular formula=C15H12O4" "total exact mass=256.073558864" "SMILES=C1C(OC2=C(C1=O)C=CC(=C2)O)C3=CC=C(C=C3)O"
Num Peaks: 6
 119 100.000000; 
 120 5.705706; 
 135 55.855856; 
 136 2.702703; 
 153 4.204204; 
 255 5.005005; 


Name: Liquiritigenin
SYNON: $:00in-source
DB#: MetaboBASE0366
InChIKey: FURUXTVZLHCCNA-AWEZNQCLSA-N
Instrument_type: LC-ESI-TOF
Instrument: impact HD
Ion_mode: N
InChIKey: FURUXTVZLHCCNA-AWEZNQCLSA-N
Formula: C15H12O4
MW: 256
ExactMass: 256.073558864
Comments: "license=License CC-BY-NC-SA 4.0 International" "author=Plant Biology, The Noble Foundation, Ardmore, OK, US/Dennis Fine, Daniel Wherritt, and Lloyd Sumner" "instrument type=LC-ESI-TOF" "instrument=impact HD" "ionization=ESI" "ionization mode=negative" "collision gas=Nitrogen" "peak width=0.011" "date=2013-11-19 11:49:19+01:00" "column=Waters Acquity BEH C18 1.7um x 2.1 x 150 mm" "retention time=445.8" "raw data file=C:\Data\Confirmed Standards\Confirmed stds MSMS 14Nov13\Liquiritigenin (vial 101).d" "cas number=578-86-9" "SMILES=c1cc(ccc1[C@@H]2CC(=O)c3ccc(cc3O2)O)O" "InChI=InChI=1S/C15H12O4/c16-10-3-1-9(2-4-10)14-8-13(18)12-6-5-11(17)7-15(12)19-14/h1-7,14,16-17H,8H2/t14-/m0/s1" "InChIKey=FURUXTVZLHCCNA-AWEZNQCLSA-N" "molecular formula=C15H12O4" "total exact mass=256.073558864" "SMILES=C1C(OC2=C(C1=O)C=CC(=C2)O)C3=CC=C(C=C3)O"
Num Peaks: 4
 255 100.000000; 
 256 13.113113; 
 511 16.316316; 
 512 4.404404; 


Name: Naringenin-7-O-glucoside
SYNON: $:00in-source
DB#: MetaboBASE0367
InChIKey: DLIKSSGEMUFQOK-SFTVRKLSSA-N
Precursor_type: [M-H]-
Spectrum_type: MS2
PrecursorMZ: 433.1
Instrument_type: LC-ESI-TOF
Instrument: impact HD
Ion_mode: N
Collision_energy: 20
InChIKey: DLIKSSGEMUFQOK-SFTVRKLSSA-N
Formula: C21H22O10
MW: 434
ExactMass: 434.121296904
Comments: "license=License CC-BY-NC-SA 4.0 International" "author=Plant Biology, The Noble Foundation, Ardmore, OK, US/Dennis Fine, Daniel Wherritt, and Lloyd Sumner" "instrument type=LC-ESI-TOF" "instrument=impact HD" "ionization=ESI" "ionization mode=negative" "ms level=MS2" "precursor m/z=433.1" "isolation width=5" "collision gas=Nitrogen" "collision energy=20" "peak width=0.013" "date=2013-11-19 05:00:43+01:00" "column=Waters Acquity BEH C18 1.7um x 2.1 x 150 mm" "retention time=375" "raw data file=C:\Data\Confirmed Standards\Confirmed stds MSMS 14Nov13\Naringenin7glucoside MSMS v115.d" "precursor type=[M-H]-" "mass accuracy=32.373364119154665" "mass error=-0.014020904000005885" "cas number=529-55-5" "SMILES=c1cc(ccc1[C@@H]2CC(=O)c3c(cc(cc3O2)O[C@H]4[C@@H]([C@H]([C@@H]([C@H](O4)CO)O)O)O)O)O" "InChI=InChI=1S/C21H22O10/c22-8-16-18(26)19(27)20(28)21(31-16)29-11-5-12(24)17-13(25)7-14(30-15(17)6-11)9-1-3-10(23)4-2-9/h1-6,14,16,18-24,26-28H,7-8H2/t14-,16+,18+,19-,20+,21+/m0/s1" "InChIKey=DLIKSSGEMUFQOK-SFTVRKLSSA-N" "molecular formula=C21H22O10" "total exact mass=434.121296904" "SMILES=C1C(OC2=CC(=CC(=C2C1=O)O)OC3C(C(C(C(O3)CO)O)O)O)C4=CC=C(C=C4)O"
Num Peaks: 2
 271 100.000000; 
 272 9.309309; 


Name: Naringenin-7-O-glucoside
SYNON: $:00in-source
DB#: MetaboBASE0368
InChIKey: DLIKSSGEMUFQOK-SFTVRKLSSA-N
Instrument_type: LC-ESI-TOF
Instrument: impact HD
Ion_mode: N
InChIKey: DLIKSSGEMUFQOK-SFTVRKLSSA-N
Formula: C21H22O10
MW: 434
ExactMass: 434.121296904
Comments: "license=License CC-BY-NC-SA 4.0 International" "author=Plant Biology, The Noble Foundation, Ardmore, OK, US/Dennis Fine, Daniel Wherritt, and Lloyd Sumner" "instrument type=LC-ESI-TOF" "instrument=impact HD" "ionization=ESI" "ionization mode=negative" "collision gas=Nitrogen" "peak width=0.012" "date=2013-11-19 05:00:43+01:00" "column=Waters Acquity BEH C18 1.7um x 2.1 x 150 mm" "retention time=375" "raw data file=C:\Data\Confirmed Standards\Confirmed stds MSMS 14Nov13\Naringenin7glucoside MSMS v115.d" "cas number=529-55-5" "SMILES=c1cc(ccc1[C@@H]2CC(=O)c3c(cc(cc3O2)O[C@H]4[C@@H]([C@H]([C@@H]([C@H](O4)CO)O)O)O)O)O" "InChI=InChI=1S/C21H22O10/c22-8-16-18(26)19(27)20(28)21(31-16)29-11-5-12(24)17-13(25)7-14(30-15(17)6-11)9-1-3-10(23)4-2-9/h1-6,14,16,18-24,26-28H,7-8H2/t14-,16+,18+,19-,20+,21+/m0/s1" "InChIKey=DLIKSSGEMUFQOK-SFTVRKLSSA-N" "molecular formula=C21H22O10" "total exact mass=434.121296904" "SMILES=C1C(OC2=CC(=CC(=C2C1=O)O)OC3C(C(C(C(O3)CO)O)O)O)C4=CC=C(C=C4)O"
Num Peaks: 12
 271 5.405405; 
 433 100.000000; 
 434 16.716717; 
 435 2.402402; 
 479 4.904905; 
 867 31.231231; 
 867 3.403403; 
 868 12.612613; 
 869 2.902903; 
 1084 2.802803; 
 1084 3.003003; 
 1301 2.102102; 


Name: Naringenin-7-O-glucoside
SYNON: $:00in-source
DB#: MetaboBASE0369
InChIKey: DLIKSSGEMUFQOK-SFTVRKLSSA-N
Instrument_type: LC-ESI-TOF
Instrument: impact HD
Ion_mode: N
Collision_energy: 10
InChIKey: DLIKSSGEMUFQOK-SFTVRKLSSA-N
Formula: C21H22O10
MW: 434
ExactMass: 434.12129690399996
Comments: "license=License CC-BY-NC-SA 4.0 International" "author=Plant Biology, The Noble Foundation, Ardmore, OK, US/Dennis Fine, Daniel Wherritt, and Lloyd Sumner" "instrument type=LC-ESI-TOF" "instrument=impact HD" "ionization=ESI" "ionization mode=negative" "collision gas=Nitrogen" "collision energy=10" "peak width=0.015" "date=2013-11-09 07:31:46+01:00" "column=Waters Acquity BEH C18 1.7um x 2.1 x 150 mm" "retention time=375" "raw data file=C:\Data\Confirmed Standards\Confirmed Stds 7Nov13\Naringenin-7-O-glucoside.d" "annotformula=271.0614;       C15H11O5" "annotformula=433.1148;       C21H21O10" "cas number=529-55-5" "SMILES=c1cc(ccc1[C@@H]2CC(=O)c3c(cc(cc3O2)O[C@H]4[C@@H]([C@H]([C@@H]([C@H](O4)CO)O)O)O)O)O" "InChI=InChI=1S/C21H22O10/c22-8-16-18(26)19(27)20(28)21(31-16)29-11-5-12(24)17-13(25)7-14(30-15(17)6-11)9-1-3-10(23)4-2-9/h1-6,14,16,18-24,26-28H,7-8H2/t14-,16+,18+,19-,20+,21+/m0/s1" "InChIKey=DLIKSSGEMUFQOK-SFTVRKLSSA-N" "molecular formula=C21H22O10" "total exact mass=434.12129690399996" "SMILES=C1C(OC2=CC(=CC(=C2C1=O)O)OC3C(C(C(C(O3)CO)O)O)O)C4=CC=C(C=C4)O"
Num Peaks: 9
 271 100.000000; 
 272 12.812813; 
 273 1.301301; 
 433 72.772773; 
 434 13.513514; 
 435 2.102102; 
 501 2.602603; 
 867 7.607608; 
 868 3.103103; 


Name: Naringenin-7-O-glucoside
SYNON: $:00in-source
DB#: MetaboBASE0370
InChIKey: DLIKSSGEMUFQOK-SFTVRKLSSA-N
Precursor_type: [M-H]-
Spectrum_type: MS2
PrecursorMZ: 433.1
Instrument_type: LC-ESI-TOF
Instrument: impact HD
Ion_mode: N
Collision_energy: 40
InChIKey: DLIKSSGEMUFQOK-SFTVRKLSSA-N
Formula: C21H22O10
MW: 434
ExactMass: 434.121296904
Comments: "license=License CC-BY-NC-SA 4.0 International" "author=Plant Biology, The Noble Foundation, Ardmore, OK, US/Dennis Fine, Daniel Wherritt, and Lloyd Sumner" "instrument type=LC-ESI-TOF" "instrument=impact HD" "ionization=ESI" "ionization mode=negative" "ms level=MS2" "precursor m/z=433.1" "isolation width=5" "collision gas=Nitrogen" "collision energy=40" "peak width=0.017" "date=2013-11-19 05:00:43+01:00" "column=Waters Acquity BEH C18 1.7um x 2.1 x 150 mm" "retention time=375" "raw data file=C:\Data\Confirmed Standards\Confirmed stds MSMS 14Nov13\Naringenin7glucoside MSMS v115.d" "precursor type=[M-H]-" "mass accuracy=32.373364119154665" "mass error=-0.014020904000005885" "cas number=529-55-5" "SMILES=c1cc(ccc1[C@@H]2CC(=O)c3c(cc(cc3O2)O[C@H]4[C@@H]([C@H]([C@@H]([C@H](O4)CO)O)O)O)O)O" "InChI=InChI=1S/C21H22O10/c22-8-16-18(26)19(27)20(28)21(31-16)29-11-5-12(24)17-13(25)7-14(30-15(17)6-11)9-1-3-10(23)4-2-9/h1-6,14,16,18-24,26-28H,7-8H2/t14-,16+,18+,19-,20+,21+/m0/s1" "InChIKey=DLIKSSGEMUFQOK-SFTVRKLSSA-N" "molecular formula=C21H22O10" "total exact mass=434.121296904" "SMILES=C1C(OC2=CC(=CC(=C2C1=O)O)OC3C(C(C(C(O3)CO)O)O)O)C4=CC=C(C=C4)O"
Num Peaks: 5
 119 72.372372; 
 151 83.383383; 
 177 10.110110; 
 271 100.000000; 
 272 15.515516; 


Name: Orientin
SYNON: $:00in-source
DB#: MetaboBASE0371
InChIKey: PLAPMLGJVGLZOV-VPRICQMDSA-N
Instrument_type: LC-ESI-TOF
Instrument: impact HD
Ion_mode: N
Collision_energy: 10
InChIKey: PLAPMLGJVGLZOV-VPRICQMDSA-N
Formula: C21H20O11
MW: 448
ExactMass: 448.10056146
Comments: "license=License CC-BY-NC-SA 4.0 International" "author=Plant Biology, The Noble Foundation, Ardmore, OK, US/Dennis Fine, Daniel Wherritt, and Lloyd Sumner" "instrument type=LC-ESI-TOF" "instrument=impact HD" "ionization=ESI" "ionization mode=negative" "collision gas=Nitrogen" "collision energy=10" "peak width=0.018" "date=2013-11-09 02:05:34+01:00" "column=Waters Acquity BEH C18 1.7um x 2.1 x 150 mm" "retention time=254.4" "raw data file=C:\Data\Confirmed Standards\Confirmed Stds 7Nov13\Orientin (vial 107).d" "annotformula=445.0777;       C21H17O11" "annotformula=447.0931;       C21H19O11" "annotformula=893.1810;       C42H37O22" "annotformula=895.1959;       C35H43O27" "cas number=28608-75-5" "SMILES=c1cc(c(cc1c2cc(=O)c3c(cc(c(c3o2)[C@H]4[C@@H]([C@H]([C@@H]([C@H](O4)CO)O)O)O)O)O)O)O" "InChI=InChI=1S/C21H20O11/c22-6-14-17(28)18(29)19(30)21(32-14)16-11(26)4-10(25)15-12(27)5-13(31-20(15)16)7-1-2-8(23)9(24)3-7/h1-5,14,17-19,21-26,28-30H,6H2/t14-,17-,18+,19-,21+/m1/s1" "InChIKey=PLAPMLGJVGLZOV-VPRICQMDSA-N" "molecular formula=C21H20O11" "total exact mass=448.10056146" "SMILES=C1=CC(=C(C=C1C2=CC(=O)C3=C(O2)C(=C(C=C3O)O)C4C(C(C(C(O4)CO)O)O)O)O)O"
Num Peaks: 18
 327 2.202202; 
 445 84.884885; 
 446 16.116116; 
 447 100.000000; 
 448 18.618619; 
 449 3.103103; 
 463 4.804805; 
 464 1.001001; 
 893 23.023023; 
 894 9.909910; 
 895 40.840841; 
 896 16.416416; 
 897 4.204204; 
 915 1.701702; 
 917 1.501502; 
 1341 1.501502; 
 1343 2.402402; 
 1344 1.401401; 


Name: Orientin
SYNON: $:00in-source
DB#: MetaboBASE0372
InChIKey: PLAPMLGJVGLZOV-VPRICQMDSA-N
Spectrum_type: MS2
PrecursorMZ: 445.0799
Instrument_type: LC-ESI-TOF
Instrument: impact HD
Ion_mode: N
Collision_energy: 10
InChIKey: PLAPMLGJVGLZOV-VPRICQMDSA-N
Formula: C21H20O11
MW: 448
ExactMass: 448.10056146
Comments: "license=License CC-BY-NC-SA 4.0 International" "author=Plant Biology, The Noble Foundation, Ardmore, OK, US/Dennis Fine, Daniel Wherritt, and Lloyd Sumner" "instrument type=LC-ESI-TOF" "instrument=impact HD" "ionization=ESI" "ionization mode=negative" "ms level=MS2" "precursor m/z=445.0799" "isolation width=5" "collision gas=Nitrogen" "collision energy=10" "peak width=0.014" "date=2014-01-11 00:33:47+01:00" "column=Waters Acquity BEH C18 1.7um x 2.1 x 150 mm" "retention time=255.6" "raw data file=C:\Data\Confirmed Standards\14Jan10 Confirmed stds MSMS\Orientin (vial 107).d" "cas number=28608-75-5" "SMILES=c1cc(c(cc1c2cc(=O)c3c(cc(c(c3o2)[C@H]4[C@@H]([C@H]([C@@H]([C@H](O4)CO)O)O)O)O)O)O)O" "InChI=InChI=1S/C21H20O11/c22-6-14-17(28)18(29)19(30)21(32-14)16-11(26)4-10(25)15-12(27)5-13(31-20(15)16)7-1-2-8(23)9(24)3-7/h1-5,14,17-19,21-26,28-30H,6H2/t14-,17-,18+,19-,21+/m1/s1" "InChIKey=PLAPMLGJVGLZOV-VPRICQMDSA-N" "molecular formula=C21H20O11" "total exact mass=448.10056146" "SMILES=C1=CC(=C(C=C1C2=CC(=O)C3=C(O2)C(=C(C=C3O)O)C4C(C(C(C(O4)CO)O)O)O)O)O"
Num Peaks: 4
 445 100.000000; 
 446 25.125125; 
 447 60.260260; 
 448 13.713714; 


Name: Orientin
SYNON: $:00in-source
DB#: MetaboBASE0373
InChIKey: PLAPMLGJVGLZOV-VPRICQMDSA-N
Spectrum_type: MS2
PrecursorMZ: 445.0793
Instrument_type: LC-ESI-TOF
Instrument: impact HD
Ion_mode: N
Collision_energy: 20
InChIKey: PLAPMLGJVGLZOV-VPRICQMDSA-N
Formula: C21H20O11
MW: 448
ExactMass: 448.10056146
Comments: "license=License CC-BY-NC-SA 4.0 International" "author=Plant Biology, The Noble Foundation, Ardmore, OK, US/Dennis Fine, Daniel Wherritt, and Lloyd Sumner" "instrument type=LC-ESI-TOF" "instrument=impact HD" "ionization=ESI" "ionization mode=negative" "ms level=MS2" "precursor m/z=445.0793" "isolation width=5" "collision gas=Nitrogen" "collision energy=20" "peak width=0.015" "date=2014-01-11 00:33:47+01:00" "column=Waters Acquity BEH C18 1.7um x 2.1 x 150 mm" "retention time=255.6" "raw data file=C:\Data\Confirmed Standards\14Jan10 Confirmed stds MSMS\Orientin (vial 107).d" "cas number=28608-75-5" "SMILES=c1cc(c(cc1c2cc(=O)c3c(cc(c(c3o2)[C@H]4[C@@H]([C@H]([C@@H]([C@H](O4)CO)O)O)O)O)O)O)O" "InChI=InChI=1S/C21H20O11/c22-6-14-17(28)18(29)19(30)21(32-14)16-11(26)4-10(25)15-12(27)5-13(31-20(15)16)7-1-2-8(23)9(24)3-7/h1-5,14,17-19,21-26,28-30H,6H2/t14-,17-,18+,19-,21+/m1/s1" "InChIKey=PLAPMLGJVGLZOV-VPRICQMDSA-N" "molecular formula=C21H20O11" "total exact mass=448.10056146" "SMILES=C1=CC(=C(C=C1C2=CC(=O)C3=C(O2)C(=C(C=C3O)O)C4C(C(C(C(O4)CO)O)O)O)O)O"
Num Peaks: 12
 297 19.719720; 
 298 5.305305; 
 325 17.717718; 
 327 47.947948; 
 328 8.208208; 
 357 20.320320; 
 369 5.205205; 
 417 14.514515; 
 445 100.000000; 
 446 31.531532; 
 447 36.236236; 
 448 5.905906; 


Name: Orientin
SYNON: $:00in-source
DB#: MetaboBASE0374
InChIKey: PLAPMLGJVGLZOV-VPRICQMDSA-N
Spectrum_type: MS2
PrecursorMZ: 445.078
Instrument_type: LC-ESI-TOF
Instrument: impact HD
Ion_mode: N
Collision_energy: 30
InChIKey: PLAPMLGJVGLZOV-VPRICQMDSA-N
Formula: C21H20O11
MW: 448
ExactMass: 448.10056146
Comments: "license=License CC-BY-NC-SA 4.0 International" "author=Plant Biology, The Noble Foundation, Ardmore, OK, US/Dennis Fine, Daniel Wherritt, and Lloyd Sumner" "instrument type=LC-ESI-TOF" "instrument=impact HD" "ionization=ESI" "ionization mode=negative" "ms level=MS2" "precursor m/z=445.078" "isolation width=5" "collision gas=Nitrogen" "collision energy=30" "peak width=0.016" "date=2014-01-11 00:33:47+01:00" "column=Waters Acquity BEH C18 1.7um x 2.1 x 150 mm" "retention time=255.6" "raw data file=C:\Data\Confirmed Standards\14Jan10 Confirmed stds MSMS\Orientin (vial 107).d" "cas number=28608-75-5" "SMILES=c1cc(c(cc1c2cc(=O)c3c(cc(c(c3o2)[C@H]4[C@@H]([C@H]([C@@H]([C@H](O4)CO)O)O)O)O)O)O)O" "InChI=InChI=1S/C21H20O11/c22-6-14-17(28)18(29)19(30)21(32-14)16-11(26)4-10(25)15-12(27)5-13(31-20(15)16)7-1-2-8(23)9(24)3-7/h1-5,14,17-19,21-26,28-30H,6H2/t14-,17-,18+,19-,21+/m1/s1" "InChIKey=PLAPMLGJVGLZOV-VPRICQMDSA-N" "molecular formula=C21H20O11" "total exact mass=448.10056146" "SMILES=C1=CC(=C(C=C1C2=CC(=O)C3=C(O2)C(=C(C=C3O)O)C4C(C(C(C(O4)CO)O)O)O)O)O"
Num Peaks: 14
 269 15.015015; 
 297 98.198198; 
 298 23.023023; 
 299 17.717718; 
 313 9.409409; 
 325 40.940941; 
 326 13.513514; 
 327 100.000000; 
 328 13.313313; 
 357 24.324324; 
 417 26.826827; 
 418 11.811812; 
 445 22.122122; 
 446 8.208208; 


Name: Orientin
SYNON: $:00in-source
DB#: MetaboBASE0375
InChIKey: PLAPMLGJVGLZOV-VPRICQMDSA-N
Spectrum_type: MS2
PrecursorMZ: 447.2
Instrument_type: LC-ESI-TOF
Instrument: impact HD
Ion_mode: N
Collision_energy: 40
InChIKey: PLAPMLGJVGLZOV-VPRICQMDSA-N
Formula: C21H20O11
MW: 448
ExactMass: 448.10056146
Comments: "license=License CC-BY-NC-SA 4.0 International" "author=Plant Biology, The Noble Foundation, Ardmore, OK, US/Dennis Fine, Daniel Wherritt, and Lloyd Sumner" "instrument type=LC-ESI-TOF" "instrument=impact HD" "ionization=ESI" "ionization mode=negative" "ms level=MS2" "precursor m/z=447.2" "isolation width=5" "collision gas=Nitrogen" "collision energy=40" "peak width=0.014" "date=2014-01-11 00:33:47+01:00" "column=Waters Acquity BEH C18 1.7um x 2.1 x 150 mm" "retention time=255.6" "raw data file=C:\Data\Confirmed Standards\14Jan10 Confirmed stds MSMS\Orientin (vial 107).d" "cas number=28608-75-5" "SMILES=c1cc(c(cc1c2cc(=O)c3c(cc(c(c3o2)[C@H]4[C@@H]([C@H]([C@@H]([C@H](O4)CO)O)O)O)O)O)O)O" "InChI=InChI=1S/C21H20O11/c22-6-14-17(28)18(29)19(30)21(32-14)16-11(26)4-10(25)15-12(27)5-13(31-20(15)16)7-1-2-8(23)9(24)3-7/h1-5,14,17-19,21-26,28-30H,6H2/t14-,17-,18+,19-,21+/m1/s1" "InChIKey=PLAPMLGJVGLZOV-VPRICQMDSA-N" "molecular formula=C21H20O11" "total exact mass=448.10056146" "SMILES=C1=CC(=C(C=C1C2=CC(=O)C3=C(O2)C(=C(C=C3O)O)C4C(C(C(C(O4)CO)O)O)O)O)O"
Num Peaks: 19
 161 8.908909; 
 225 6.906907; 
 241 7.707708; 
 253 9.309309; 
 255 9.009009; 
 269 43.943944; 
 270 13.713714; 
 284 16.316316; 
 285 12.412412; 
 297 100.000000; 
 298 27.427427; 
 299 18.818819; 
 311 7.407407; 
 313 10.010010; 
 325 10.010010; 
 327 54.454454; 
 328 7.507508; 
 357 12.012012; 
 417 7.407407; 


Name: Orientin
SYNON: $:00in-source
DB#: MetaboBASE0376
InChIKey: PLAPMLGJVGLZOV-VPRICQMDSA-N
Spectrum_type: MS2
PrecursorMZ: 447.2
Instrument_type: LC-ESI-TOF
Instrument: impact HD
Ion_mode: N
Collision_energy: 50
InChIKey: PLAPMLGJVGLZOV-VPRICQMDSA-N
Formula: C21H20O11
MW: 448
ExactMass: 448.10056146
Comments: "license=License CC-BY-NC-SA 4.0 International" "author=Plant Biology, The Noble Foundation, Ardmore, OK, US/Dennis Fine, Daniel Wherritt, and Lloyd Sumner" "instrument type=LC-ESI-TOF" "instrument=impact HD" "ionization=ESI" "ionization mode=negative" "ms level=MS2" "precursor m/z=447.2" "isolation width=5" "collision gas=Nitrogen" "collision energy=50" "peak width=0.015" "date=2014-01-11 00:33:47+01:00" "column=Waters Acquity BEH C18 1.7um x 2.1 x 150 mm" "retention time=255.6" "raw data file=C:\Data\Confirmed Standards\14Jan10 Confirmed stds MSMS\Orientin (vial 107).d" "cas number=28608-75-5" "SMILES=c1cc(c(cc1c2cc(=O)c3c(cc(c(c3o2)[C@H]4[C@@H]([C@H]([C@@H]([C@H](O4)CO)O)O)O)O)O)O)O" "InChI=InChI=1S/C21H20O11/c22-6-14-17(28)18(29)19(30)21(32-14)16-11(26)4-10(25)15-12(27)5-13(31-20(15)16)7-1-2-8(23)9(24)3-7/h1-5,14,17-19,21-26,28-30H,6H2/t14-,17-,18+,19-,21+/m1/s1" "InChIKey=PLAPMLGJVGLZOV-VPRICQMDSA-N" "molecular formula=C21H20O11" "total exact mass=448.10056146" "SMILES=C1=CC(=C(C=C1C2=CC(=O)C3=C(O2)C(=C(C=C3O)O)C4C(C(C(C(O4)CO)O)O)O)O)O"
Num Peaks: 12
 133 20.320320; 
 225 23.223223; 
 227 18.918919; 
 268 17.117117; 
 269 100.000000; 
 270 41.141141; 
 284 24.024024; 
 285 27.227227; 
 297 52.352352; 
 298 46.746747; 
 299 41.141141; 
 327 23.223223; 


Name: Orientin
SYNON: $:00in-source
DB#: MetaboBASE0377
InChIKey: PLAPMLGJVGLZOV-VPRICQMDSA-N
Instrument_type: LC-ESI-TOF
Instrument: impact HD
Ion_mode: N
InChIKey: PLAPMLGJVGLZOV-VPRICQMDSA-N
Formula: C21H20O11
MW: 448
ExactMass: 448.10056146
Comments: "license=License CC-BY-NC-SA 4.0 International" "author=Plant Biology, The Noble Foundation, Ardmore, OK, US/Dennis Fine, Daniel Wherritt, and Lloyd Sumner" "instrument type=LC-ESI-TOF" "instrument=impact HD" "ionization=ESI" "ionization mode=negative" "collision gas=Nitrogen" "peak width=0.014" "date=2014-01-11 00:33:47+01:00" "column=Waters Acquity BEH C18 1.7um x 2.1 x 150 mm" "retention time=255.6" "raw data file=C:\Data\Confirmed Standards\14Jan10 Confirmed stds MSMS\Orientin (vial 107).d" "cas number=28608-75-5" "SMILES=c1cc(c(cc1c2cc(=O)c3c(cc(c(c3o2)[C@H]4[C@@H]([C@H]([C@@H]([C@H](O4)CO)O)O)O)O)O)O)O" "InChI=InChI=1S/C21H20O11/c22-6-14-17(28)18(29)19(30)21(32-14)16-11(26)4-10(25)15-12(27)5-13(31-20(15)16)7-1-2-8(23)9(24)3-7/h1-5,14,17-19,21-26,28-30H,6H2/t14-,17-,18+,19-,21+/m1/s1" "InChIKey=PLAPMLGJVGLZOV-VPRICQMDSA-N" "molecular formula=C21H20O11" "total exact mass=448.10056146" "SMILES=C1=CC(=C(C=C1C2=CC(=O)C3=C(O2)C(=C(C=C3O)O)C4C(C(C(C(O4)CO)O)O)O)O)O"
Num Peaks: 16
 445 86.786787; 
 446 13.913914; 
 447 100.000000; 
 448 17.017017; 
 449 2.402402; 
 463 10.510511; 
 464 2.102102; 
 493 4.204204; 
 515 3.403403; 
 891 4.804805; 
 893 37.837838; 
 894 15.215215; 
 895 22.122122; 
 896 6.706707; 
 915 2.002002; 
 1341 2.302302; 


Name: Myricetin
SYNON: $:00in-source
DB#: MetaboBASE0378
InChIKey: IKMDFBPHZNJCSN-UHFFFAOYSA-N
Instrument_type: LC-ESI-TOF
Instrument: impact HD
Ion_mode: N
Collision_energy: 10
InChIKey: IKMDFBPHZNJCSN-UHFFFAOYSA-N
Formula: C15H10O8
MW: 318
ExactMass: 318.03756727999996
Comments: "license=License CC-BY-NC-SA 4.0 International" "author=Plant Biology, The Noble Foundation, Ardmore, OK, US/Dennis Fine, Daniel Wherritt, and Lloyd Sumner" "instrument type=LC-ESI-TOF" "instrument=impact HD" "ionization=ESI" "ionization mode=negative" "collision gas=Nitrogen" "collision energy=10" "peak width=0.022" "date=2013-11-12 01:02:36+01:00" "column=Waters Acquity BEH C18 1.7um x 2.1 x 150 mm" "retention time=364.2" "raw data file=C:\Data\Confirmed Standards\Confirmed std 11Nov13\Myricetin (Vial 118).d" "cas number=529-44-2" "SMILES=c1c(cc(c(c1O)O)O)c2c(c(=O)c3c(cc(cc3o2)O)O)O" "InChI=InChI=1S/C15H10O8/c16-6-3-7(17)11-10(4-6)23-15(14(22)13(11)21)5-1-8(18)12(20)9(19)2-5/h1-4,16-20,22H" "InChIKey=IKMDFBPHZNJCSN-UHFFFAOYSA-N" "molecular formula=C15H10O8" "total exact mass=318.03756727999996" "SMILES=C1=C(C=C(C(=C1O)O)O)C2=C(C(=O)C3=C(C=C(C=C3O2)O)O)O"
Num Peaks: 12
 151 2.402402; 
 178 3.503504; 
 287 6.306306; 
 315 100.000000; 
 316 13.813814; 
 317 8.008008; 
 318 1.201201; 
 333 1.501502; 
 351 2.002002; 
 631 1.601602; 
 665 2.802803; 
 681 1.401401; 


Name: Myricetin
SYNON: $:00in-source
DB#: MetaboBASE0379
InChIKey: IKMDFBPHZNJCSN-UHFFFAOYSA-N
Spectrum_type: MS2
PrecursorMZ: 315.012
Instrument_type: LC-ESI-TOF
Instrument: impact HD
Ion_mode: N
Collision_energy: 10
InChIKey: IKMDFBPHZNJCSN-UHFFFAOYSA-N
Formula: C15H10O8
MW: 318
ExactMass: 318.03756727999996
Comments: "license=License CC-BY-NC-SA 4.0 International" "author=Plant Biology, The Noble Foundation, Ardmore, OK, US/Dennis Fine, Daniel Wherritt, and Lloyd Sumner" "instrument type=LC-ESI-TOF" "instrument=impact HD" "ionization=ESI" "ionization mode=negative" "ms level=MS2" "precursor m/z=315.012" "isolation width=5" "collision gas=Nitrogen" "collision energy=10" "peak width=0.018" "date=2014-01-11 01:14:31+01:00" "column=Waters Acquity BEH C18 1.7um x 2.1 x 150 mm" "retention time=364.2" "raw data file=C:\Data\Confirmed Standards\14Jan10 Confirmed stds MSMS\Myricetin (Vial 118).d" "cas number=529-44-2" "SMILES=c1c(cc(c(c1O)O)O)c2c(c(=O)c3c(cc(cc3o2)O)O)O" "InChI=InChI=1S/C15H10O8/c16-6-3-7(17)11-10(4-6)23-15(14(22)13(11)21)5-1-8(18)12(20)9(19)2-5/h1-4,16-20,22H" "InChIKey=IKMDFBPHZNJCSN-UHFFFAOYSA-N" "molecular formula=C15H10O8" "total exact mass=318.03756727999996" "SMILES=C1=C(C=C(C(=C1O)O)O)C2=C(C(=O)C3=C(C=C(C=C3O2)O)O)O"
Num Peaks: 4
 287 17.517518; 
 315 100.000000; 
 316 25.825826; 
 317 49.449449; 


Name: Myricetin
SYNON: $:00in-source
DB#: MetaboBASE0380
InChIKey: IKMDFBPHZNJCSN-UHFFFAOYSA-N
Spectrum_type: MS2
PrecursorMZ: 315.0134
Instrument_type: LC-ESI-TOF
Instrument: impact HD
Ion_mode: N
Collision_energy: 20
InChIKey: IKMDFBPHZNJCSN-UHFFFAOYSA-N
Formula: C15H10O8
MW: 318
ExactMass: 318.03756727999996
Comments: "license=License CC-BY-NC-SA 4.0 International" "author=Plant Biology, The Noble Foundation, Ardmore, OK, US/Dennis Fine, Daniel Wherritt, and Lloyd Sumner" "instrument type=LC-ESI-TOF" "instrument=impact HD" "ionization=ESI" "ionization mode=negative" "ms level=MS2" "precursor m/z=315.0134" "isolation width=5" "collision gas=Nitrogen" "collision energy=20" "peak width=0.018" "date=2014-01-11 01:14:31+01:00" "column=Waters Acquity BEH C18 1.7um x 2.1 x 150 mm" "retention time=364.2" "raw data file=C:\Data\Confirmed Standards\14Jan10 Confirmed stds MSMS\Myricetin (Vial 118).d" "cas number=529-44-2" "SMILES=c1c(cc(c(c1O)O)O)c2c(c(=O)c3c(cc(cc3o2)O)O)O" "InChI=InChI=1S/C15H10O8/c16-6-3-7(17)11-10(4-6)23-15(14(22)13(11)21)5-1-8(18)12(20)9(19)2-5/h1-4,16-20,22H" "InChIKey=IKMDFBPHZNJCSN-UHFFFAOYSA-N" "molecular formula=C15H10O8" "total exact mass=318.03756727999996" "SMILES=C1=C(C=C(C(=C1O)O)O)C2=C(C(=O)C3=C(C=C(C=C3O2)O)O)O"
Num Peaks: 6
 287 100.000000; 
 288 26.726727; 
 315 64.064064; 
 316 15.915916; 
 317 49.949950; 
 318 15.015015; 


Name: Myricetin
SYNON: $:00in-source
DB#: MetaboBASE0381
InChIKey: IKMDFBPHZNJCSN-UHFFFAOYSA-N
Instrument_type: LC-ESI-TOF
Instrument: impact HD
Ion_mode: N
InChIKey: IKMDFBPHZNJCSN-UHFFFAOYSA-N
Formula: C15H10O8
MW: 318
ExactMass: 318.03756727999996
Comments: "license=License CC-BY-NC-SA 4.0 International" "author=Plant Biology, The Noble Foundation, Ardmore, OK, US/Dennis Fine, Daniel Wherritt, and Lloyd Sumner" "instrument type=LC-ESI-TOF" "instrument=impact HD" "ionization=ESI" "ionization mode=negative" "collision gas=Nitrogen" "peak width=0.013" "date=2014-01-11 01:14:31+01:00" "column=Waters Acquity BEH C18 1.7um x 2.1 x 150 mm" "retention time=364.2" "raw data file=C:\Data\Confirmed Standards\14Jan10 Confirmed stds MSMS\Myricetin (Vial 118).d" "cas number=529-44-2" "SMILES=c1c(cc(c(c1O)O)O)c2c(c(=O)c3c(cc(cc3o2)O)O)O" "InChI=InChI=1S/C15H10O8/c16-6-3-7(17)11-10(4-6)23-15(14(22)13(11)21)5-1-8(18)12(20)9(19)2-5/h1-4,16-20,22H" "InChIKey=IKMDFBPHZNJCSN-UHFFFAOYSA-N" "molecular formula=C15H10O8" "total exact mass=318.03756727999996" "SMILES=C1=C(C=C(C(=C1O)O)O)C2=C(C(=O)C3=C(C=C(C=C3O2)O)O)O"
Num Peaks: 10
 315 100.000000; 
 316 12.912913; 
 317 19.519520; 
 318 3.003003; 
 333 3.103103; 
 351 4.204204; 
 631 2.102102; 
 633 4.104104; 
 649 2.202202; 
 666 2.302302; 


Name: Naringin
SYNON: $:00in-source
DB#: MetaboBASE0382
InChIKey: DFPMSGMNTNDNHN-ZPHOTFPESA-N
Instrument_type: LC-ESI-TOF
Instrument: impact HD
Ion_mode: N
Collision_energy: 10
InChIKey: DFPMSGMNTNDNHN-ZPHOTFPESA-N
Formula: C27H32O14
MW: 580
ExactMass: 580.179205704
Comments: "license=License CC-BY-NC-SA 4.0 International" "author=Plant Biology, The Noble Foundation, Ardmore, OK, US/Dennis Fine, Daniel Wherritt, and Lloyd Sumner" "instrument type=LC-ESI-TOF" "instrument=impact HD" "ionization=ESI" "ionization mode=negative" "collision gas=Nitrogen" "collision energy=10" "peak width=0.017" "date=2013-11-12 19:07:40+01:00" "column=Waters Acquity BEH C18 1.7um x 2.1 x 150 mm" "retention time=393.6" "raw data file=C:\Data\Confirmed Standards\Confirmed std 11Nov13\ZLei_Std_Mix_30_Oct_13_1966.d" "cas number=10236-47-2" "SMILES=C[C@H]1[C@@H]([C@H]([C@H]([C@@H](O1)O[C@@H]2[C@H]([C@@H]([C@H](O[C@H]2Oc3cc(c4c(c3)O[C@@H](CC4=O)c5ccc(cc5)O)O)CO)O)O)O)O)O" "InChI=InChI=1S/C27H32O14/c1-10-20(32)22(34)24(36)26(37-10)41-25-23(35)21(33)18(9-28)40-27(25)38-13-6-14(30)19-15(31)8-16(39-17(19)7-13)11-2-4-12(29)5-3-11/h2-7,10,16,18,20-30,32-36H,8-9H2,1H3/t10-,16-,18+,20-,21+,22+,23-,24+,25+,26-,27+/m0/s1" "InChIKey=DFPMSGMNTNDNHN-ZPHOTFPESA-N" "molecular formula=C27H32O14" "total exact mass=580.179205704" "SMILES=CC1C(C(C(C(O1)OC2C(C(C(OC2OC3=CC(=C4C(=O)CC(OC4=C3)C5=CC=C(C=C5)O)O)CO)O)O)O)O)O"
Num Peaks: 10
 579 100.000000; 
 580 25.325325; 
 581 5.005005; 
 647 3.603604; 
 1159 9.409409; 
 1159 1.601602; 
 1160 6.006006; 
 1161 1.701702; 
 1449 1.301301; 
 1450 1.101101; 


Name: Naringin
SYNON: $:00in-source
DB#: MetaboBASE0383
InChIKey: DFPMSGMNTNDNHN-ZPHOTFPESA-N
Precursor_type: [M-H]-
Spectrum_type: MS2
PrecursorMZ: 579.1739
Instrument_type: LC-ESI-TOF
Instrument: impact HD
Ion_mode: N
Collision_energy: 40
InChIKey: DFPMSGMNTNDNHN-ZPHOTFPESA-N
Formula: C27H32O14
MW: 580
ExactMass: 580.179205704
Comments: "license=License CC-BY-NC-SA 4.0 International" "author=Plant Biology, The Noble Foundation, Ardmore, OK, US/Dennis Fine, Daniel Wherritt, and Lloyd Sumner" "instrument type=LC-ESI-TOF" "instrument=impact HD" "ionization=ESI" "ionization mode=negative" "ms level=MS2" "precursor m/z=579.1739" "isolation width=5" "collision gas=Nitrogen" "collision energy=40" "peak width=0.014" "date=2014-08-14 17:27:45+02:00" "column=Waters Acquity BEH C18 1.7um x 2.1 x 150 mm" "retention time=393.6" "raw data file=G:\Sumner Lab Data Management Workspace Jun2013\Projects\NSF-JST Metabolomics Nov2011-Sep2014\UPLC-MS-MSMS\Confirmed standards 24_July_2014\MSMS\Z Lei std 24July2014 new col_1-F,8_01_616.d" "precursor type=[M-H]-" "mass accuracy=3.401907441066253" "mass error=0.001970296000081362" "cas number=10236-47-2" "SMILES=C[C@H]1[C@@H]([C@H]([C@H]([C@@H](O1)O[C@@H]2[C@H]([C@@H]([C@H](O[C@H]2Oc3cc(c4c(c3)O[C@@H](CC4=O)c5ccc(cc5)O)O)CO)O)O)O)O)O" "InChI=InChI=1S/C27H32O14/c1-10-20(32)22(34)24(36)26(37-10)41-25-23(35)21(33)18(9-28)40-27(25)38-13-6-14(30)19-15(31)8-16(39-17(19)7-13)11-2-4-12(29)5-3-11/h2-7,10,16,18,20-30,32-36H,8-9H2,1H3/t10-,16-,18+,20-,21+,22+,23-,24+,25+,26-,27+/m0/s1" "InChIKey=DFPMSGMNTNDNHN-ZPHOTFPESA-N" "molecular formula=C27H32O14" "total exact mass=580.179205704" "SMILES=CC1C(C(C(C(O1)OC2C(C(C(OC2OC3=CC(=C4C(=O)CC(OC4=C3)C5=CC=C(C=C5)O)O)CO)O)O)O)O)O"
Num Peaks: 73
 107 0.200200; 
 117 0.100100; 
 119 2.202202; 
 125 0.900901; 
 145 1.301301; 
 151 23.823824; 
 152 1.201201; 
 164 0.300300; 
 165 0.500501; 
 169 0.200200; 
 175 0.700701; 
 177 1.701702; 
 187 0.100100; 
 193 0.800801; 
 205 0.300300; 
 209 0.100100; 
 217 0.200200; 
 227 0.700701; 
 229 0.100100; 
 235 3.503504; 
 236 0.300300; 
 253 0.600601; 
 270 0.900901; 
 271 100.000000; 
 272 9.409409; 
 273 0.500501; 
 277 0.200200; 
 279 0.100100; 
 285 0.100100; 
 295 1.001001; 
 296 0.100100; 
 296 0.100100; 
 297 0.200200; 
 313 3.503504; 
 314 0.600601; 
 325 0.200200; 
 337 0.100100; 
 339 3.303303; 
 340 0.400400; 
 343 0.200200; 
 355 0.200200; 
 357 0.300300; 
 373 0.700701; 
 374 0.200200; 
 415 0.700701; 
 416 0.100100; 
 417 0.200200; 
 433 0.400400; 
 434 0.100100; 
 441 0.500501; 
 459 20.120120; 
 460 2.702703; 
 461 0.300300; 
 473 0.100100; 
 579 17.217217; 
 579 0.200200; 
 580 3.503504; 
 581 0.400400; 
 1153 0.100100; 
 1175 0.100100; 
 1199 0.100100; 
 1258 0.100100; 
 1296 0.100100; 
 1299 0.100100; 
 1328 0.100100; 
 1339 0.100100; 
 1379 0.100100; 
 1393 0.100100; 
 1445 0.100100; 
 1449 0.100100; 
 1466 0.100100; 
 1477 0.100100; 
 1486 0.100100; 


Name: Naringin
SYNON: $:00in-source
DB#: MetaboBASE0384
InChIKey: DFPMSGMNTNDNHN-ZPHOTFPESA-N
Precursor_type: [M-H]-
Spectrum_type: MS2
PrecursorMZ: 579.1754
Instrument_type: LC-ESI-TOF
Instrument: impact HD
Ion_mode: N
Collision_energy: 10
InChIKey: DFPMSGMNTNDNHN-ZPHOTFPESA-N
Formula: C27H32O14
MW: 580
ExactMass: 580.179205704
Comments: "license=License CC-BY-NC-SA 4.0 International" "author=Plant Biology, The Noble Foundation, Ardmore, OK, US/Dennis Fine, Daniel Wherritt, and Lloyd Sumner" "instrument type=LC-ESI-TOF" "instrument=impact HD" "ionization=ESI" "ionization mode=negative" "ms level=MS2" "precursor m/z=579.1754" "isolation width=5" "collision gas=Nitrogen" "collision energy=10" "peak width=0.011" "date=2014-08-14 17:27:45+02:00" "column=Waters Acquity BEH C18 1.7um x 2.1 x 150 mm" "retention time=393.6" "raw data file=G:\Sumner Lab Data Management Workspace Jun2013\Projects\NSF-JST Metabolomics Nov2011-Sep2014\UPLC-MS-MSMS\Confirmed standards 24_July_2014\MSMS\Z Lei std 24July2014 new col_1-F,8_01_616.d" "precursor type=[M-H]-" "mass accuracy=5.991787634705983" "mass error=0.0034702960000458916" "cas number=10236-47-2" "SMILES=C[C@H]1[C@@H]([C@H]([C@H]([C@@H](O1)O[C@@H]2[C@H]([C@@H]([C@H](O[C@H]2Oc3cc(c4c(c3)O[C@@H](CC4=O)c5ccc(cc5)O)O)CO)O)O)O)O)O" "InChI=InChI=1S/C27H32O14/c1-10-20(32)22(34)24(36)26(37-10)41-25-23(35)21(33)18(9-28)40-27(25)38-13-6-14(30)19-15(31)8-16(39-17(19)7-13)11-2-4-12(29)5-3-11/h2-7,10,16,18,20-30,32-36H,8-9H2,1H3/t10-,16-,18+,20-,21+,22+,23-,24+,25+,26-,27+/m0/s1" "InChIKey=DFPMSGMNTNDNHN-ZPHOTFPESA-N" "molecular formula=C27H32O14" "total exact mass=580.179205704" "SMILES=CC1C(C(C(C(O1)OC2C(C(C(OC2OC3=CC(=C4C(=O)CC(OC4=C3)C5=CC=C(C=C5)O)O)CO)O)O)O)O)O"
Num Peaks: 5
 579 100.000000; 
 579 0.400400; 
 580 18.018018; 
 581 1.701702; 
 582 0.200200; 


Name: Naringin
SYNON: $:00in-source
DB#: MetaboBASE0385
InChIKey: DFPMSGMNTNDNHN-ZPHOTFPESA-N
Precursor_type: [M-H]-
Spectrum_type: MS2
PrecursorMZ: 579.1754
Instrument_type: LC-ESI-TOF
Instrument: impact HD
Ion_mode: N
Collision_energy: 20
InChIKey: DFPMSGMNTNDNHN-ZPHOTFPESA-N
Formula: C27H32O14
MW: 580
ExactMass: 580.179205704
Comments: "license=License CC-BY-NC-SA 4.0 International" "author=Plant Biology, The Noble Foundation, Ardmore, OK, US/Dennis Fine, Daniel Wherritt, and Lloyd Sumner" "instrument type=LC-ESI-TOF" "instrument=impact HD" "ionization=ESI" "ionization mode=negative" "ms level=MS2" "precursor m/z=579.1754" "isolation width=5" "collision gas=Nitrogen" "collision energy=20" "peak width=0.017" "date=2014-08-14 17:27:45+02:00" "column=Waters Acquity BEH C18 1.7um x 2.1 x 150 mm" "retention time=393.6" "raw data file=G:\Sumner Lab Data Management Workspace Jun2013\Projects\NSF-JST Metabolomics Nov2011-Sep2014\UPLC-MS-MSMS\Confirmed standards 24_July_2014\MSMS\Z Lei std 24July2014 new col_1-F,8_01_616.d" "precursor type=[M-H]-" "mass accuracy=5.991787634705983" "mass error=0.0034702960000458916" "cas number=10236-47-2" "SMILES=C[C@H]1[C@@H]([C@H]([C@H]([C@@H](O1)O[C@@H]2[C@H]([C@@H]([C@H](O[C@H]2Oc3cc(c4c(c3)O[C@@H](CC4=O)c5ccc(cc5)O)O)CO)O)O)O)O)O" "InChI=InChI=1S/C27H32O14/c1-10-20(32)22(34)24(36)26(37-10)41-25-23(35)21(33)18(9-28)40-27(25)38-13-6-14(30)19-15(31)8-16(39-17(19)7-13)11-2-4-12(29)5-3-11/h2-7,10,16,18,20-30,32-36H,8-9H2,1H3/t10-,16-,18+,20-,21+,22+,23-,24+,25+,26-,27+/m0/s1" "InChIKey=DFPMSGMNTNDNHN-ZPHOTFPESA-N" "molecular formula=C27H32O14" "total exact mass=580.179205704" "SMILES=CC1C(C(C(C(O1)OC2C(C(C(OC2OC3=CC(=C4C(=O)CC(OC4=C3)C5=CC=C(C=C5)O)O)CO)O)O)O)O)O"
Num Peaks: 13
 271 1.601602; 
 272 0.100100; 
 313 0.200200; 
 373 0.200200; 
 459 2.802803; 
 460 0.400400; 
 579 100.000000; 
 579 0.100100; 
 579 0.100100; 
 579 0.400400; 
 580 17.517518; 
 581 1.701702; 
 582 0.200200; 


Name: Naringin
SYNON: $:00in-source
DB#: MetaboBASE0386
InChIKey: DFPMSGMNTNDNHN-ZPHOTFPESA-N
Precursor_type: [M-H]-
Spectrum_type: MS2
PrecursorMZ: 579.1752
Instrument_type: LC-ESI-TOF
Instrument: impact HD
Ion_mode: N
Collision_energy: 30
InChIKey: DFPMSGMNTNDNHN-ZPHOTFPESA-N
Formula: C27H32O14
MW: 580
ExactMass: 580.179205704
Comments: "license=License CC-BY-NC-SA 4.0 International" "author=Plant Biology, The Noble Foundation, Ardmore, OK, US/Dennis Fine, Daniel Wherritt, and Lloyd Sumner" "instrument type=LC-ESI-TOF" "instrument=impact HD" "ionization=ESI" "ionization mode=negative" "ms level=MS2" "precursor m/z=579.1752" "isolation width=5" "collision gas=Nitrogen" "collision energy=30" "peak width=0.015" "date=2014-08-14 17:27:45+02:00" "column=Waters Acquity BEH C18 1.7um x 2.1 x 150 mm" "retention time=393.6" "raw data file=G:\Sumner Lab Data Management Workspace Jun2013\Projects\NSF-JST Metabolomics Nov2011-Sep2014\UPLC-MS-MSMS\Confirmed standards 24_July_2014\MSMS\Z Lei std 24July2014 new col_1-F,8_01_616.d" "precursor type=[M-H]-" "mass accuracy=5.646471050721949" "mass error=0.0032702960000960957" "cas number=10236-47-2" "SMILES=C[C@H]1[C@@H]([C@H]([C@H]([C@@H](O1)O[C@@H]2[C@H]([C@@H]([C@H](O[C@H]2Oc3cc(c4c(c3)O[C@@H](CC4=O)c5ccc(cc5)O)O)CO)O)O)O)O)O" "InChI=InChI=1S/C27H32O14/c1-10-20(32)22(34)24(36)26(37-10)41-25-23(35)21(33)18(9-28)40-27(25)38-13-6-14(30)19-15(31)8-16(39-17(19)7-13)11-2-4-12(29)5-3-11/h2-7,10,16,18,20-30,32-36H,8-9H2,1H3/t10-,16-,18+,20-,21+,22+,23-,24+,25+,26-,27+/m0/s1" "InChIKey=DFPMSGMNTNDNHN-ZPHOTFPESA-N" "molecular formula=C27H32O14" "total exact mass=580.179205704" "SMILES=CC1C(C(C(C(O1)OC2C(C(C(OC2OC3=CC(=C4C(=O)CC(OC4=C3)C5=CC=C(C=C5)O)O)CO)O)O)O)O)O"
Num Peaks: 46
 119 0.100100; 
 145 0.600601; 
 151 2.602603; 
 152 0.200200; 
 177 0.400400; 
 193 0.300300; 
 235 1.601602; 
 236 0.100100; 
 253 0.400400; 
 270 0.100100; 
 271 34.334334; 
 272 3.403403; 
 273 0.200200; 
 277 0.100100; 
 295 0.400400; 
 297 0.100100; 
 313 2.502503; 
 314 0.300300; 
 339 1.301301; 
 340 0.100100; 
 343 0.200200; 
 355 0.100100; 
 357 0.200200; 
 373 1.301301; 
 374 0.200200; 
 397 0.100100; 
 415 0.400400; 
 416 0.100100; 
 417 0.300300; 
 433 0.700701; 
 434 0.100100; 
 441 0.400400; 
 459 29.129129; 
 460 3.903904; 
 461 0.400400; 
 473 0.200200; 
 477 0.100100; 
 561 0.100100; 
 579 100.000000; 
 579 0.200200; 
 580 18.318318; 
 580 0.100100; 
 581 1.801802; 
 582 0.200200; 
 1467 0.100100; 
 1492 0.100100; 


Name: Naringin
SYNON: $:00in-source
DB#: MetaboBASE0387
InChIKey: DFPMSGMNTNDNHN-ZPHOTFPESA-N
Precursor_type: [M-H]-
Spectrum_type: MS2
PrecursorMZ: 579.1715
Instrument_type: LC-ESI-TOF
Instrument: impact HD
Ion_mode: N
Collision_energy: 50
InChIKey: DFPMSGMNTNDNHN-ZPHOTFPESA-N
Formula: C27H32O14
MW: 580
ExactMass: 580.179205704
Comments: "license=License CC-BY-NC-SA 4.0 International" "author=Plant Biology, The Noble Foundation, Ardmore, OK, US/Dennis Fine, Daniel Wherritt, and Lloyd Sumner" "instrument type=LC-ESI-TOF" "instrument=impact HD" "ionization=ESI" "ionization mode=negative" "ms level=MS2" "precursor m/z=579.1715" "isolation width=5" "collision gas=Nitrogen" "collision energy=50" "peak width=0.015" "date=2014-08-14 17:27:45+02:00" "column=Waters Acquity BEH C18 1.7um x 2.1 x 150 mm" "retention time=393.6" "raw data file=G:\Sumner Lab Data Management Workspace Jun2013\Projects\NSF-JST Metabolomics Nov2011-Sep2014\UPLC-MS-MSMS\Confirmed standards 24_July_2014\MSMS\Z Lei std 24July2014 new col_1-F,8_01_616.d" "precursor type=[M-H]-" "mass accuracy=0.7419287721937682" "mass error=-4.2970399988462304E-4" "cas number=10236-47-2" "SMILES=C[C@H]1[C@@H]([C@H]([C@H]([C@@H](O1)O[C@@H]2[C@H]([C@@H]([C@H](O[C@H]2Oc3cc(c4c(c3)O[C@@H](CC4=O)c5ccc(cc5)O)O)CO)O)O)O)O)O" "InChI=InChI=1S/C27H32O14/c1-10-20(32)22(34)24(36)26(37-10)41-25-23(35)21(33)18(9-28)40-27(25)38-13-6-14(30)19-15(31)8-16(39-17(19)7-13)11-2-4-12(29)5-3-11/h2-7,10,16,18,20-30,32-36H,8-9H2,1H3/t10-,16-,18+,20-,21+,22+,23-,24+,25+,26-,27+/m0/s1" "InChIKey=DFPMSGMNTNDNHN-ZPHOTFPESA-N" "molecular formula=C27H32O14" "total exact mass=580.179205704" "SMILES=CC1C(C(C(C(O1)OC2C(C(C(OC2OC3=CC(=C4C(=O)CC(OC4=C3)C5=CC=C(C=C5)O)O)CO)O)O)O)O)O"
Num Peaks: 187
 107 1.101101; 
 108 0.100100; 
 117 0.200200; 
 119 10.810811; 
 120 0.700701; 
 121 0.100100; 
 122 0.100100; 
 125 1.801802; 
 135 0.100100; 
 136 0.300300; 
 137 0.100100; 
 143 0.300300; 
 145 1.401401; 
 146 0.200200; 
 149 0.300300; 
 151 56.756757; 
 152 2.802803; 
 153 0.200200; 
 161 0.200200; 
 164 1.301301; 
 165 1.501502; 
 166 0.100100; 
 167 0.100100; 
 169 0.500501; 
 175 1.001001; 
 177 2.902903; 
 178 0.200200; 
 179 0.200200; 
 185 0.300300; 
 187 0.700701; 
 192 0.100100; 
 193 1.101101; 
 196 0.300300; 
 203 0.200200; 
 205 0.300300; 
 217 0.200200; 
 219 0.100100; 
 227 3.003003; 
 228 0.300300; 
 229 0.700701; 
 235 1.301301; 
 236 0.200200; 
 241 0.300300; 
 242 0.400400; 
 253 0.500501; 
 269 0.500501; 
 270 1.401401; 
 271 100.000000; 
 271 0.100100; 
 272 9.809810; 
 273 0.500501; 
 279 0.200200; 
 285 0.200200; 
 295 1.101101; 
 296 0.200200; 
 296 0.200200; 
 313 1.901902; 
 314 0.200200; 
 325 0.200200; 
 339 1.301301; 
 340 0.200200; 
 357 0.100100; 
 373 0.100100; 
 415 0.300300; 
 459 2.602603; 
 460 0.400400; 
 579 1.001001; 
 580 0.300300; 
 782 0.100100; 
 789 0.100100; 
 800 0.100100; 
 850 0.100100; 
 863 0.100100; 
 868 0.100100; 
 871 0.100100; 
 879 0.100100; 
 900 0.100100; 
 913 0.100100; 
 915 0.100100; 
 940 0.100100; 
 941 0.100100; 
 957 0.100100; 
 957 0.100100; 
 958 0.100100; 
 959 0.100100; 
 991 0.100100; 
 994 0.100100; 
 995 0.100100; 
 1002 0.100100; 
 1002 0.100100; 
 1025 0.100100; 
 1025 0.100100; 
 1028 0.100100; 
 1036 0.100100; 
 1044 0.100100; 
 1056 0.100100; 
 1064 0.100100; 
 1071 0.100100; 
 1076 0.100100; 
 1077 0.100100; 
 1084 0.100100; 
 1085 0.100100; 
 1087 0.100100; 
 1103 0.100100; 
 1118 0.100100; 
 1122 0.100100; 
 1124 0.100100; 
 1125 0.100100; 
 1133 0.100100; 
 1139 0.100100; 
 1145 0.100100; 
 1156 0.100100; 
 1160 0.100100; 
 1165 0.100100; 
 1166 0.100100; 
 1175 0.100100; 
 1178 0.100100; 
 1181 0.100100; 
 1194 0.100100; 
 1196 0.100100; 
 1197 0.100100; 
 1199 0.100100; 
 1202 0.100100; 
 1204 0.100100; 
 1228 0.100100; 
 1230 0.100100; 
 1238 0.100100; 
 1240 0.100100; 
 1240 0.100100; 
 1246 0.100100; 
 1247 0.100100; 
 1248 0.100100; 
 1260 0.100100; 
 1277 0.100100; 
 1279 0.100100; 
 1285 0.100100; 
 1293 0.100100; 
 1293 0.100100; 
 1295 0.100100; 
 1305 0.100100; 
 1305 0.100100; 
 1308 0.100100; 
 1310 0.100100; 
 1321 0.100100; 
 1324 0.100100; 
 1325 0.100100; 
 1332 0.100100; 
 1336 0.100100; 
 1349 0.100100; 
 1350 0.100100; 
 1354 0.100100; 
 1356 0.100100; 
 1357 0.100100; 
 1359 0.100100; 
 1367 0.100100; 
 1369 0.100100; 
 1370 0.100100; 
 1374 0.100100; 
 1375 0.100100; 
 1376 0.100100; 
 1384 0.100100; 
 1390 0.100100; 
 1393 0.100100; 
 1400 0.100100; 
 1406 0.100100; 
 1424 0.100100; 
 1424 0.100100; 
 1427 0.100100; 
 1432 0.100100; 
 1434 0.100100; 
 1436 0.100100; 
 1456 0.100100; 
 1458 0.100100; 
 1460 0.100100; 
 1468 0.100100; 
 1472 0.100100; 
 1476 0.100100; 
 1478 0.100100; 
 1481 0.100100; 
 1486 0.100100; 
 1488 0.100100; 
 1497 0.100100; 
 1498 0.100100; 
 1501 0.100100; 
 1501 0.100100; 
 1501 0.100100; 
 1502 0.100100; 


Name: Quercetin
SYNON: $:00in-source
DB#: MetaboBASE0388
InChIKey: REFJWTPEDVJJIY-UHFFFAOYSA-N
Spectrum_type: MS2
PrecursorMZ: 271.0616
Instrument_type: LC-ESI-TOF
Instrument: impact HD
Ion_mode: N
Collision_energy: 10
InChIKey: REFJWTPEDVJJIY-UHFFFAOYSA-N
Formula: C15H10O7
MW: 302
ExactMass: 302.04265266
Comments: "license=License CC-BY-NC-SA 4.0 International" "author=Plant Biology, The Noble Foundation, Ardmore, OK, US/Dennis Fine, Daniel Wherritt, and Lloyd Sumner" "instrument type=LC-ESI-TOF" "instrument=impact HD" "ionization=ESI" "ionization mode=negative" "ms level=MS2" "precursor m/z=271.0616" "isolation width=5" "collision gas=Nitrogen" "collision energy=10" "peak width=0.0095" "date=2014-01-10 01:46:02+01:00" "column=Waters Acquity BEH C18 1.7um x 2.1 x 150 mm" "retention time=483.6" "raw data file=C:\Data\Confirmed Standards\14Jan9 Confirmed stds MSMS\Quercetin (vial 6).d" "cas number=117-39-5" "SMILES=c1cc(c(cc1c2c(c(=O)c3c(cc(cc3o2)O)O)O)O)O" "InChI=InChI=1S/C15H10O7/c16-7-4-10(19)12-11(5-7)22-15(14(21)13(12)20)6-1-2-8(17)9(18)3-6/h1-5,16-19,21H" "InChIKey=REFJWTPEDVJJIY-UHFFFAOYSA-N" "molecular formula=C15H10O7" "total exact mass=302.04265266" "SMILES=C1=CC(=C(C=C1C2=C(C(=O)C3=C(C=C(C=C3O2)O)O)O)O)O"
Num Peaks: 2
 271 100.000000; 
 272 9.109109; 


Name: Quercetin
SYNON: $:00in-source
DB#: MetaboBASE0389
InChIKey: REFJWTPEDVJJIY-UHFFFAOYSA-N
Instrument_type: LC-ESI-TOF
Instrument: impact HD
Ion_mode: N
InChIKey: REFJWTPEDVJJIY-UHFFFAOYSA-N
Formula: C15H10O7
MW: 302
ExactMass: 302.04265266
Comments: "license=License CC-BY-NC-SA 4.0 International" "author=Plant Biology, The Noble Foundation, Ardmore, OK, US/Dennis Fine, Daniel Wherritt, and Lloyd Sumner" "instrument type=LC-ESI-TOF" "instrument=impact HD" "ionization=ESI" "ionization mode=negative" "collision gas=Nitrogen" "peak width=0.016" "date=2014-08-14 17:27:45+02:00" "column=Waters Acquity BEH C18 1.7um x 2.1 x 150 mm" "retention time=483.6" "raw data file=C:\Data\Confirmed standards 24_July_2014\MSMS\Z Lei std 24July2014 new col_1-F,8_01_616.d" "cas number=117-39-5" "SMILES=c1cc(c(cc1c2c(c(=O)c3c(cc(cc3o2)O)O)O)O)O" "InChI=InChI=1S/C15H10O7/c16-7-4-10(19)12-11(5-7)22-15(14(21)13(12)20)6-1-2-8(17)9(18)3-6/h1-5,16-19,21H" "InChIKey=REFJWTPEDVJJIY-UHFFFAOYSA-N" "molecular formula=C15H10O7" "total exact mass=302.04265266" "SMILES=C1=CC(=C(C=C1C2=C(C(=O)C3=C(C=C(C=C3O2)O)O)O)O)O"
Num Peaks: 71
 116 1.701702; 
 178 1.101101; 
 299 50.550551; 
 300 9.109109; 
 301 100.000000; 
 302 17.017017; 
 303 3.103103; 
 317 9.309309; 
 318 1.401401; 
 369 1.601602; 
 399 1.801802; 
 400 2.602603; 
 418 2.002002; 
 430 1.401401; 
 440 1.101101; 
 445 3.703704; 
 446 1.001001; 
 452 1.501502; 
 481 1.101101; 
 556 3.203203; 
 601 13.113113; 
 602 4.904905; 
 603 25.025025; 
 604 18.018018; 
 605 4.804805; 
 617 1.201201; 
 619 5.305305; 
 620 2.202202; 
 621 1.301301; 
 623 6.206206; 
 624 2.402402; 
 625 6.506507; 
 626 2.502503; 
 639 1.701702; 
 641 2.902903; 
 642 1.201201; 
 647 3.403403; 
 648 1.301301; 
 653 1.301301; 
 655 8.308308; 
 656 4.004004; 
 657 1.401401; 
 659 1.401401; 
 663 1.901902; 
 666 1.001001; 
 671 1.501502; 
 685 1.401401; 
 687 2.802803; 
 709 1.801802; 
 723 1.301301; 
 724 1.201201; 
 901 1.501502; 
 903 3.703704; 
 904 2.102102; 
 905 3.703704; 
 906 2.002002; 
 927 2.902903; 
 928 1.601602; 
 943 1.801802; 
 956 1.501502; 
 957 1.401401; 
 958 2.602603; 
 959 2.102102; 
 965 1.201201; 
 980 2.202202; 
 981 1.801802; 
 1205 2.202202; 
 1259 1.001001; 
 1260 2.202202; 
 1261 1.401401; 
 1273 1.601602; 


Name: Quercetin
SYNON: $:00in-source
DB#: MetaboBASE0390
InChIKey: REFJWTPEDVJJIY-UHFFFAOYSA-N
Instrument_type: LC-ESI-TOF
Instrument: impact HD
Ion_mode: N
Collision_energy: 10
InChIKey: REFJWTPEDVJJIY-UHFFFAOYSA-N
Formula: C15H10O7
MW: 302
ExactMass: 302.04265266
Comments: "license=License CC-BY-NC-SA 4.0 International" "author=Plant Biology, The Noble Foundation, Ardmore, OK, US/Dennis Fine, Daniel Wherritt, and Lloyd Sumner" "instrument type=LC-ESI-TOF" "instrument=impact HD" "ionization=ESI" "ionization mode=negative" "collision gas=Nitrogen" "collision energy=10" "peak width=0.017" "date=2013-11-12 19:07:40+01:00" "column=Waters Acquity BEH C18 1.7um x 2.1 x 150 mm" "retention time=484.2" "raw data file=C:\Data\Confirmed Standards\Confirmed std 11Nov13\ZLei_Std_Mix_30_Oct_13_1966.d" "cas number=117-39-5" "SMILES=c1cc(c(cc1c2c(c(=O)c3c(cc(cc3o2)O)O)O)O)O" "InChI=InChI=1S/C15H10O7/c16-7-4-10(19)12-11(5-7)22-15(14(21)13(12)20)6-1-2-8(17)9(18)3-6/h1-5,16-19,21H" "InChIKey=REFJWTPEDVJJIY-UHFFFAOYSA-N" "molecular formula=C15H10O7" "total exact mass=302.04265266" "SMILES=C1=CC(=C(C=C1C2=C(C(=O)C3=C(C=C(C=C3O2)O)O)O)O)O"
Num Peaks: 9
 151 1.301301; 
 178 2.402402; 
 271 3.903904; 
 299 100.000000; 
 300 14.314314; 
 301 36.136136; 
 302 4.504505; 
 317 3.503504; 
 601 1.201201; 


Name: Quercetin
SYNON: $:00in-source
DB#: MetaboBASE0391
InChIKey: REFJWTPEDVJJIY-UHFFFAOYSA-N
Precursor_type: [M-H]-
Spectrum_type: MS2
PrecursorMZ: 301.035
Instrument_type: LC-ESI-TOF
Instrument: impact HD
Ion_mode: N
Collision_energy: 20
InChIKey: REFJWTPEDVJJIY-UHFFFAOYSA-N
Formula: C15H10O7
MW: 302
ExactMass: 302.04265266
Comments: "license=License CC-BY-NC-SA 4.0 International" "author=Plant Biology, The Noble Foundation, Ardmore, OK, US/Dennis Fine, Daniel Wherritt, and Lloyd Sumner" "instrument type=LC-ESI-TOF" "instrument=impact HD" "ionization=ESI" "ionization mode=negative" "ms level=MS2" "precursor m/z=301.035" "isolation width=5" "collision gas=Nitrogen" "collision energy=20" "peak width=0.015" "date=2014-01-10 00:24:33+01:00" "column=Waters Acquity BEH C18 1.7um x 2.1 x 150 mm" "retention time=483.6" "raw data file=C:\Data\Confirmed Standards\14Jan9 Confirmed stds MSMS\ZLei_Std_Mix_30_Oct_13_2485.d" "precursor type=[M-H]-" "mass accuracy=1.2512166358468684" "mass error=-3.7665999997216204E-4" "cas number=117-39-5" "SMILES=c1cc(c(cc1c2c(c(=O)c3c(cc(cc3o2)O)O)O)O)O" "InChI=InChI=1S/C15H10O7/c16-7-4-10(19)12-11(5-7)22-15(14(21)13(12)20)6-1-2-8(17)9(18)3-6/h1-5,16-19,21H" "InChIKey=REFJWTPEDVJJIY-UHFFFAOYSA-N" "molecular formula=C15H10O7" "total exact mass=302.04265266" "SMILES=C1=CC(=C(C=C1C2=C(C(=O)C3=C(C=C(C=C3O2)O)O)O)O)O"
Num Peaks: 14
 121 7.507508; 
 151 27.327327; 
 178 8.908909; 
 227 3.003003; 
 229 3.103103; 
 243 5.705706; 
 257 2.602603; 
 271 100.000000; 
 272 15.715716; 
 273 6.606607; 
 299 80.380380; 
 300 11.811812; 
 301 72.872873; 
 302 10.210210; 


Name: Quercetin
SYNON: $:00in-source
DB#: MetaboBASE0392
InChIKey: REFJWTPEDVJJIY-UHFFFAOYSA-N
Spectrum_type: MS2
PrecursorMZ: 299.0205
Instrument_type: LC-ESI-TOF
Instrument: impact HD
Ion_mode: N
Collision_energy: 30
InChIKey: REFJWTPEDVJJIY-UHFFFAOYSA-N
Formula: C15H10O7
MW: 302
ExactMass: 302.04265266
Comments: "license=License CC-BY-NC-SA 4.0 International" "author=Plant Biology, The Noble Foundation, Ardmore, OK, US/Dennis Fine, Daniel Wherritt, and Lloyd Sumner" "instrument type=LC-ESI-TOF" "instrument=impact HD" "ionization=ESI" "ionization mode=negative" "ms level=MS2" "precursor m/z=299.0205" "isolation width=5" "collision gas=Nitrogen" "collision energy=30" "peak width=0.015" "date=2014-01-10 00:24:33+01:00" "column=Waters Acquity BEH C18 1.7um x 2.1 x 150 mm" "retention time=483.6" "raw data file=C:\Data\Confirmed Standards\14Jan9 Confirmed stds MSMS\ZLei_Std_Mix_30_Oct_13_2485.d" "cas number=117-39-5" "SMILES=c1cc(c(cc1c2c(c(=O)c3c(cc(cc3o2)O)O)O)O)O" "InChI=InChI=1S/C15H10O7/c16-7-4-10(19)12-11(5-7)22-15(14(21)13(12)20)6-1-2-8(17)9(18)3-6/h1-5,16-19,21H" "InChIKey=REFJWTPEDVJJIY-UHFFFAOYSA-N" "molecular formula=C15H10O7" "total exact mass=302.04265266" "SMILES=C1=CC(=C(C=C1C2=C(C(=O)C3=C(C=C(C=C3O2)O)O)O)O)O"
Num Peaks: 22
 107 6.206206; 
 109 5.405405; 
 121 26.026026; 
 149 4.304304; 
 151 62.462462; 
 152 4.904905; 
 171 5.705706; 
 178 12.812813; 
 187 3.903904; 
 199 8.508509; 
 215 6.406406; 
 226 7.107107; 
 227 15.515516; 
 229 5.905906; 
 242 5.005005; 
 243 15.915916; 
 245 5.205205; 
 271 100.000000; 
 272 19.119119; 
 273 5.405405; 
 299 7.507508; 
 301 3.703704; 


Name: Quercetin
SYNON: $:00in-source
DB#: MetaboBASE0393
InChIKey: REFJWTPEDVJJIY-UHFFFAOYSA-N
Spectrum_type: MS2
PrecursorMZ: 271.0612
Instrument_type: LC-ESI-TOF
Instrument: impact HD
Ion_mode: N
Collision_energy: 20
InChIKey: REFJWTPEDVJJIY-UHFFFAOYSA-N
Formula: C15H10O7
MW: 302
ExactMass: 302.04265266
Comments: "license=License CC-BY-NC-SA 4.0 International" "author=Plant Biology, The Noble Foundation, Ardmore, OK, US/Dennis Fine, Daniel Wherritt, and Lloyd Sumner" "instrument type=LC-ESI-TOF" "instrument=impact HD" "ionization=ESI" "ionization mode=negative" "ms level=MS2" "precursor m/z=271.0612" "isolation width=5" "collision gas=Nitrogen" "collision energy=20" "peak width=0.013" "date=2014-01-10 01:46:02+01:00" "column=Waters Acquity BEH C18 1.7um x 2.1 x 150 mm" "retention time=483.6" "raw data file=C:\Data\Confirmed Standards\14Jan9 Confirmed stds MSMS\Quercetin (vial 6).d" "cas number=117-39-5" "SMILES=c1cc(c(cc1c2c(c(=O)c3c(cc(cc3o2)O)O)O)O)O" "InChI=InChI=1S/C15H10O7/c16-7-4-10(19)12-11(5-7)22-15(14(21)13(12)20)6-1-2-8(17)9(18)3-6/h1-5,16-19,21H" "InChIKey=REFJWTPEDVJJIY-UHFFFAOYSA-N" "molecular formula=C15H10O7" "total exact mass=302.04265266" "SMILES=C1=CC(=C(C=C1C2=C(C(=O)C3=C(C=C(C=C3O2)O)O)O)O)O"
Num Peaks: 9
 107 2.302302; 
 119 42.842843; 
 120 4.304304; 
 151 100.000000; 
 152 4.004004; 
 165 2.802803; 
 177 7.107107; 
 271 53.953954; 
 272 6.106106; 


Name: Quercetin
SYNON: $:00in-source
DB#: MetaboBASE0394
InChIKey: REFJWTPEDVJJIY-UHFFFAOYSA-N
Spectrum_type: MS2
PrecursorMZ: 271.1
Instrument_type: LC-ESI-TOF
Instrument: impact HD
Ion_mode: N
Collision_energy: 40
InChIKey: REFJWTPEDVJJIY-UHFFFAOYSA-N
Formula: C15H10O7
MW: 302
ExactMass: 302.04265266
Comments: "license=License CC-BY-NC-SA 4.0 International" "author=Plant Biology, The Noble Foundation, Ardmore, OK, US/Dennis Fine, Daniel Wherritt, and Lloyd Sumner" "instrument type=LC-ESI-TOF" "instrument=impact HD" "ionization=ESI" "ionization mode=negative" "ms level=MS2" "precursor m/z=271.1" "isolation width=5" "collision gas=Nitrogen" "collision energy=40" "peak width=0.017" "date=2014-01-10 01:46:02+01:00" "column=Waters Acquity BEH C18 1.7um x 2.1 x 150 mm" "retention time=483.6" "raw data file=C:\Data\Confirmed Standards\14Jan9 Confirmed stds MSMS\Quercetin (vial 6).d" "cas number=117-39-5" "SMILES=c1cc(c(cc1c2c(c(=O)c3c(cc(cc3o2)O)O)O)O)O" "InChI=InChI=1S/C15H10O7/c16-7-4-10(19)12-11(5-7)22-15(14(21)13(12)20)6-1-2-8(17)9(18)3-6/h1-5,16-19,21H" "InChIKey=REFJWTPEDVJJIY-UHFFFAOYSA-N" "molecular formula=C15H10O7" "total exact mass=302.04265266" "SMILES=C1=CC(=C(C=C1C2=C(C(=O)C3=C(C=C(C=C3O2)O)O)O)O)O"
Num Peaks: 6
 107 5.205205; 
 117 3.003003; 
 119 100.000000; 
 120 6.306306; 
 151 5.705706; 
 187 2.402402; 


Name: Quercetin
SYNON: $:00in-source
DB#: MetaboBASE0395
InChIKey: REFJWTPEDVJJIY-UHFFFAOYSA-N
Spectrum_type: MS2
PrecursorMZ: 271.1
Instrument_type: LC-ESI-TOF
Instrument: impact HD
Ion_mode: N
Collision_energy: 50
InChIKey: REFJWTPEDVJJIY-UHFFFAOYSA-N
Formula: C15H10O7
MW: 302
ExactMass: 302.04265266
Comments: "license=License CC-BY-NC-SA 4.0 International" "author=Plant Biology, The Noble Foundation, Ardmore, OK, US/Dennis Fine, Daniel Wherritt, and Lloyd Sumner" "instrument type=LC-ESI-TOF" "instrument=impact HD" "ionization=ESI" "ionization mode=negative" "ms level=MS2" "precursor m/z=271.1" "isolation width=5" "collision gas=Nitrogen" "collision energy=50" "peak width=0.015" "date=2014-01-10 01:46:02+01:00" "column=Waters Acquity BEH C18 1.7um x 2.1 x 150 mm" "retention time=483.6" "raw data file=C:\Data\Confirmed Standards\14Jan9 Confirmed stds MSMS\Quercetin (vial 6).d" "cas number=117-39-5" "SMILES=c1cc(c(cc1c2c(c(=O)c3c(cc(cc3o2)O)O)O)O)O" "InChI=InChI=1S/C15H10O7/c16-7-4-10(19)12-11(5-7)22-15(14(21)13(12)20)6-1-2-8(17)9(18)3-6/h1-5,16-19,21H" "InChIKey=REFJWTPEDVJJIY-UHFFFAOYSA-N" "molecular formula=C15H10O7" "total exact mass=302.04265266" "SMILES=C1=CC(=C(C=C1C2=C(C(=O)C3=C(C=C(C=C3O2)O)O)O)O)O"
Num Peaks: 6
 115 3.303303; 
 117 10.010010; 
 119 100.000000; 
 120 6.806807; 
 143 4.204204; 
 145 3.803804; 


Name: Quercetin
SYNON: $:00in-source
DB#: MetaboBASE0396
InChIKey: REFJWTPEDVJJIY-UHFFFAOYSA-N
Spectrum_type: MS2
PrecursorMZ: 271.1
Instrument_type: LC-ESI-TOF
Instrument: impact HD
Ion_mode: N
Collision_energy: 30
InChIKey: REFJWTPEDVJJIY-UHFFFAOYSA-N
Formula: C15H10O7
MW: 302
ExactMass: 302.04265266
Comments: "license=License CC-BY-NC-SA 4.0 International" "author=Plant Biology, The Noble Foundation, Ardmore, OK, US/Dennis Fine, Daniel Wherritt, and Lloyd Sumner" "instrument type=LC-ESI-TOF" "instrument=impact HD" "ionization=ESI" "ionization mode=negative" "ms level=MS2" "precursor m/z=271.1" "isolation width=5" "collision gas=Nitrogen" "collision energy=30" "peak width=0.016" "date=2014-01-10 01:46:02+01:00" "column=Waters Acquity BEH C18 1.7um x 2.1 x 150 mm" "retention time=483.6" "raw data file=C:\Data\Confirmed Standards\14Jan9 Confirmed stds MSMS\Quercetin (vial 6).d" "cas number=117-39-5" "SMILES=c1cc(c(cc1c2c(c(=O)c3c(cc(cc3o2)O)O)O)O)O" "InChI=InChI=1S/C15H10O7/c16-7-4-10(19)12-11(5-7)22-15(14(21)13(12)20)6-1-2-8(17)9(18)3-6/h1-5,16-19,21H" "InChIKey=REFJWTPEDVJJIY-UHFFFAOYSA-N" "molecular formula=C15H10O7" "total exact mass=302.04265266" "SMILES=C1=CC(=C(C=C1C2=C(C(=O)C3=C(C=C(C=C3O2)O)O)O)O)O"
Num Peaks: 7
 107 6.206206; 
 119 100.000000; 
 120 6.206206; 
 151 26.626627; 
 152 2.302302; 
 165 2.702703; 
 187 2.602603; 


Name: Quercetin
SYNON: $:00in-source
DB#: MetaboBASE0397
InChIKey: REFJWTPEDVJJIY-UHFFFAOYSA-N
Precursor_type: [M-H]-
Spectrum_type: MS2
PrecursorMZ: 301.0356
Instrument_type: LC-ESI-TOF
Instrument: impact HD
Ion_mode: N
Collision_energy: 10
InChIKey: REFJWTPEDVJJIY-UHFFFAOYSA-N
Formula: C15H10O7
MW: 302
ExactMass: 302.04265266
Comments: "license=License CC-BY-NC-SA 4.0 International" "author=Plant Biology, The Noble Foundation, Ardmore, OK, US/Dennis Fine, Daniel Wherritt, and Lloyd Sumner" "instrument type=LC-ESI-TOF" "instrument=impact HD" "ionization=ESI" "ionization mode=negative" "ms level=MS2" "precursor m/z=301.0356" "isolation width=5" "collision gas=Nitrogen" "collision energy=10" "peak width=0.012" "date=2014-01-10 00:24:33+01:00" "column=Waters Acquity BEH C18 1.7um x 2.1 x 150 mm" "retention time=483.6" "raw data file=C:\Data\Confirmed Standards\14Jan9 Confirmed stds MSMS\ZLei_Std_Mix_30_Oct_13_2485.d" "precursor type=[M-H]-" "mass accuracy=0.7419056084759161" "mass error=2.2333999999091247E-4" "cas number=117-39-5" "SMILES=c1cc(c(cc1c2c(c(=O)c3c(cc(cc3o2)O)O)O)O)O" "InChI=InChI=1S/C15H10O7/c16-7-4-10(19)12-11(5-7)22-15(14(21)13(12)20)6-1-2-8(17)9(18)3-6/h1-5,16-19,21H" "InChIKey=REFJWTPEDVJJIY-UHFFFAOYSA-N" "molecular formula=C15H10O7" "total exact mass=302.04265266" "SMILES=C1=CC(=C(C=C1C2=C(C(=O)C3=C(C=C(C=C3O2)O)O)O)O)O"
Num Peaks: 5
 271 2.202202; 
 299 71.971972; 
 300 8.908909; 
 301 100.000000; 
 302 9.609610; 


Name: Quercetin
SYNON: $:00in-source
DB#: MetaboBASE0398
InChIKey: REFJWTPEDVJJIY-UHFFFAOYSA-N
Instrument_type: LC-ESI-TOF
Instrument: impact HD
Ion_mode: N
InChIKey: REFJWTPEDVJJIY-UHFFFAOYSA-N
Formula: C15H10O7
MW: 302
ExactMass: 302.04265266
Comments: "license=License CC-BY-NC-SA 4.0 International" "author=Plant Biology, The Noble Foundation, Ardmore, OK, US/Dennis Fine, Daniel Wherritt, and Lloyd Sumner" "instrument type=LC-ESI-TOF" "instrument=impact HD" "ionization=ESI" "ionization mode=negative" "collision gas=Nitrogen" "peak width=0.01" "date=2014-01-10 00:24:33+01:00" "column=Waters Acquity BEH C18 1.7um x 2.1 x 150 mm" "retention time=483.6" "raw data file=C:\Data\Confirmed Standards\14Jan9 Confirmed stds MSMS\ZLei_Std_Mix_30_Oct_13_2485.d" "cas number=117-39-5" "SMILES=c1cc(c(cc1c2c(c(=O)c3c(cc(cc3o2)O)O)O)O)O" "InChI=InChI=1S/C15H10O7/c16-7-4-10(19)12-11(5-7)22-15(14(21)13(12)20)6-1-2-8(17)9(18)3-6/h1-5,16-19,21H" "InChIKey=REFJWTPEDVJJIY-UHFFFAOYSA-N" "molecular formula=C15H10O7" "total exact mass=302.04265266" "SMILES=C1=CC(=C(C=C1C2=C(C(=O)C3=C(C=C(C=C3O2)O)O)O)O)O"
Num Peaks: 7
 299 100.000000; 
 300 11.311311; 
 301 44.644645; 
 302 4.904905; 
 317 12.012012; 
 601 3.303303; 
 603 3.903904; 


Name: Quercetin
SYNON: $:00in-source
DB#: MetaboBASE0399
InChIKey: REFJWTPEDVJJIY-UHFFFAOYSA-N
Precursor_type: [M-H]-
Spectrum_type: MS2
PrecursorMZ: 301
Instrument_type: LC-ESI-TOF
Instrument: impact HD
Ion_mode: N
Collision_energy: 40
InChIKey: REFJWTPEDVJJIY-UHFFFAOYSA-N
Formula: C15H10O7
MW: 302
ExactMass: 302.04265266
Comments: "license=License CC-BY-NC-SA 4.0 International" "author=Plant Biology, The Noble Foundation, Ardmore, OK, US/Dennis Fine, Daniel Wherritt, and Lloyd Sumner" "instrument type=LC-ESI-TOF" "instrument=impact HD" "ionization=ESI" "ionization mode=negative" "ms level=MS2" "precursor m/z=301" "isolation width=5" "collision gas=Nitrogen" "collision energy=40" "peak width=0.014" "date=2014-01-10 00:24:33+01:00" "column=Waters Acquity BEH C18 1.7um x 2.1 x 150 mm" "retention time=483.6" "raw data file=C:\Data\Confirmed Standards\14Jan9 Confirmed stds MSMS\ZLei_Std_Mix_30_Oct_13_2485.d" "precursor type=[M-H]-" "mass accuracy=117.53043189367831" "mass error=-0.03537665999999717" "cas number=117-39-5" "SMILES=c1cc(c(cc1c2c(c(=O)c3c(cc(cc3o2)O)O)O)O)O" "InChI=InChI=1S/C15H10O7/c16-7-4-10(19)12-11(5-7)22-15(14(21)13(12)20)6-1-2-8(17)9(18)3-6/h1-5,16-19,21H" "InChIKey=REFJWTPEDVJJIY-UHFFFAOYSA-N" "molecular formula=C15H10O7" "total exact mass=302.04265266" "SMILES=C1=CC(=C(C=C1C2=C(C(=O)C3=C(C=C(C=C3O2)O)O)O)O)O"
Num Peaks: 16
 107 28.828829; 
 109 71.471471; 
 121 99.799800; 
 133 73.673674; 
 135 29.129129; 
 143 21.421421; 
 145 28.428428; 
 151 100.000000; 
 171 30.330330; 
 175 24.524525; 
 199 44.544545; 
 215 25.225225; 
 226 27.727728; 
 227 22.222222; 
 243 29.329329; 
 271 63.463463; 


Name: Umbelliferone
SYNON: $:00in-source
DB#: MetaboBASE0400
InChIKey: ORHBXUUXSCNDEV-UHFFFAOYSA-N
Instrument_type: LC-ESI-TOF
Instrument: impact HD
Ion_mode: N
Collision_energy: 10
InChIKey: ORHBXUUXSCNDEV-UHFFFAOYSA-N
Formula: C9H6O3
MW: 162
ExactMass: 162.03169405199998
Comments: "license=License CC-BY-NC-SA 4.0 International" "author=Plant Biology, The Noble Foundation, Ardmore, OK, US/Dennis Fine, Daniel Wherritt, and Lloyd Sumner" "instrument type=LC-ESI-TOF" "instrument=impact HD" "ionization=ESI" "ionization mode=negative" "collision gas=Nitrogen" "collision energy=10" "peak width=0.017" "date=2013-11-12 19:07:40+01:00" "column=Waters Acquity BEH C18 1.7um x 2.1 x 150 mm" "retention time=236.4" "raw data file=C:\Data\Confirmed Standards\Confirmed std 11Nov13\ZLei_Std_Mix_30_Oct_13_1966.d" "cas number=93-35-6" "SMILES=c1cc(cc2c1ccc(=O)o2)O" "InChI=InChI=1S/C9H6O3/c10-7-3-1-6-2-4-9(11)12-8(6)5-7/h1-5,10H" "InChIKey=ORHBXUUXSCNDEV-UHFFFAOYSA-N" "molecular formula=C9H6O3" "total exact mass=162.03169405199998" "SMILES=C1=CC(=CC2=C1C=CC(=O)O2)O"
Num Peaks: 5
 133 1.801802; 
 161 100.000000; 
 162 7.207207; 
 700 3.503504; 
 701 1.301301; 


Name: Umbelliferone
SYNON: $:00in-source
DB#: MetaboBASE0401
InChIKey: ORHBXUUXSCNDEV-UHFFFAOYSA-N
Precursor_type: [M-H]-
Spectrum_type: MS2
PrecursorMZ: 161.0247
Instrument_type: LC-ESI-TOF
Instrument: impact HD
Ion_mode: N
Collision_energy: 20
InChIKey: ORHBXUUXSCNDEV-UHFFFAOYSA-N
Formula: C9H6O3
MW: 162
ExactMass: 162.03169405199998
Comments: "license=License CC-BY-NC-SA 4.0 International" "author=Plant Biology, The Noble Foundation, Ardmore, OK, US/Dennis Fine, Daniel Wherritt, and Lloyd Sumner" "instrument type=LC-ESI-TOF" "instrument=impact HD" "ionization=ESI" "ionization mode=negative" "ms level=MS2" "precursor m/z=161.0247" "isolation width=5" "collision gas=Nitrogen" "collision energy=20" "peak width=0.012" "date=2014-01-10 00:24:33+01:00" "column=Waters Acquity BEH C18 1.7um x 2.1 x 150 mm" "retention time=235.8" "raw data file=C:\Data\Confirmed Standards\14Jan9 Confirmed stds MSMS\ZLei_Std_Mix_30_Oct_13_2485.d" "precursor type=[M-H]-" "mass accuracy=1.750961187994572" "mass error=2.8194800000846953E-4" "cas number=93-35-6" "SMILES=c1cc(cc2c1ccc(=O)o2)O" "InChI=InChI=1S/C9H6O3/c10-7-3-1-6-2-4-9(11)12-8(6)5-7/h1-5,10H" "InChIKey=ORHBXUUXSCNDEV-UHFFFAOYSA-N" "molecular formula=C9H6O3" "total exact mass=162.03169405199998" "SMILES=C1=CC(=CC2=C1C=CC(=O)O2)O"
Num Peaks: 5
 117 8.508509; 
 133 60.760761; 
 134 3.103103; 
 161 100.000000; 
 162 5.705706; 


Name: Umbelliferone
SYNON: $:00in-source
DB#: MetaboBASE0402
InChIKey: ORHBXUUXSCNDEV-UHFFFAOYSA-N
Precursor_type: [M-H]-
Spectrum_type: MS2
PrecursorMZ: 161.0244
Instrument_type: LC-ESI-TOF
Instrument: impact HD
Ion_mode: N
Collision_energy: 30
InChIKey: ORHBXUUXSCNDEV-UHFFFAOYSA-N
Formula: C9H6O3
MW: 162
ExactMass: 162.03169405199998
Comments: "license=License CC-BY-NC-SA 4.0 International" "author=Plant Biology, The Noble Foundation, Ardmore, OK, US/Dennis Fine, Daniel Wherritt, and Lloyd Sumner" "instrument type=LC-ESI-TOF" "instrument=impact HD" "ionization=ESI" "ionization mode=negative" "ms level=MS2" "precursor m/z=161.0244" "isolation width=5" "collision gas=Nitrogen" "collision energy=30" "peak width=0.015" "date=2014-01-10 00:24:33+01:00" "column=Waters Acquity BEH C18 1.7um x 2.1 x 150 mm" "retention time=235.8" "raw data file=C:\Data\Confirmed Standards\14Jan9 Confirmed stds MSMS\ZLei_Std_Mix_30_Oct_13_2485.d" "precursor type=[M-H]-" "mass accuracy=0.11210723327065787" "mass error=-1.8051999973067723E-5" "cas number=93-35-6" "SMILES=c1cc(cc2c1ccc(=O)o2)O" "InChI=InChI=1S/C9H6O3/c10-7-3-1-6-2-4-9(11)12-8(6)5-7/h1-5,10H" "InChIKey=ORHBXUUXSCNDEV-UHFFFAOYSA-N" "molecular formula=C9H6O3" "total exact mass=162.03169405199998" "SMILES=C1=CC(=CC2=C1C=CC(=O)O2)O"
Num Peaks: 9
 105 29.329329; 
 106 5.105105; 
 117 52.352352; 
 118 6.006006; 
 123 12.412412; 
 133 100.000000; 
 134 21.721722; 
 161 54.054054; 
 162 5.205205; 


Name: Umbelliferone
SYNON: $:00in-source
DB#: MetaboBASE0403
InChIKey: ORHBXUUXSCNDEV-UHFFFAOYSA-N
Instrument_type: LC-ESI-TOF
Instrument: impact HD
Ion_mode: N
InChIKey: ORHBXUUXSCNDEV-UHFFFAOYSA-N
Formula: C9H6O3
MW: 162
ExactMass: 162.03169405199998
Comments: "license=License CC-BY-NC-SA 4.0 International" "author=Plant Biology, The Noble Foundation, Ardmore, OK, US/Dennis Fine, Daniel Wherritt, and Lloyd Sumner" "instrument type=LC-ESI-TOF" "instrument=impact HD" "ionization=ESI" "ionization mode=negative" "collision gas=Nitrogen" "peak width=0.011" "date=2014-01-10 00:24:33+01:00" "column=Waters Acquity BEH C18 1.7um x 2.1 x 150 mm" "retention time=235.8" "raw data file=C:\Data\Confirmed Standards\14Jan9 Confirmed stds MSMS\ZLei_Std_Mix_30_Oct_13_2485.d" "cas number=93-35-6" "SMILES=c1cc(cc2c1ccc(=O)o2)O" "InChI=InChI=1S/C9H6O3/c10-7-3-1-6-2-4-9(11)12-8(6)5-7/h1-5,10H" "InChIKey=ORHBXUUXSCNDEV-UHFFFAOYSA-N" "molecular formula=C9H6O3" "total exact mass=162.03169405199998" "SMILES=C1=CC(=CC2=C1C=CC(=O)O2)O"
Num Peaks: 3
 161 100.000000; 
 162 7.907908; 
 700 3.303303; 


Name: Umbelliferone
SYNON: $:00in-source
DB#: MetaboBASE0404
InChIKey: ORHBXUUXSCNDEV-UHFFFAOYSA-N
Precursor_type: [M-H]-
Spectrum_type: MS2
PrecursorMZ: 161.0248
Instrument_type: LC-ESI-TOF
Instrument: impact HD
Ion_mode: N
Collision_energy: 10
InChIKey: ORHBXUUXSCNDEV-UHFFFAOYSA-N
Formula: C9H6O3
MW: 162
ExactMass: 162.03169405199998
Comments: "license=License CC-BY-NC-SA 4.0 International" "author=Plant Biology, The Noble Foundation, Ardmore, OK, US/Dennis Fine, Daniel Wherritt, and Lloyd Sumner" "instrument type=LC-ESI-TOF" "instrument=impact HD" "ionization=ESI" "ionization mode=negative" "ms level=MS2" "precursor m/z=161.0248" "isolation width=5" "collision gas=Nitrogen" "collision energy=10" "peak width=0.01" "date=2014-01-10 00:24:33+01:00" "column=Waters Acquity BEH C18 1.7um x 2.1 x 150 mm" "retention time=235.8" "raw data file=C:\Data\Confirmed Standards\14Jan9 Confirmed stds MSMS\ZLei_Std_Mix_30_Oct_13_2485.d" "precursor type=[M-H]-" "mass accuracy=2.37198245246564" "mass error=3.819480000117892E-4" "cas number=93-35-6" "SMILES=c1cc(cc2c1ccc(=O)o2)O" "InChI=InChI=1S/C9H6O3/c10-7-3-1-6-2-4-9(11)12-8(6)5-7/h1-5,10H" "InChIKey=ORHBXUUXSCNDEV-UHFFFAOYSA-N" "molecular formula=C9H6O3" "total exact mass=162.03169405199998" "SMILES=C1=CC(=CC2=C1C=CC(=O)O2)O"
Num Peaks: 2
 161 100.000000; 
 162 6.306306; 


Name: 3-Rha-Ara-GlcUA-Soyasapogenol B
SYNON: $:00in-source
DB#: MetaboBASE0405
InChIKey: IBZLICPLPYSFNZ-NKWBMYJBSA-N
Precursor_type: [M-H]-
Spectrum_type: MS2
PrecursorMZ: 911.4589
Instrument_type: LC-ESI-TOF
Instrument: impact HD
Ion_mode: N
Collision_energy: 10
InChIKey: IBZLICPLPYSFNZ-NKWBMYJBSA-N
Formula: C47H76O17
MW: 912
ExactMass: 912.5082509719999
Comments: "license=License CC-BY-NC-SA 4.0 International" "author=Plant Biology, The Noble Foundation, Ardmore, OK, US/Dennis Fine, Daniel Wherritt, and Lloyd Sumner" "instrument type=LC-ESI-TOF" "instrument=impact HD" "ionization=ESI" "ionization mode=negative" "ms level=MS2" "precursor m/z=911.4589" "isolation width=5" "collision gas=Nitrogen" "collision energy=10" "peak width=0.014" "date=2014-08-07 02:53:36+02:00" "column=Waters Acquity BEH C18 1.7um x 2.1 x 150 mm" "retention time=1072.8" "raw data file=C:\Data\Confirmed standards 24_July_2014\MSMS\Z Lei std 28 May 2014_1-F,8_01_562.d" "precursor type=[M-H]-" "mass accuracy=46.16222629447076" "mass error=-0.042074971999909394" "molecular formula=C47H76O17" "total exact mass=912.5082509719999" "SMILES=C1C(C(C2C(C1)(C3C(CC2)(C4(C(=CC3)C5C(CC4)(C(CC(C5)(C)C)O)C)C)C)C)(C)CO)OC6OC(C(C(C6OC7C(C(C(CO7)O)O)OC8OC(C(C(C8O)O)O)C)O)O)C(=O)O" "InChI=InChI=1S/C47H76O17/c1-21-29(51)31(53)34(56)39(60-21)63-36-30(52)24(49)19-59-40(36)64-37-33(55)32(54)35(38(57)58)62-41(37)61-28-12-13-44(5)25(45(28,6)20-48)11-14-47(8)26(44)10-9-22-23-17-42(2,3)18-27(50)43(23,4)15-16-46(22,47)7/h9,21,23-37,39-41,48-56H,10-20H2,1-8H3,(H,57,58)/t21-,23+,24-,25-,26-,27-,28+,29-,30-,31+,32-,33-,34+,35-,36+,37+,39+,40-,41?,43-,44+,45-,46-,47-/m1/s1" "InChIKey=IBZLICPLPYSFNZ-NKWBMYJBSA-N"
Num Peaks: 46
 173 0.300300; 
 173 0.300300; 
 174 0.300300; 
 175 0.300300; 
 263 0.300300; 
 263 0.400400; 
 263 0.300300; 
 264 0.300300; 
 264 0.300300; 
 264 0.300300; 
 264 0.300300; 
 265 0.300300; 
 265 0.300300; 
 265 0.300300; 
 265 0.300300; 
 265 0.300300; 
 265 0.300300; 
 265 0.300300; 
 265 0.300300; 
 265 0.300300; 
 266 0.300300; 
 266 0.300300; 
 266 0.300300; 
 266 0.300300; 
 266 0.300300; 
 266 0.400400; 
 266 0.300300; 
 266 0.300300; 
 266 0.300300; 
 266 0.300300; 
 267 0.300300; 
 267 0.300300; 
 267 0.300300; 
 267 0.300300; 
 267 0.300300; 
 267 0.300300; 
 267 0.300300; 
 268 0.400400; 
 268 0.300300; 
 911 100.000000; 
 911 0.500501; 
 912 17.117117; 
 912 0.300300; 
 912 0.300300; 
 913 5.505506; 
 914 1.001001; 


Name: 3-Rha-Ara-GlcUA-Soyasapogenol B
SYNON: $:00in-source
DB#: MetaboBASE0406
InChIKey: IBZLICPLPYSFNZ-NKWBMYJBSA-N
Precursor_type: [M-H]-
Spectrum_type: MS2
PrecursorMZ: 911.459
Instrument_type: LC-ESI-TOF
Instrument: impact HD
Ion_mode: N
Collision_energy: 20
InChIKey: IBZLICPLPYSFNZ-NKWBMYJBSA-N
Formula: C47H76O17
MW: 912
ExactMass: 912.5082509719999
Comments: "license=License CC-BY-NC-SA 4.0 International" "author=Plant Biology, The Noble Foundation, Ardmore, OK, US/Dennis Fine, Daniel Wherritt, and Lloyd Sumner" "instrument type=LC-ESI-TOF" "instrument=impact HD" "ionization=ESI" "ionization mode=negative" "ms level=MS2" "precursor m/z=911.459" "isolation width=5" "collision gas=Nitrogen" "collision energy=20" "peak width=0.014" "date=2014-08-07 02:53:36+02:00" "column=Waters Acquity BEH C18 1.7um x 2.1 x 150 mm" "retention time=1072.8" "raw data file=C:\Data\Confirmed standards 24_July_2014\MSMS\Z Lei std 28 May 2014_1-F,8_01_562.d" "precursor type=[M-H]-" "mass accuracy=46.05250702438014" "mass error=-0.041974971999934496" "molecular formula=C47H76O17" "total exact mass=912.5082509719999" "SMILES=C1C(C(C2C(C1)(C3C(CC2)(C4(C(=CC3)C5C(CC4)(C(CC(C5)(C)C)O)C)C)C)C)(C)CO)OC6OC(C(C(C6OC7C(C(C(CO7)O)O)OC8OC(C(C(C8O)O)O)C)O)O)C(=O)O" "InChI=InChI=1S/C47H76O17/c1-21-29(51)31(53)34(56)39(60-21)63-36-30(52)24(49)19-59-40(36)64-37-33(55)32(54)35(38(57)58)62-41(37)61-28-12-13-44(5)25(45(28,6)20-48)11-14-47(8)26(44)10-9-22-23-17-42(2,3)18-27(50)43(23,4)15-16-46(22,47)7/h9,21,23-37,39-41,48-56H,10-20H2,1-8H3,(H,57,58)/t21-,23+,24-,25-,26-,27-,28+,29-,30-,31+,32-,33-,34+,35-,36+,37+,39+,40-,41?,43-,44+,45-,46-,47-/m1/s1" "InChIKey=IBZLICPLPYSFNZ-NKWBMYJBSA-N"
Num Peaks: 47
 174 0.200200; 
 183 0.200200; 
 261 0.300300; 
 262 0.200200; 
 263 0.300300; 
 263 0.300300; 
 264 0.300300; 
 264 0.300300; 
 264 0.300300; 
 264 0.300300; 
 264 0.300300; 
 265 0.300300; 
 265 0.300300; 
 265 0.300300; 
 265 0.300300; 
 265 0.300300; 
 265 0.300300; 
 265 0.300300; 
 265 0.300300; 
 266 0.300300; 
 266 0.300300; 
 266 0.300300; 
 266 0.300300; 
 266 0.200200; 
 266 0.300300; 
 266 0.300300; 
 266 0.300300; 
 266 0.300300; 
 266 0.300300; 
 267 0.300300; 
 267 0.400400; 
 267 0.300300; 
 267 0.300300; 
 267 0.200200; 
 267 0.300300; 
 268 0.300300; 
 269 0.300300; 
 269 0.300300; 
 270 0.200200; 
 911 100.000000; 
 911 0.600601; 
 911 0.500501; 
 911 0.400400; 
 911 0.300300; 
 912 18.918919; 
 913 5.305305; 
 914 1.001001; 


Name: 3-Rha-Ara-GlcUA-Soyasapogenol B
SYNON: $:00in-source
DB#: MetaboBASE0407
InChIKey: IBZLICPLPYSFNZ-NKWBMYJBSA-N
Precursor_type: [M-H]-
Spectrum_type: MS2
PrecursorMZ: 911.459
Instrument_type: LC-ESI-TOF
Instrument: impact HD
Ion_mode: N
Collision_energy: 30
InChIKey: IBZLICPLPYSFNZ-NKWBMYJBSA-N
Formula: C47H76O17
MW: 912
ExactMass: 912.5082509719999
Comments: "license=License CC-BY-NC-SA 4.0 International" "author=Plant Biology, The Noble Foundation, Ardmore, OK, US/Dennis Fine, Daniel Wherritt, and Lloyd Sumner" "instrument type=LC-ESI-TOF" "instrument=impact HD" "ionization=ESI" "ionization mode=negative" "ms level=MS2" "precursor m/z=911.459" "isolation width=5" "collision gas=Nitrogen" "collision energy=30" "peak width=0.014" "date=2014-08-07 02:53:36+02:00" "column=Waters Acquity BEH C18 1.7um x 2.1 x 150 mm" "retention time=1072.8" "raw data file=C:\Data\Confirmed standards 24_July_2014\MSMS\Z Lei std 28 May 2014_1-F,8_01_562.d" "precursor type=[M-H]-" "mass accuracy=46.05250702438014" "mass error=-0.041974971999934496" "molecular formula=C47H76O17" "total exact mass=912.5082509719999" "SMILES=C1C(C(C2C(C1)(C3C(CC2)(C4(C(=CC3)C5C(CC4)(C(CC(C5)(C)C)O)C)C)C)C)(C)CO)OC6OC(C(C(C6OC7C(C(C(CO7)O)O)OC8OC(C(C(C8O)O)O)C)O)O)C(=O)O" "InChI=InChI=1S/C47H76O17/c1-21-29(51)31(53)34(56)39(60-21)63-36-30(52)24(49)19-59-40(36)64-37-33(55)32(54)35(38(57)58)62-41(37)61-28-12-13-44(5)25(45(28,6)20-48)11-14-47(8)26(44)10-9-22-23-17-42(2,3)18-27(50)43(23,4)15-16-46(22,47)7/h9,21,23-37,39-41,48-56H,10-20H2,1-8H3,(H,57,58)/t21-,23+,24-,25-,26-,27-,28+,29-,30-,31+,32-,33-,34+,35-,36+,37+,39+,40-,41?,43-,44+,45-,46-,47-/m1/s1" "InChIKey=IBZLICPLPYSFNZ-NKWBMYJBSA-N"
Num Peaks: 42
 175 0.300300; 
 176 0.300300; 
 176 0.200200; 
 262 0.300300; 
 263 0.200200; 
 263 0.300300; 
 263 0.300300; 
 264 0.200200; 
 264 0.300300; 
 264 0.300300; 
 264 0.300300; 
 265 0.300300; 
 265 0.200200; 
 265 0.400400; 
 265 0.200200; 
 265 0.300300; 
 265 0.300300; 
 266 0.300300; 
 266 0.300300; 
 266 0.300300; 
 266 0.400400; 
 266 0.300300; 
 266 0.300300; 
 266 0.300300; 
 267 0.300300; 
 267 0.300300; 
 267 0.300300; 
 267 0.300300; 
 268 0.300300; 
 268 0.300300; 
 268 0.300300; 
 268 0.200200; 
 269 0.300300; 
 270 0.300300; 
 911 0.200200; 
 911 100.000000; 
 911 0.300300; 
 911 0.300300; 
 911 0.400400; 
 912 18.418418; 
 913 5.005005; 
 914 0.900901; 


Name: 3-Rha-Ara-GlcUA-Soyasapogenol B
SYNON: $:00in-source
DB#: MetaboBASE0408
InChIKey: IBZLICPLPYSFNZ-NKWBMYJBSA-N
Precursor_type: [M-H]-
Spectrum_type: MS2
PrecursorMZ: 911.4587
Instrument_type: LC-ESI-TOF
Instrument: impact HD
Ion_mode: N
Collision_energy: 40
InChIKey: IBZLICPLPYSFNZ-NKWBMYJBSA-N
Formula: C47H76O17
MW: 912
ExactMass: 912.5082509719999
Comments: "license=License CC-BY-NC-SA 4.0 International" "author=Plant Biology, The Noble Foundation, Ardmore, OK, US/Dennis Fine, Daniel Wherritt, and Lloyd Sumner" "instrument type=LC-ESI-TOF" "instrument=impact HD" "ionization=ESI" "ionization mode=negative" "ms level=MS2" "precursor m/z=911.4587" "isolation width=5" "collision gas=Nitrogen" "collision energy=40" "peak width=0.015" "date=2014-08-07 02:53:36+02:00" "column=Waters Acquity BEH C18 1.7um x 2.1 x 150 mm" "retention time=1072.8" "raw data file=C:\Data\Confirmed standards 24_July_2014\MSMS\Z Lei std 28 May 2014_1-F,8_01_562.d" "precursor type=[M-H]-" "mass accuracy=46.381664906878605" "mass error=-0.04227497199985919" "molecular formula=C47H76O17" "total exact mass=912.5082509719999" "SMILES=C1C(C(C2C(C1)(C3C(CC2)(C4(C(=CC3)C5C(CC4)(C(CC(C5)(C)C)O)C)C)C)C)(C)CO)OC6OC(C(C(C6OC7C(C(C(CO7)O)O)OC8OC(C(C(C8O)O)O)C)O)O)C(=O)O" "InChI=InChI=1S/C47H76O17/c1-21-29(51)31(53)34(56)39(60-21)63-36-30(52)24(49)19-59-40(36)64-37-33(55)32(54)35(38(57)58)62-41(37)61-28-12-13-44(5)25(45(28,6)20-48)11-14-47(8)26(44)10-9-22-23-17-42(2,3)18-27(50)43(23,4)15-16-46(22,47)7/h9,21,23-37,39-41,48-56H,10-20H2,1-8H3,(H,57,58)/t21-,23+,24-,25-,26-,27-,28+,29-,30-,31+,32-,33-,34+,35-,36+,37+,39+,40-,41?,43-,44+,45-,46-,47-/m1/s1" "InChIKey=IBZLICPLPYSFNZ-NKWBMYJBSA-N"
Num Peaks: 70
 174 0.200200; 
 174 0.200200; 
 174 0.200200; 
 177 0.300300; 
 261 0.300300; 
 262 0.300300; 
 263 0.300300; 
 263 0.200200; 
 263 0.300300; 
 263 0.200200; 
 263 0.300300; 
 263 0.300300; 
 263 0.200200; 
 263 0.200200; 
 264 0.300300; 
 264 0.500501; 
 264 0.200200; 
 264 0.300300; 
 264 0.200200; 
 264 0.400400; 
 264 0.400400; 
 264 0.200200; 
 264 0.300300; 
 264 0.300300; 
 265 0.200200; 
 265 0.300300; 
 265 0.200200; 
 265 0.300300; 
 265 0.300300; 
 265 0.300300; 
 265 0.300300; 
 265 0.300300; 
 266 0.300300; 
 266 0.200200; 
 266 0.300300; 
 266 0.300300; 
 266 0.500501; 
 266 0.300300; 
 266 0.300300; 
 266 0.300300; 
 266 0.200200; 
 266 0.300300; 
 266 0.300300; 
 267 0.300300; 
 267 0.200200; 
 267 0.400400; 
 267 0.200200; 
 267 0.200200; 
 267 0.200200; 
 267 0.200200; 
 267 0.200200; 
 267 0.300300; 
 267 0.300300; 
 268 0.400400; 
 268 0.300300; 
 268 0.200200; 
 268 0.200200; 
 268 0.200200; 
 269 0.300300; 
 269 0.200200; 
 615 0.200200; 
 893 0.400400; 
 911 0.400400; 
 911 100.000000; 
 911 0.400400; 
 911 0.200200; 
 912 16.616617; 
 912 0.200200; 
 913 5.305305; 
 914 0.900901; 


Name: 3-Rha-Ara-GlcUA-Soyasapogenol B
SYNON: $:00in-source
DB#: MetaboBASE0409
InChIKey: IBZLICPLPYSFNZ-NKWBMYJBSA-N
Precursor_type: [M-H]-
Spectrum_type: MS2
PrecursorMZ: 911.4591
Instrument_type: LC-ESI-TOF
Instrument: impact HD
Ion_mode: N
Collision_energy: 50
InChIKey: IBZLICPLPYSFNZ-NKWBMYJBSA-N
Formula: C47H76O17
MW: 912
ExactMass: 912.5082509719999
Comments: "license=License CC-BY-NC-SA 4.0 International" "author=Plant Biology, The Noble Foundation, Ardmore, OK, US/Dennis Fine, Daniel Wherritt, and Lloyd Sumner" "instrument type=LC-ESI-TOF" "instrument=impact HD" "ionization=ESI" "ionization mode=negative" "ms level=MS2" "precursor m/z=911.4591" "isolation width=5" "collision gas=Nitrogen" "collision energy=50" "peak width=0.015" "date=2014-08-07 02:53:36+02:00" "column=Waters Acquity BEH C18 1.7um x 2.1 x 150 mm" "retention time=1072.8" "raw data file=C:\Data\Confirmed standards 24_July_2014\MSMS\Z Lei std 28 May 2014_1-F,8_01_562.d" "precursor type=[M-H]-" "mass accuracy=45.94278777824031" "mass error=-0.04187497199984591" "molecular formula=C47H76O17" "total exact mass=912.5082509719999" "SMILES=C1C(C(C2C(C1)(C3C(CC2)(C4(C(=CC3)C5C(CC4)(C(CC(C5)(C)C)O)C)C)C)C)(C)CO)OC6OC(C(C(C6OC7C(C(C(CO7)O)O)OC8OC(C(C(C8O)O)O)C)O)O)C(=O)O" "InChI=InChI=1S/C47H76O17/c1-21-29(51)31(53)34(56)39(60-21)63-36-30(52)24(49)19-59-40(36)64-37-33(55)32(54)35(38(57)58)62-41(37)61-28-12-13-44(5)25(45(28,6)20-48)11-14-47(8)26(44)10-9-22-23-17-42(2,3)18-27(50)43(23,4)15-16-46(22,47)7/h9,21,23-37,39-41,48-56H,10-20H2,1-8H3,(H,57,58)/t21-,23+,24-,25-,26-,27-,28+,29-,30-,31+,32-,33-,34+,35-,36+,37+,39+,40-,41?,43-,44+,45-,46-,47-/m1/s1" "InChIKey=IBZLICPLPYSFNZ-NKWBMYJBSA-N"
Num Peaks: 66
 113 0.500501; 
 131 0.400400; 
 143 0.300300; 
 157 0.300300; 
 163 0.300300; 
 175 0.200200; 
 205 1.301301; 
 247 0.600601; 
 262 0.300300; 
 262 0.300300; 
 262 0.300300; 
 263 0.300300; 
 263 0.300300; 
 263 0.300300; 
 264 0.300300; 
 264 0.300300; 
 264 0.300300; 
 264 0.300300; 
 264 0.400400; 
 264 0.300300; 
 265 0.300300; 
 265 0.300300; 
 265 0.300300; 
 265 0.300300; 
 265 0.300300; 
 265 0.300300; 
 265 0.300300; 
 265 0.400400; 
 265 0.300300; 
 266 0.400400; 
 266 0.300300; 
 266 0.300300; 
 266 0.300300; 
 266 0.300300; 
 267 0.300300; 
 267 0.400400; 
 267 0.300300; 
 267 0.400400; 
 268 0.300300; 
 268 0.300300; 
 268 0.400400; 
 268 0.300300; 
 269 0.300300; 
 269 0.300300; 
 270 0.300300; 
 270 0.300300; 
 270 0.300300; 
 270 0.400400; 
 457 0.400400; 
 571 0.200200; 
 615 1.501502; 
 616 0.300300; 
 703 0.700701; 
 721 0.300300; 
 849 0.800801; 
 893 1.801802; 
 894 0.300300; 
 911 0.300300; 
 911 0.300300; 
 911 0.600601; 
 911 100.000000; 
 911 0.500501; 
 911 0.300300; 
 912 19.219219; 
 913 5.205205; 
 914 0.900901; 


Name: 3-Rha-Ara-GlcUA-Soyasapogenol B
SYNON: $:00in-source
DB#: MetaboBASE0410
InChIKey: IBZLICPLPYSFNZ-NKWBMYJBSA-N
Instrument_type: LC-ESI-TOF
Instrument: impact HD
Ion_mode: N
Collision_energy: 10
InChIKey: IBZLICPLPYSFNZ-NKWBMYJBSA-N
Formula: C47H76O17
MW: 912
ExactMass: 912.5082509719999
Comments: "license=License CC-BY-NC-SA 4.0 International" "author=Plant Biology, The Noble Foundation, Ardmore, OK, US/Dennis Fine, Daniel Wherritt, and Lloyd Sumner" "instrument type=LC-ESI-TOF" "instrument=impact HD" "ionization=ESI" "ionization mode=negative" "collision gas=Nitrogen" "collision energy=10" "peak width=0.02" "date=2013-11-12 19:07:40+01:00" "column=Waters Acquity BEH C18 1.7um x 2.1 x 150 mm" "retention time=1072.8" "raw data file=C:\Data\Confirmed Standards\Confirmed std 11Nov13\ZLei_Std_Mix_30_Oct_13_1966.d" "molecular formula=C47H76O17" "total exact mass=912.5082509719999" "SMILES=C1C(C(C2C(C1)(C3C(CC2)(C4(C(=CC3)C5C(CC4)(C(CC(C5)(C)C)O)C)C)C)C)(C)CO)OC6OC(C(C(C6OC7C(C(C(CO7)O)O)OC8OC(C(C(C8O)O)O)C)O)O)C(=O)O" "InChI=InChI=1S/C47H76O17/c1-21-29(51)31(53)34(56)39(60-21)63-36-30(52)24(49)19-59-40(36)64-37-33(55)32(54)35(38(57)58)62-41(37)61-28-12-13-44(5)25(45(28,6)20-48)11-14-47(8)26(44)10-9-22-23-17-42(2,3)18-27(50)43(23,4)15-16-46(22,47)7/h9,21,23-37,39-41,48-56H,10-20H2,1-8H3,(H,57,58)/t21-,23+,24-,25-,26-,27-,28+,29-,30-,31+,32-,33-,34+,35-,36+,37+,39+,40-,41?,43-,44+,45-,46-,47-/m1/s1" "InChIKey=IBZLICPLPYSFNZ-NKWBMYJBSA-N"
Num Peaks: 20
 795 5.505506; 
 796 2.302302; 
 911 100.000000; 
 912 47.147147; 
 913 12.912913; 
 914 2.302302; 
 957 16.316316; 
 958 7.707708; 
 959 2.002002; 
 979 6.906907; 
 980 3.203203; 
 981 1.001001; 
 1029 1.901902; 
 1047 1.401401; 
 1367 1.301301; 
 1368 1.901902; 
 1368 1.601602; 
 1824 1.901902; 
 1825 2.702703; 
 1826 1.201201; 


Name: 3-Glc-Gal-GlcUA-Soyasapogenol B
SYNON: $:00in-source
DB#: MetaboBASE0411
InChIKey: WFRQIKSNAYYUJZ-BOZPSLMNSA-N
Precursor_type: [M-H]-
Spectrum_type: MS2
PrecursorMZ: 957.5247
Instrument_type: LC-ESI-TOF
Instrument: impact HD
Ion_mode: N
Collision_energy: 40
InChIKey: WFRQIKSNAYYUJZ-BOZPSLMNSA-N
Formula: C48H78O19
MW: 958
ExactMass: 958.513730276
Comments: "license=License CC-BY-NC-SA 4.0 International" "author=Plant Biology, The Noble Foundation, Ardmore, OK, US/Dennis Fine, Daniel Wherritt, and Lloyd Sumner" "instrument type=LC-ESI-TOF" "instrument=impact HD" "ionization=ESI" "ionization mode=negative" "ms level=MS2" "precursor m/z=957.5247" "isolation width=5" "collision gas=Nitrogen" "collision energy=40" "peak width=0.016" "date=2014-08-07 02:53:36+02:00" "column=Waters Acquity BEH C18 1.7um x 2.1 x 150 mm" "retention time=1014.6" "raw data file=C:\Data\Confirmed standards 24_July_2014\MSMS\Z Lei std 28 May 2014_1-F,8_01_562.d" "precursor type=[M-H]-" "mass accuracy=19.055094871237355" "mass error=0.018245724000053087" "molecular formula=C48H78O19" "total exact mass=958.513730276" "SMILES=C1C(C(C2C(C1)(C3C(CC2)(C4(C(=CC3)C5C(CC4)(C(CC(C5)(C)C)O)C)C)C)C)(C)CO)OC6OC(C(C(C6OC7C(C(C(C(O7)CO)O)O)OC8OC(C(C(C8O)O)O)CO)O)O)C(=O)O" "InChI=InChI=1S/C48H78O19/c1-43(2)16-22-21-8-9-26-45(4)12-11-28(46(5,20-51)25(45)10-13-48(26,7)47(21,6)15-14-44(22,3)27(52)17-43)64-42-38(34(58)33(57)36(65-42)39(60)61)67-41-37(32(56)30(54)24(19-50)63-41)66-40-35(59)31(55)29(53)23(18-49)62-40/h8,22-38,40-42,49-59H,9-20H2,1-7H3,(H,60,61)/t22-,23-,24-,25+,26+,27+,28-,29-,30+,31+,32+,33+,34+,35-,36+,37-,38-,40+,41+,42?,44+,45-,46+,47+,48+/m0/s1" "InChIKey=WFRQIKSNAYYUJZ-BOZPSLMNSA-N"
Num Peaks: 3
 957 100.000000; 
 958 19.619620; 
 959 6.306306; 


Name: 3-Glc-Gal-GlcUA-Soyasapogenol B
SYNON: $:00in-source
DB#: MetaboBASE0412
InChIKey: WFRQIKSNAYYUJZ-BOZPSLMNSA-N
Precursor_type: [M-H]-
Spectrum_type: MS2
PrecursorMZ: 957.526
Instrument_type: LC-ESI-TOF
Instrument: impact HD
Ion_mode: N
Collision_energy: 20
InChIKey: WFRQIKSNAYYUJZ-BOZPSLMNSA-N
Formula: C48H78O19
MW: 958
ExactMass: 958.513730276
Comments: "license=License CC-BY-NC-SA 4.0 International" "author=Plant Biology, The Noble Foundation, Ardmore, OK, US/Dennis Fine, Daniel Wherritt, and Lloyd Sumner" "instrument type=LC-ESI-TOF" "instrument=impact HD" "ionization=ESI" "ionization mode=negative" "ms level=MS2" "precursor m/z=957.526" "isolation width=5" "collision gas=Nitrogen" "collision energy=20" "peak width=0.017" "date=2014-08-07 02:53:36+02:00" "column=Waters Acquity BEH C18 1.7um x 2.1 x 150 mm" "retention time=1014.6" "raw data file=C:\Data\Confirmed standards 24_July_2014\MSMS\Z Lei std 28 May 2014_1-F,8_01_562.d" "precursor type=[M-H]-" "mass accuracy=20.412734484446517" "mass error=0.019545723999954134" "molecular formula=C48H78O19" "total exact mass=958.513730276" "SMILES=C1C(C(C2C(C1)(C3C(CC2)(C4(C(=CC3)C5C(CC4)(C(CC(C5)(C)C)O)C)C)C)C)(C)CO)OC6OC(C(C(C6OC7C(C(C(C(O7)CO)O)O)OC8OC(C(C(C8O)O)O)CO)O)O)C(=O)O" "InChI=InChI=1S/C48H78O19/c1-43(2)16-22-21-8-9-26-45(4)12-11-28(46(5,20-51)25(45)10-13-48(26,7)47(21,6)15-14-44(22,3)27(52)17-43)64-42-38(34(58)33(57)36(65-42)39(60)61)67-41-37(32(56)30(54)24(19-50)63-41)66-40-35(59)31(55)29(53)23(18-49)62-40/h8,22-38,40-42,49-59H,9-20H2,1-7H3,(H,60,61)/t22-,23-,24-,25+,26+,27+,28-,29-,30+,31+,32+,33+,34+,35-,36+,37-,38-,40+,41+,42?,44+,45-,46+,47+,48+/m0/s1" "InChIKey=WFRQIKSNAYYUJZ-BOZPSLMNSA-N"
Num Peaks: 3
 957 100.000000; 
 958 15.615616; 
 959 5.805806; 


Name: 3-Glc-Gal-GlcUA-Soyasapogenol B
SYNON: $:00in-source
DB#: MetaboBASE0413
InChIKey: WFRQIKSNAYYUJZ-BOZPSLMNSA-N
Precursor_type: [M-H]-
Spectrum_type: MS2
PrecursorMZ: 957.5214
Instrument_type: LC-ESI-TOF
Instrument: impact HD
Ion_mode: N
Collision_energy: 10
InChIKey: WFRQIKSNAYYUJZ-BOZPSLMNSA-N
Formula: C48H78O19
MW: 958
ExactMass: 958.5137302759999
Comments: "license=License CC-BY-NC-SA 4.0 International" "author=Plant Biology, The Noble Foundation, Ardmore, OK, US/Dennis Fine, Daniel Wherritt, and Lloyd Sumner" "instrument type=LC-ESI-TOF" "instrument=impact HD" "ionization=ESI" "ionization mode=negative" "ms level=MS2" "precursor m/z=957.5214" "isolation width=5" "collision gas=Nitrogen" "collision energy=10" "peak width=0.012" "date=2014-08-07 02:53:36+02:00" "column=Waters Acquity BEH C18 1.7um x 2.1 x 150 mm" "retention time=1014.6" "raw data file=C:\Data\Confirmed standards 24_July_2014\MSMS\Z Lei std 28 May 2014_1-F,8_01_562.d" "precursor type=[M-H]-" "mass accuracy=15.608762373442147" "mass error=0.014945724000085647" "molecular formula=C48H78O19" "total exact mass=958.5137302759999" "SMILES=C1C(C(C2C(C1)(C3C(CC2)(C4(C(=CC3)C5C(CC4)(C(CC(C5)(C)C)O)C)C)C)C)(C)CO)OC6OC(C(C(C6OC7C(C(C(C(O7)CO)O)O)OC8OC(C(C(C8O)O)O)CO)O)O)C(=O)O" "InChI=InChI=1S/C48H78O19/c1-43(2)16-22-21-8-9-26-45(4)12-11-28(46(5,20-51)25(45)10-13-48(26,7)47(21,6)15-14-44(22,3)27(52)17-43)64-42-38(34(58)33(57)36(65-42)39(60)61)67-41-37(32(56)30(54)24(19-50)63-41)66-40-35(59)31(55)29(53)23(18-49)62-40/h8,22-38,40-42,49-59H,9-20H2,1-7H3,(H,60,61)/t22-,23-,24-,25+,26+,27+,28-,29-,30+,31+,32+,33+,34+,35-,36+,37-,38-,40+,41+,42?,44+,45-,46+,47+,48+/m0/s1" "InChIKey=WFRQIKSNAYYUJZ-BOZPSLMNSA-N"
Num Peaks: 4
 271 3.103103; 
 957 100.000000; 
 958 17.117117; 
 959 6.906907; 


Name: 3-Glc-Gal-GlcUA-Soyasapogenol B
SYNON: $:00in-source
DB#: MetaboBASE0414
InChIKey: WFRQIKSNAYYUJZ-BOZPSLMNSA-N
Precursor_type: [M-H]-
Spectrum_type: MS2
PrecursorMZ: 957.526
Instrument_type: LC-ESI-TOF
Instrument: impact HD
Ion_mode: N
Collision_energy: 50
InChIKey: WFRQIKSNAYYUJZ-BOZPSLMNSA-N
Formula: C48H78O19
MW: 958
ExactMass: 958.513730276
Comments: "license=License CC-BY-NC-SA 4.0 International" "author=Plant Biology, The Noble Foundation, Ardmore, OK, US/Dennis Fine, Daniel Wherritt, and Lloyd Sumner" "instrument type=LC-ESI-TOF" "instrument=impact HD" "ionization=ESI" "ionization mode=negative" "ms level=MS2" "precursor m/z=957.526" "isolation width=5" "collision gas=Nitrogen" "collision energy=50" "peak width=0.011" "date=2014-08-07 02:53:36+02:00" "column=Waters Acquity BEH C18 1.7um x 2.1 x 150 mm" "retention time=1014.6" "raw data file=C:\Data\Confirmed standards 24_July_2014\MSMS\Z Lei std 28 May 2014_1-F,8_01_562.d" "precursor type=[M-H]-" "mass accuracy=20.412734484446517" "mass error=0.019545723999954134" "molecular formula=C48H78O19" "total exact mass=958.513730276" "SMILES=C1C(C(C2C(C1)(C3C(CC2)(C4(C(=CC3)C5C(CC4)(C(CC(C5)(C)C)O)C)C)C)C)(C)CO)OC6OC(C(C(C6OC7C(C(C(C(O7)CO)O)O)OC8OC(C(C(C8O)O)O)CO)O)O)C(=O)O" "InChI=InChI=1S/C48H78O19/c1-43(2)16-22-21-8-9-26-45(4)12-11-28(46(5,20-51)25(45)10-13-48(26,7)47(21,6)15-14-44(22,3)27(52)17-43)64-42-38(34(58)33(57)36(65-42)39(60)61)67-41-37(32(56)30(54)24(19-50)63-41)66-40-35(59)31(55)29(53)23(18-49)62-40/h8,22-38,40-42,49-59H,9-20H2,1-7H3,(H,60,61)/t22-,23-,24-,25+,26+,27+,28-,29-,30+,31+,32+,33+,34+,35-,36+,37-,38-,40+,41+,42?,44+,45-,46+,47+,48+/m0/s1" "InChIKey=WFRQIKSNAYYUJZ-BOZPSLMNSA-N"
Num Peaks: 11
 221 2.802803; 
 263 3.003003; 
 597 1.601602; 
 615 2.102102; 
 895 1.801802; 
 939 4.204204; 
 939 1.601602; 
 957 100.000000; 
 957 1.801802; 
 958 19.519520; 
 959 5.105105; 


Name: 3-Glc-Gal-GlcUA-Soyasapogenol B
SYNON: $:00in-source
DB#: MetaboBASE0415
InChIKey: WFRQIKSNAYYUJZ-BOZPSLMNSA-N
Precursor_type: [M-H]-
Spectrum_type: MS2
PrecursorMZ: 957.5275
Instrument_type: LC-ESI-TOF
Instrument: impact HD
Ion_mode: N
Collision_energy: 30
InChIKey: WFRQIKSNAYYUJZ-BOZPSLMNSA-N
Formula: C48H78O19
MW: 958
ExactMass: 958.5137302759999
Comments: "license=License CC-BY-NC-SA 4.0 International" "author=Plant Biology, The Noble Foundation, Ardmore, OK, US/Dennis Fine, Daniel Wherritt, and Lloyd Sumner" "instrument type=LC-ESI-TOF" "instrument=impact HD" "ionization=ESI" "ionization mode=negative" "ms level=MS2" "precursor m/z=957.5275" "isolation width=5" "collision gas=Nitrogen" "collision energy=30" "peak width=0.015" "date=2014-08-07 02:53:36+02:00" "column=Waters Acquity BEH C18 1.7um x 2.1 x 150 mm" "retention time=1014.6" "raw data file=C:\Data\Confirmed standards 24_July_2014\MSMS\Z Lei std 28 May 2014_1-F,8_01_562.d" "precursor type=[M-H]-" "mass accuracy=21.979237149999385" "mass error=0.021045724000146038" "molecular formula=C48H78O19" "total exact mass=958.5137302759999" "SMILES=C1C(C(C2C(C1)(C3C(CC2)(C4(C(=CC3)C5C(CC4)(C(CC(C5)(C)C)O)C)C)C)C)(C)CO)OC6OC(C(C(C6OC7C(C(C(C(O7)CO)O)O)OC8OC(C(C(C8O)O)O)CO)O)O)C(=O)O" "InChI=InChI=1S/C48H78O19/c1-43(2)16-22-21-8-9-26-45(4)12-11-28(46(5,20-51)25(45)10-13-48(26,7)47(21,6)15-14-44(22,3)27(52)17-43)64-42-38(34(58)33(57)36(65-42)39(60)61)67-41-37(32(56)30(54)24(19-50)63-41)66-40-35(59)31(55)29(53)23(18-49)62-40/h8,22-38,40-42,49-59H,9-20H2,1-7H3,(H,60,61)/t22-,23-,24-,25+,26+,27+,28-,29-,30+,31+,32+,33+,34+,35-,36+,37-,38-,40+,41+,42?,44+,45-,46+,47+,48+/m0/s1" "InChIKey=WFRQIKSNAYYUJZ-BOZPSLMNSA-N"
Num Peaks: 5
 280 1.901902; 
 957 100.000000; 
 957 2.902903; 
 958 19.119119; 
 959 3.903904; 


Name: 3-Glc-Gal-GlcUA-Soyasapogenol B
SYNON: $:00in-source
DB#: MetaboBASE0416
InChIKey: WFRQIKSNAYYUJZ-BOZPSLMNSA-N
Instrument_type: LC-ESI-TOF
Instrument: impact HD
Ion_mode: N
Collision_energy: 10
InChIKey: WFRQIKSNAYYUJZ-BOZPSLMNSA-N
Formula: C48H78O19
MW: 958
ExactMass: 958.5137302759999
Comments: "license=License CC-BY-NC-SA 4.0 International" "author=Plant Biology, The Noble Foundation, Ardmore, OK, US/Dennis Fine, Daniel Wherritt, and Lloyd Sumner" "instrument type=LC-ESI-TOF" "instrument=impact HD" "ionization=ESI" "ionization mode=negative" "collision gas=Nitrogen" "collision energy=10" "peak width=0.018" "date=2013-11-12 19:07:40+01:00" "column=Waters Acquity BEH C18 1.7um x 2.1 x 150 mm" "retention time=1014.6" "raw data file=C:\Data\Confirmed Standards\Confirmed std 11Nov13\ZLei_Std_Mix_30_Oct_13_1966.d" "molecular formula=C48H78O19" "total exact mass=958.5137302759999" "SMILES=C1C(C(C2C(C1)(C3C(CC2)(C4(C(=CC3)C5C(CC4)(C(CC(C5)(C)C)O)C)C)C)C)(C)CO)OC6OC(C(C(C6OC7C(C(C(C(O7)CO)O)O)OC8OC(C(C(C8O)O)O)CO)O)O)C(=O)O" "InChI=InChI=1S/C48H78O19/c1-43(2)16-22-21-8-9-26-45(4)12-11-28(46(5,20-51)25(45)10-13-48(26,7)47(21,6)15-14-44(22,3)27(52)17-43)64-42-38(34(58)33(57)36(65-42)39(60)61)67-41-37(32(56)30(54)24(19-50)63-41)66-40-35(59)31(55)29(53)23(18-49)62-40/h8,22-38,40-42,49-59H,9-20H2,1-7H3,(H,60,61)/t22-,23-,24-,25+,26+,27+,28-,29-,30+,31+,32+,33+,34+,35-,36+,37-,38-,40+,41+,42?,44+,45-,46+,47+,48+/m0/s1" "InChIKey=WFRQIKSNAYYUJZ-BOZPSLMNSA-N"
Num Peaks: 17
 112 1.101101; 
 128 1.601602; 
 957 100.000000; 
 958 48.748749; 
 959 13.213213; 
 960 2.802803; 
 1003 4.304304; 
 1004 1.901902; 
 1025 10.410410; 
 1026 5.605606; 
 1027 1.601602; 
 1075 2.102102; 
 1076 1.701702; 
 1093 2.502503; 
 1094 1.601602; 
 1161 1.701702; 
 1229 1.201201; 


Name: 7-Hydroxy-2'-methoxyflavone
SYNON: $:00in-source
DB#: MetaboBASE0417
InChIKey: PFEQKIBOPJQNBI-UHFFFAOYSA-N
Instrument_type: LC-ESI-TOF
Instrument: impact HD
Ion_mode: N
InChIKey: PFEQKIBOPJQNBI-UHFFFAOYSA-N
Formula: C16H12O4
MW: 268
ExactMass: 268.073558864
Comments: "license=License CC-BY-NC-SA 4.0 International" "author=Plant Biology, The Noble Foundation, Ardmore, OK, US/Dennis Fine, Daniel Wherritt, and Lloyd Sumner" "instrument type=LC-ESI-TOF" "instrument=impact HD" "ionization=ESI" "ionization mode=negative" "collision gas=Nitrogen" "peak width=0.019" "date=2014-07-26 10:43:56+02:00" "column=Waters Acquity BEH C18 1.7um x 2.1 x 150 mm" "retention time=713.4" "raw data file=C:\Data\Confirmed standards 24_July_2014\MSMS\7Hydroxy2'methoxyflavon v120_1-C,1_01_498.d" "cas number=77298-65-8" "SMILES=COc1ccccc1c2cc(=O)c3ccc(cc3o2)O" "InChI=InChI=1S/C16H12O4/c1-19-14-5-3-2-4-12(14)16-9-13(18)11-7-6-10(17)8-15(11)20-16/h2-9,17H,1H3" "InChIKey=PFEQKIBOPJQNBI-UHFFFAOYSA-N" "molecular formula=C16H12O4" "total exact mass=268.073558864" "SMILES=O=C1C=2C(OC(=C1)C=3C=CC=CC3OC)=CC(O)=CC2"
Num Peaks: 11
 224 0.100100; 
 251 0.300300; 
 252 1.601602; 
 253 0.300300; 
 267 0.300300; 
 267 100.000000; 
 267 0.300300; 
 267 0.400400; 
 268 14.414414; 
 269 1.701702; 
 270 0.200200; 


Name: 7-Hydroxy-2'-methoxyflavone
SYNON: $:00in-source
DB#: MetaboBASE0418
InChIKey: PFEQKIBOPJQNBI-UHFFFAOYSA-N
Precursor_type: [M-H]-
Spectrum_type: MS2
PrecursorMZ: 267.0624
Instrument_type: LC-ESI-TOF
Instrument: impact HD
Ion_mode: N
Collision_energy: 10
InChIKey: PFEQKIBOPJQNBI-UHFFFAOYSA-N
Formula: C16H12O4
MW: 268
ExactMass: 268.073558864
Comments: "license=License CC-BY-NC-SA 4.0 International" "author=Plant Biology, The Noble Foundation, Ardmore, OK, US/Dennis Fine, Daniel Wherritt, and Lloyd Sumner" "instrument type=LC-ESI-TOF" "instrument=impact HD" "ionization=ESI" "ionization mode=negative" "ms level=MS2" "precursor m/z=267.0624" "isolation width=5" "collision gas=Nitrogen" "collision energy=10" "peak width=0.011" "date=2014-07-26 10:43:56+02:00" "column=Waters Acquity BEH C18 1.7um x 2.1 x 150 mm" "retention time=713.4" "raw data file=C:\Data\Confirmed standards 24_July_2014\MSMS\7Hydroxy2'methoxyflavon v120_1-C,1_01_498.d" "precursor type=[M-H]-" "mass accuracy=14.53916388076571" "mass error=-0.0038828639999906045" "cas number=77298-65-8" "SMILES=COc1ccccc1c2cc(=O)c3ccc(cc3o2)O" "InChI=InChI=1S/C16H12O4/c1-19-14-5-3-2-4-12(14)16-9-13(18)11-7-6-10(17)8-15(11)20-16/h2-9,17H,1H3" "InChIKey=PFEQKIBOPJQNBI-UHFFFAOYSA-N" "molecular formula=C16H12O4" "total exact mass=268.073558864" "SMILES=O=C1C=2C(OC(=C1)C=3C=CC=CC3OC)=CC(O)=CC2"
Num Peaks: 8
 224 0.400400; 
 251 1.701702; 
 252 4.804805; 
 253 0.400400; 
 267 100.000000; 
 267 0.200200; 
 268 11.311311; 
 269 0.700701; 


Name: 7-Hydroxy-2'-methoxyflavone
SYNON: $:00in-source
DB#: MetaboBASE0419
InChIKey: PFEQKIBOPJQNBI-UHFFFAOYSA-N
Instrument_type: LC-ESI-TOF
Instrument: impact HD
Ion_mode: N
Collision_energy: 10
InChIKey: PFEQKIBOPJQNBI-UHFFFAOYSA-N
Formula: C16H12O4
MW: 268
ExactMass: 268.073558864
Comments: "license=License CC-BY-NC-SA 4.0 International" "author=Plant Biology, The Noble Foundation, Ardmore, OK, US/Dennis Fine, Daniel Wherritt, and Lloyd Sumner" "instrument type=LC-ESI-TOF" "instrument=impact HD" "ionization=ESI" "ionization mode=negative" "collision gas=Nitrogen" "collision energy=10" "peak width=0.014" "date=2013-11-19 08:25:02+01:00" "column=Waters Acquity BEH C18 1.7um x 2.1 x 150 mm" "retention time=713.4" "raw data file=C:\Data\Confirmed Standards\Confirmed stds MSMS 14Nov13\7Hydroxy2'methoxyflavone v120.d" "cas number=77298-65-8" "SMILES=COc1ccccc1c2cc(=O)c3ccc(cc3o2)O" "InChI=InChI=1S/C16H12O4/c1-19-14-5-3-2-4-12(14)16-9-13(18)11-7-6-10(17)8-15(11)20-16/h2-9,17H,1H3" "InChIKey=PFEQKIBOPJQNBI-UHFFFAOYSA-N" "molecular formula=C16H12O4" "total exact mass=268.073558864" "SMILES=O=C1C=2C(OC(=C1)C=3C=CC=CC3OC)=CC(O)=CC2"
Num Peaks: 5
 251 1.501502; 
 252 5.505506; 
 267 100.000000; 
 268 16.116116; 
 269 1.601602; 


Name: 7-Hydroxy-2'-methoxyflavone
SYNON: $:00in-source
DB#: MetaboBASE0420
InChIKey: PFEQKIBOPJQNBI-UHFFFAOYSA-N
Precursor_type: [M-H]-
Spectrum_type: MS2
PrecursorMZ: 267.0611
Instrument_type: LC-ESI-TOF
Instrument: impact HD
Ion_mode: N
Collision_energy: 30
InChIKey: PFEQKIBOPJQNBI-UHFFFAOYSA-N
Formula: C16H12O4
MW: 268
ExactMass: 268.073558864
Comments: "license=License CC-BY-NC-SA 4.0 International" "author=Plant Biology, The Noble Foundation, Ardmore, OK, US/Dennis Fine, Daniel Wherritt, and Lloyd Sumner" "instrument type=LC-ESI-TOF" "instrument=impact HD" "ionization=ESI" "ionization mode=negative" "ms level=MS2" "precursor m/z=267.0611" "isolation width=5" "collision gas=Nitrogen" "collision energy=30" "peak width=0.012" "date=2014-07-26 10:43:56+02:00" "column=Waters Acquity BEH C18 1.7um x 2.1 x 150 mm" "retention time=713.4" "raw data file=C:\Data\Confirmed standards 24_July_2014\MSMS\7Hydroxy2'methoxyflavon v120_1-C,1_01_498.d" "precursor type=[M-H]-" "mass accuracy=19.40703457001165" "mass error=-0.005182864000005338" "cas number=77298-65-8" "SMILES=COc1ccccc1c2cc(=O)c3ccc(cc3o2)O" "InChI=InChI=1S/C16H12O4/c1-19-14-5-3-2-4-12(14)16-9-13(18)11-7-6-10(17)8-15(11)20-16/h2-9,17H,1H3" "InChIKey=PFEQKIBOPJQNBI-UHFFFAOYSA-N" "molecular formula=C16H12O4" "total exact mass=268.073558864" "SMILES=O=C1C=2C(OC(=C1)C=3C=CC=CC3OC)=CC(O)=CC2"
Num Peaks: 212
 116 0.100100; 
 117 2.902903; 
 118 0.200200; 
 131 0.700701; 
 132 3.803804; 
 133 2.602603; 
 134 0.200200; 
 135 0.700701; 
 147 0.100100; 
 152 0.200200; 
 154 0.900901; 
 167 0.300300; 
 168 0.200200; 
 179 1.101101; 
 180 5.605606; 
 181 0.500501; 
 183 0.500501; 
 195 3.203203; 
 196 4.104104; 
 197 0.400400; 
 207 1.001001; 
 208 6.706707; 
 209 0.900901; 
 211 1.601602; 
 212 0.100100; 
 213 0.100100; 
 222 0.200200; 
 223 11.111111; 
 223 0.100100; 
 224 44.144144; 
 225 5.005005; 
 226 0.300300; 
 235 0.500501; 
 250 0.500501; 
 251 100.000000; 
 252 39.939940; 
 253 4.504505; 
 254 0.300300; 
 267 7.007007; 
 268 1.101101; 
 839 0.100100; 
 859 0.100100; 
 859 0.100100; 
 871 0.100100; 
 881 0.100100; 
 901 0.100100; 
 925 0.100100; 
 930 0.100100; 
 934 0.100100; 
 942 0.100100; 
 947 0.100100; 
 950 0.100100; 
 955 0.100100; 
 957 0.100100; 
 965 0.100100; 
 974 0.100100; 
 975 0.100100; 
 980 0.100100; 
 996 0.100100; 
 1001 0.100100; 
 1004 0.100100; 
 1005 0.100100; 
 1014 0.100100; 
 1016 0.100100; 
 1017 0.100100; 
 1025 0.100100; 
 1026 0.100100; 
 1027 0.100100; 
 1049 0.100100; 
 1054 0.100100; 
 1063 0.100100; 
 1063 0.100100; 
 1067 0.100100; 
 1071 0.100100; 
 1080 0.100100; 
 1080 0.100100; 
 1089 0.100100; 
 1094 0.100100; 
 1102 0.100100; 
 1109 0.100100; 
 1118 0.100100; 
 1118 0.100100; 
 1121 0.100100; 
 1123 0.100100; 
 1127 0.100100; 
 1127 0.100100; 
 1140 0.100100; 
 1145 0.100100; 
 1145 0.100100; 
 1147 0.100100; 
 1148 0.100100; 
 1149 0.100100; 
 1152 0.100100; 
 1160 0.100100; 
 1162 0.100100; 
 1174 0.100100; 
 1175 0.100100; 
 1176 0.100100; 
 1179 0.100100; 
 1180 0.100100; 
 1180 0.100100; 
 1183 0.100100; 
 1185 0.100100; 
 1188 0.100100; 
 1188 0.100100; 
 1193 0.100100; 
 1197 0.100100; 
 1202 0.100100; 
 1204 0.100100; 
 1219 0.100100; 
 1227 0.100100; 
 1228 0.100100; 
 1231 0.100100; 
 1232 0.100100; 
 1233 0.100100; 
 1240 0.100100; 
 1244 0.100100; 
 1256 0.100100; 
 1262 0.100100; 
 1264 0.100100; 
 1269 0.100100; 
 1270 0.100100; 
 1271 0.100100; 
 1275 0.100100; 
 1275 0.100100; 
 1279 0.100100; 
 1283 0.100100; 
 1283 0.100100; 
 1285 0.100100; 
 1288 0.100100; 
 1288 0.100100; 
 1290 0.100100; 
 1291 0.100100; 
 1293 0.100100; 
 1295 0.100100; 
 1297 0.100100; 
 1297 0.100100; 
 1300 0.100100; 
 1304 0.100100; 
 1304 0.100100; 
 1309 0.100100; 
 1309 0.100100; 
 1309 0.100100; 
 1310 0.100100; 
 1313 0.100100; 
 1314 0.100100; 
 1315 0.100100; 
 1315 0.100100; 
 1318 0.100100; 
 1322 0.100100; 
 1328 0.100100; 
 1330 0.100100; 
 1332 0.100100; 
 1332 0.100100; 
 1334 0.100100; 
 1337 0.100100; 
 1338 0.100100; 
 1338 0.100100; 
 1338 0.100100; 
 1342 0.100100; 
 1346 0.100100; 
 1353 0.100100; 
 1357 0.100100; 
 1362 0.100100; 
 1370 0.100100; 
 1371 0.100100; 
 1372 0.100100; 
 1373 0.100100; 
 1379 0.100100; 
 1379 0.100100; 
 1380 0.100100; 
 1380 0.100100; 
 1380 0.100100; 
 1385 0.100100; 
 1388 0.100100; 
 1389 0.100100; 
 1391 0.100100; 
 1395 0.100100; 
 1402 0.100100; 
 1403 0.100100; 
 1407 0.100100; 
 1418 0.100100; 
 1421 0.100100; 
 1424 0.100100; 
 1431 0.100100; 
 1433 0.100100; 
 1434 0.100100; 
 1437 0.100100; 
 1437 0.100100; 
 1441 0.100100; 
 1442 0.100100; 
 1444 0.100100; 
 1448 0.100100; 
 1457 0.100100; 
 1459 0.100100; 
 1460 0.100100; 
 1461 0.100100; 
 1468 0.100100; 
 1468 0.100100; 
 1468 0.100100; 
 1472 0.100100; 
 1476 0.100100; 
 1479 0.100100; 
 1482 0.100100; 
 1489 0.100100; 
 1493 0.100100; 
 1497 0.100100; 
 1498 0.100100; 
 1498 0.100100; 
 1500 0.100100; 
 1504 0.100100; 
 1504 0.100100; 


Name: 7-Hydroxy-2'-methoxyflavone
SYNON: $:00in-source
DB#: MetaboBASE0421
InChIKey: PFEQKIBOPJQNBI-UHFFFAOYSA-N
Precursor_type: [M-H]-
Spectrum_type: MS2
PrecursorMZ: 267.0623
Instrument_type: LC-ESI-TOF
Instrument: impact HD
Ion_mode: N
Collision_energy: 20
InChIKey: PFEQKIBOPJQNBI-UHFFFAOYSA-N
Formula: C16H12O4
MW: 268
ExactMass: 268.073558864
Comments: "license=License CC-BY-NC-SA 4.0 International" "author=Plant Biology, The Noble Foundation, Ardmore, OK, US/Dennis Fine, Daniel Wherritt, and Lloyd Sumner" "instrument type=LC-ESI-TOF" "instrument=impact HD" "ionization=ESI" "ionization mode=negative" "ms level=MS2" "precursor m/z=267.0623" "isolation width=5" "collision gas=Nitrogen" "collision energy=20" "peak width=0.013" "date=2014-07-26 10:43:56+02:00" "column=Waters Acquity BEH C18 1.7um x 2.1 x 150 mm" "retention time=713.4" "raw data file=C:\Data\Confirmed standards 24_July_2014\MSMS\7Hydroxy2'methoxyflavon v120_1-C,1_01_498.d" "precursor type=[M-H]-" "mass accuracy=14.913613789824868" "mass error=-0.003982864000022346" "cas number=77298-65-8" "SMILES=COc1ccccc1c2cc(=O)c3ccc(cc3o2)O" "InChI=InChI=1S/C16H12O4/c1-19-14-5-3-2-4-12(14)16-9-13(18)11-7-6-10(17)8-15(11)20-16/h2-9,17H,1H3" "InChIKey=PFEQKIBOPJQNBI-UHFFFAOYSA-N" "molecular formula=C16H12O4" "total exact mass=268.073558864" "SMILES=O=C1C=2C(OC(=C1)C=3C=CC=CC3OC)=CC(O)=CC2"
Num Peaks: 124
 117 0.100100; 
 131 0.300300; 
 132 0.400400; 
 133 0.100100; 
 135 0.200200; 
 154 0.100100; 
 180 1.001001; 
 183 0.100100; 
 195 0.500501; 
 196 0.500501; 
 197 0.100100; 
 207 0.100100; 
 208 2.502503; 
 209 0.300300; 
 211 0.400400; 
 223 2.202202; 
 223 0.200200; 
 224 13.113113; 
 225 1.701702; 
 235 0.100100; 
 251 41.741742; 
 252 88.188188; 
 253 9.009009; 
 254 0.600601; 
 267 100.000000; 
 268 12.712713; 
 269 0.800801; 
 911 0.100100; 
 959 0.100100; 
 978 0.100100; 
 994 0.100100; 
 1007 0.100100; 
 1013 0.100100; 
 1077 0.100100; 
 1097 0.100100; 
 1099 0.100100; 
 1125 0.100100; 
 1135 0.100100; 
 1156 0.100100; 
 1163 0.100100; 
 1165 0.100100; 
 1172 0.100100; 
 1176 0.100100; 
 1178 0.100100; 
 1185 0.100100; 
 1191 0.100100; 
 1192 0.100100; 
 1196 0.100100; 
 1200 0.100100; 
 1208 0.100100; 
 1210 0.100100; 
 1218 0.100100; 
 1234 0.100100; 
 1237 0.100100; 
 1237 0.100100; 
 1243 0.100100; 
 1244 0.100100; 
 1246 0.100100; 
 1248 0.100100; 
 1251 0.100100; 
 1251 0.100100; 
 1269 0.100100; 
 1272 0.100100; 
 1276 0.100100; 
 1276 0.100100; 
 1279 0.100100; 
 1288 0.100100; 
 1311 0.100100; 
 1314 0.100100; 
 1315 0.100100; 
 1315 0.100100; 
 1316 0.100100; 
 1322 0.100100; 
 1324 0.100100; 
 1325 0.100100; 
 1343 0.100100; 
 1344 0.100100; 
 1359 0.100100; 
 1362 0.100100; 
 1366 0.100100; 
 1366 0.100100; 
 1367 0.100100; 
 1368 0.100100; 
 1373 0.100100; 
 1376 0.100100; 
 1377 0.100100; 
 1380 0.100100; 
 1385 0.100100; 
 1388 0.100100; 
 1388 0.100100; 
 1390 0.100100; 
 1390 0.100100; 
 1398 0.100100; 
 1402 0.100100; 
 1404 0.100100; 
 1404 0.100100; 
 1408 0.100100; 
 1419 0.100100; 
 1423 0.100100; 
 1424 0.100100; 
 1427 0.100100; 
 1427 0.100100; 
 1428 0.100100; 
 1436 0.100100; 
 1439 0.100100; 
 1443 0.100100; 
 1444 0.100100; 
 1444 0.100100; 
 1445 0.100100; 
 1451 0.100100; 
 1454 0.100100; 
 1455 0.100100; 
 1458 0.100100; 
 1459 0.100100; 
 1460 0.100100; 
 1461 0.100100; 
 1475 0.100100; 
 1475 0.100100; 
 1477 0.100100; 
 1480 0.100100; 
 1482 0.100100; 
 1485 0.100100; 
 1501 0.100100; 
 1504 0.100100; 


Name: 7-Hydroxy-2'-methoxyflavone
SYNON: $:00in-source
DB#: MetaboBASE0422
InChIKey: PFEQKIBOPJQNBI-UHFFFAOYSA-N
Precursor_type: [M-H]-
Spectrum_type: MS2
PrecursorMZ: 267.07
Instrument_type: LC-ESI-TOF
Instrument: impact HD
Ion_mode: N
Collision_energy: 50
InChIKey: PFEQKIBOPJQNBI-UHFFFAOYSA-N
Formula: C16H12O4
MW: 268
ExactMass: 268.073558864
Comments: "license=License CC-BY-NC-SA 4.0 International" "author=Plant Biology, The Noble Foundation, Ardmore, OK, US/Dennis Fine, Daniel Wherritt, and Lloyd Sumner" "instrument type=LC-ESI-TOF" "instrument=impact HD" "ionization=ESI" "ionization mode=negative" "ms level=MS2" "precursor m/z=267.07" "isolation width=5" "collision gas=Nitrogen" "collision energy=50" "peak width=0.016" "date=2014-07-26 10:43:56+02:00" "column=Waters Acquity BEH C18 1.7um x 2.1 x 150 mm" "retention time=713.4" "raw data file=C:\Data\Confirmed standards 24_July_2014\MSMS\7Hydroxy2'methoxyflavon v120_1-C,1_01_498.d" "precursor type=[M-H]-" "mass accuracy=13.91820870924279" "mass error=0.0037171359999774722" "cas number=77298-65-8" "SMILES=COc1ccccc1c2cc(=O)c3ccc(cc3o2)O" "InChI=InChI=1S/C16H12O4/c1-19-14-5-3-2-4-12(14)16-9-13(18)11-7-6-10(17)8-15(11)20-16/h2-9,17H,1H3" "InChIKey=PFEQKIBOPJQNBI-UHFFFAOYSA-N" "molecular formula=C16H12O4" "total exact mass=268.073558864" "SMILES=O=C1C=2C(OC(=C1)C=3C=CC=CC3OC)=CC(O)=CC2"
Num Peaks: 223
 116 4.804805; 
 117 100.000000; 
 118 6.906907; 
 125 0.600601; 
 129 0.500501; 
 131 0.700701; 
 132 10.010010; 
 133 57.557558; 
 133 0.400400; 
 134 3.003003; 
 135 6.206206; 
 139 2.102102; 
 141 1.101101; 
 142 0.400400; 
 151 2.402402; 
 152 0.900901; 
 153 0.600601; 
 153 0.900901; 
 154 4.004004; 
 155 0.700701; 
 157 3.303303; 
 163 0.700701; 
 166 0.500501; 
 167 17.917918; 
 168 2.102102; 
 169 0.600601; 
 169 1.701702; 
 170 0.900901; 
 178 0.600601; 
 179 12.212212; 
 180 6.506507; 
 181 1.601602; 
 181 0.900901; 
 182 1.001001; 
 183 2.502503; 
 184 0.400400; 
 194 1.501502; 
 195 58.058058; 
 196 7.407407; 
 197 1.601602; 
 198 0.500501; 
 207 13.113113; 
 208 2.002002; 
 210 0.800801; 
 211 2.202202; 
 212 0.400400; 
 213 1.601602; 
 222 7.407407; 
 223 43.543544; 
 224 12.012012; 
 225 1.501502; 
 235 0.900901; 
 250 3.803804; 
 251 49.549550; 
 252 7.207207; 
 253 0.400400; 
 517 0.400400; 
 570 0.400400; 
 584 0.400400; 
 621 0.400400; 
 645 0.400400; 
 653 0.400400; 
 663 0.400400; 
 667 0.400400; 
 687 0.400400; 
 687 0.400400; 
 699 0.400400; 
 707 0.500501; 
 718 0.400400; 
 720 0.400400; 
 729 0.500501; 
 755 0.400400; 
 760 0.400400; 
 770 0.400400; 
 782 0.500501; 
 790 0.400400; 
 805 0.400400; 
 810 0.400400; 
 819 0.400400; 
 822 0.400400; 
 824 0.400400; 
 825 0.400400; 
 828 0.400400; 
 829 0.400400; 
 835 0.400400; 
 843 0.500501; 
 855 0.400400; 
 855 0.400400; 
 855 0.400400; 
 856 0.400400; 
 858 0.400400; 
 858 0.500501; 
 875 0.400400; 
 880 0.400400; 
 881 0.500501; 
 886 0.400400; 
 886 0.400400; 
 890 0.400400; 
 891 0.400400; 
 898 0.400400; 
 907 0.400400; 
 917 0.400400; 
 923 0.500501; 
 935 0.400400; 
 935 0.400400; 
 937 0.500501; 
 940 0.400400; 
 940 0.400400; 
 944 0.400400; 
 946 0.500501; 
 947 0.400400; 
 948 0.400400; 
 948 0.400400; 
 962 0.400400; 
 964 0.400400; 
 968 0.500501; 
 968 0.400400; 
 973 0.400400; 
 982 0.400400; 
 983 0.400400; 
 987 0.400400; 
 987 0.400400; 
 989 0.400400; 
 992 0.500501; 
 997 0.400400; 
 1000 0.400400; 
 1000 0.400400; 
 1005 0.400400; 
 1014 0.400400; 
 1019 0.500501; 
 1023 0.400400; 
 1045 0.500501; 
 1048 0.400400; 
 1053 0.400400; 
 1054 0.400400; 
 1067 0.400400; 
 1071 0.400400; 
 1072 0.400400; 
 1091 0.400400; 
 1102 0.400400; 
 1102 0.400400; 
 1110 0.400400; 
 1119 0.400400; 
 1120 0.400400; 
 1126 0.400400; 
 1137 0.400400; 
 1137 0.400400; 
 1154 0.400400; 
 1155 0.400400; 
 1161 0.400400; 
 1162 0.500501; 
 1164 0.400400; 
 1164 0.400400; 
 1166 0.400400; 
 1183 0.400400; 
 1190 0.400400; 
 1191 0.400400; 
 1192 0.400400; 
 1194 0.400400; 
 1202 0.400400; 
 1211 0.500501; 
 1213 0.600601; 
 1215 0.400400; 
 1216 0.500501; 
 1216 0.400400; 
 1216 0.400400; 
 1220 0.400400; 
 1221 0.400400; 
 1242 0.400400; 
 1248 0.400400; 
 1251 0.400400; 
 1255 0.400400; 
 1256 0.400400; 
 1261 0.400400; 
 1268 0.600601; 
 1271 0.400400; 
 1274 0.500501; 
 1277 0.400400; 
 1278 0.400400; 
 1280 0.400400; 
 1302 0.400400; 
 1318 0.400400; 
 1318 0.400400; 
 1323 0.500501; 
 1326 0.400400; 
 1329 0.400400; 
 1329 0.400400; 
 1336 0.400400; 
 1341 0.500501; 
 1344 0.400400; 
 1349 0.400400; 
 1350 0.400400; 
 1356 0.400400; 
 1360 0.400400; 
 1372 0.400400; 
 1375 0.400400; 
 1375 0.500501; 
 1375 0.400400; 
 1376 0.500501; 
 1376 0.400400; 
 1377 0.400400; 
 1400 0.400400; 
 1401 0.400400; 
 1407 0.400400; 
 1407 0.400400; 
 1411 0.400400; 
 1416 0.400400; 
 1417 0.400400; 
 1422 0.400400; 
 1431 0.400400; 
 1442 0.400400; 
 1453 0.400400; 
 1458 0.400400; 
 1459 0.400400; 
 1462 0.400400; 
 1464 0.400400; 
 1468 0.400400; 
 1470 0.400400; 
 1477 0.400400; 
 1480 0.400400; 
 1483 0.600601; 
 1486 0.400400; 
 1494 0.400400; 


Name: 7-Hydroxy-2'-methoxyflavone
SYNON: $:00in-source
DB#: MetaboBASE0423
InChIKey: PFEQKIBOPJQNBI-UHFFFAOYSA-N
Precursor_type: [M-H]-
Spectrum_type: MS2
PrecursorMZ: 267.0609
Instrument_type: LC-ESI-TOF
Instrument: impact HD
Ion_mode: N
Collision_energy: 40
InChIKey: PFEQKIBOPJQNBI-UHFFFAOYSA-N
Formula: C16H12O4
MW: 268
ExactMass: 268.073558864
Comments: "license=License CC-BY-NC-SA 4.0 International" "author=Plant Biology, The Noble Foundation, Ardmore, OK, US/Dennis Fine, Daniel Wherritt, and Lloyd Sumner" "instrument type=LC-ESI-TOF" "instrument=impact HD" "ionization=ESI" "ionization mode=negative" "ms level=MS2" "precursor m/z=267.0609" "isolation width=5" "collision gas=Nitrogen" "collision energy=40" "peak width=0.0094" "date=2014-07-26 10:43:56+02:00" "column=Waters Acquity BEH C18 1.7um x 2.1 x 150 mm" "retention time=713.4" "raw data file=C:\Data\Confirmed standards 24_July_2014\MSMS\7Hydroxy2'methoxyflavon v120_1-C,1_01_498.d" "precursor type=[M-H]-" "mass accuracy=20.15594195935076" "mass error=-0.005382864000011978" "cas number=77298-65-8" "SMILES=COc1ccccc1c2cc(=O)c3ccc(cc3o2)O" "InChI=InChI=1S/C16H12O4/c1-19-14-5-3-2-4-12(14)16-9-13(18)11-7-6-10(17)8-15(11)20-16/h2-9,17H,1H3" "InChIKey=PFEQKIBOPJQNBI-UHFFFAOYSA-N" "molecular formula=C16H12O4" "total exact mass=268.073558864" "SMILES=O=C1C=2C(OC(=C1)C=3C=CC=CC3OC)=CC(O)=CC2"
Num Peaks: 215
 108 0.200200; 
 116 1.601602; 
 117 31.531532; 
 118 1.801802; 
 130 0.200200; 
 131 0.600601; 
 132 8.408408; 
 133 21.921922; 
 134 1.501502; 
 135 3.303303; 
 139 0.200200; 
 144 0.200200; 
 151 0.400400; 
 152 0.500501; 
 153 0.300300; 
 154 2.502503; 
 155 0.300300; 
 157 0.500501; 
 167 2.902903; 
 168 0.800801; 
 169 0.400400; 
 175 0.200200; 
 179 5.205205; 
 180 8.908909; 
 181 0.200200; 
 181 1.101101; 
 182 0.300300; 
 183 1.201201; 
 195 18.018018; 
 196 5.405405; 
 197 1.101101; 
 207 7.007007; 
 208 4.404404; 
 209 0.400400; 
 211 2.102102; 
 212 0.300300; 
 213 0.900901; 
 222 2.002002; 
 223 34.034034; 
 224 34.534535; 
 225 4.204204; 
 226 0.200200; 
 235 1.001001; 
 250 2.302302; 
 251 100.000000; 
 252 14.614615; 
 253 1.001001; 
 267 0.300300; 
 606 0.200200; 
 668 0.200200; 
 715 0.200200; 
 744 0.200200; 
 776 0.200200; 
 789 0.200200; 
 805 0.200200; 
 814 0.200200; 
 815 0.200200; 
 828 0.200200; 
 833 0.200200; 
 847 0.200200; 
 853 0.200200; 
 877 0.200200; 
 888 0.200200; 
 888 0.200200; 
 897 0.200200; 
 900 0.200200; 
 900 0.200200; 
 902 0.200200; 
 904 0.200200; 
 914 0.200200; 
 916 0.200200; 
 921 0.200200; 
 922 0.200200; 
 932 0.200200; 
 934 0.200200; 
 942 0.200200; 
 945 0.200200; 
 949 0.200200; 
 953 0.200200; 
 958 0.200200; 
 959 0.200200; 
 965 0.200200; 
 1001 0.200200; 
 1007 0.200200; 
 1009 0.200200; 
 1011 0.200200; 
 1011 0.200200; 
 1012 0.200200; 
 1012 0.200200; 
 1013 0.200200; 
 1014 0.200200; 
 1014 0.200200; 
 1015 0.200200; 
 1022 0.200200; 
 1026 0.200200; 
 1028 0.200200; 
 1028 0.200200; 
 1030 0.200200; 
 1031 0.200200; 
 1035 0.200200; 
 1038 0.200200; 
 1039 0.200200; 
 1041 0.200200; 
 1042 0.200200; 
 1042 0.200200; 
 1055 0.200200; 
 1056 0.200200; 
 1057 0.200200; 
 1060 0.200200; 
 1067 0.200200; 
 1069 0.200200; 
 1070 0.200200; 
 1072 0.200200; 
 1094 0.200200; 
 1094 0.200200; 
 1095 0.200200; 
 1098 0.200200; 
 1100 0.200200; 
 1101 0.200200; 
 1103 0.200200; 
 1114 0.200200; 
 1116 0.200200; 
 1119 0.200200; 
 1122 0.200200; 
 1123 0.200200; 
 1129 0.200200; 
 1134 0.200200; 
 1146 0.200200; 
 1149 0.200200; 
 1157 0.200200; 
 1157 0.200200; 
 1166 0.200200; 
 1171 0.200200; 
 1177 0.200200; 
 1180 0.200200; 
 1182 0.200200; 
 1185 0.200200; 
 1191 0.200200; 
 1193 0.200200; 
 1201 0.200200; 
 1201 0.200200; 
 1202 0.200200; 
 1206 0.200200; 
 1207 0.200200; 
 1208 0.200200; 
 1212 0.200200; 
 1214 0.200200; 
 1218 0.200200; 
 1222 0.200200; 
 1232 0.200200; 
 1236 0.200200; 
 1246 0.200200; 
 1250 0.200200; 
 1250 0.200200; 
 1259 0.200200; 
 1259 0.200200; 
 1263 0.200200; 
 1264 0.200200; 
 1275 0.200200; 
 1278 0.200200; 
 1295 0.200200; 
 1301 0.200200; 
 1310 0.200200; 
 1315 0.200200; 
 1317 0.200200; 
 1324 0.200200; 
 1325 0.200200; 
 1335 0.200200; 
 1336 0.200200; 
 1342 0.200200; 
 1345 0.200200; 
 1346 0.200200; 
 1347 0.200200; 
 1351 0.200200; 
 1355 0.200200; 
 1366 0.200200; 
 1368 0.200200; 
 1376 0.200200; 
 1379 0.200200; 
 1383 0.200200; 
 1383 0.300300; 
 1385 0.200200; 
 1385 0.200200; 
 1386 0.200200; 
 1397 0.200200; 
 1407 0.200200; 
 1410 0.200200; 
 1420 0.200200; 
 1421 0.200200; 
 1426 0.200200; 
 1428 0.200200; 
 1435 0.200200; 
 1438 0.200200; 
 1438 0.200200; 
 1440 0.200200; 
 1441 0.200200; 
 1442 0.200200; 
 1442 0.200200; 
 1446 0.200200; 
 1446 0.200200; 
 1452 0.200200; 
 1453 0.200200; 
 1456 0.200200; 
 1457 0.200200; 
 1458 0.200200; 
 1461 0.200200; 
 1470 0.200200; 
 1470 0.200200; 
 1475 0.200200; 
 1479 0.200200; 
 1481 0.200200; 
 1490 0.200200; 
 1495 0.200200; 
 1497 0.200200; 
 1504 0.200200; 


Name: Epicatechin
SYNON: $:00in-source
DB#: MetaboBASE0424
InChIKey: PFTAWBLQPZVEMU-UKRRQHHQSA-N
Instrument_type: LC-ESI-TOF
Instrument: impact HD
Ion_mode: N
InChIKey: PFTAWBLQPZVEMU-UKRRQHHQSA-N
Formula: C15H14O6
MW: 290
ExactMass: 290.079038168
Comments: "synonym=(-) Epicatechin" "license=License CC-BY-NC-SA 4.0 International" "author=Plant Biology, The Noble Foundation, Ardmore, OK, US/Dennis Fine, Daniel Wherritt, and Lloyd Sumner" "instrument type=LC-ESI-TOF" "instrument=impact HD" "ionization=ESI" "ionization mode=negative" "collision gas=Nitrogen" "peak width=0.012" "date=2014-01-11 03:57:32+01:00" "column=Waters Acquity BEH C18 1.7um x 2.1 x 150 mm" "retention time=175.2" "raw data file=C:\Data\Confirmed Standards\14Jan10 Confirmed stds MSMS\Epicatechin (vial 249).d" "cas number=2545-08-6" "SMILES=c1cc(c(cc1[C@@H]2[C@@H](Cc3c(cc(cc3O2)O)O)O)O)O" "InChI=InChI=1S/C15H14O6/c16-8-4-11(18)9-6-13(20)15(21-14(9)5-8)7-1-2-10(17)12(19)3-7/h1-5,13,15-20H,6H2/t13-,15-/m1/s1" "InChIKey=PFTAWBLQPZVEMU-UKRRQHHQSA-N" "molecular formula=C15H14O6" "total exact mass=290.079038168" "SMILES=C1C(C(OC2=CC(=CC(=C21)O)O)C3=CC(=C(C=C3)O)O)O" "InChI=InChI=1S/C15H14O6/c16-8-4-11(18)9-6-13(20)15(21-14(9)5-8)7-1-2-10(17)12(19)3-7/h1-5,13,15-20H,6H2" "InChIKey=PFTAWBLQPZVEMU-UHFFFAOYSA-N"
Num Peaks: 15
 287 28.628629; 
 288 2.902903; 
 289 100.000000; 
 290 12.112112; 
 575 2.302302; 
 577 26.126126; 
 578 5.805806; 
 579 52.052052; 
 580 13.713714; 
 581 2.302302; 
 867 9.109109; 
 868 4.004004; 
 869 7.407407; 
 870 3.303303; 
 1157 2.102102; 


Name: Epicatechin
SYNON: $:00in-source
DB#: MetaboBASE0425
InChIKey: PFTAWBLQPZVEMU-UKRRQHHQSA-N
Precursor_type: [M-H]-
Spectrum_type: MS2
PrecursorMZ: 289.0722
Instrument_type: LC-ESI-TOF
Instrument: impact HD
Ion_mode: N
Collision_energy: 20
InChIKey: PFTAWBLQPZVEMU-UKRRQHHQSA-N
Formula: C15H14O6
MW: 290
ExactMass: 290.079038168
Comments: "synonym=(-) Epicatechin" "license=License CC-BY-NC-SA 4.0 International" "author=Plant Biology, The Noble Foundation, Ardmore, OK, US/Dennis Fine, Daniel Wherritt, and Lloyd Sumner" "instrument type=LC-ESI-TOF" "instrument=impact HD" "ionization=ESI" "ionization mode=negative" "ms level=MS2" "precursor m/z=289.0722" "isolation width=5" "collision gas=Nitrogen" "collision energy=20" "peak width=0.016" "date=2014-01-11 03:57:32+01:00" "column=Waters Acquity BEH C18 1.7um x 2.1 x 150 mm" "retention time=175.2" "raw data file=C:\Data\Confirmed Standards\14Jan10 Confirmed stds MSMS\Epicatechin (vial 249).d" "precursor type=[M-H]-" "mass accuracy=1.5146112285743927" "mass error=4.378319999887026E-4" "cas number=2545-08-6" "SMILES=c1cc(c(cc1[C@@H]2[C@@H](Cc3c(cc(cc3O2)O)O)O)O)O" "InChI=InChI=1S/C15H14O6/c16-8-4-11(18)9-6-13(20)15(21-14(9)5-8)7-1-2-10(17)12(19)3-7/h1-5,13,15-20H,6H2/t13-,15-/m1/s1" "InChIKey=PFTAWBLQPZVEMU-UKRRQHHQSA-N" "molecular formula=C15H14O6" "total exact mass=290.079038168" "SMILES=C1C(C(OC2=CC(=CC(=C21)O)O)C3=CC(=C(C=C3)O)O)O" "InChI=InChI=1S/C15H14O6/c16-8-4-11(18)9-6-13(20)15(21-14(9)5-8)7-1-2-10(17)12(19)3-7/h1-5,13,15-20H,6H2" "InChIKey=PFTAWBLQPZVEMU-UHFFFAOYSA-N"
Num Peaks: 17
 109 86.886887; 
 121 15.515516; 
 123 39.539540; 
 125 78.678679; 
 137 48.748749; 
 149 34.534535; 
 151 40.340340; 
 165 15.615616; 
 167 18.718719; 
 179 16.516517; 
 188 17.617618; 
 203 22.722723; 
 221 31.231231; 
 227 34.734735; 
 230 15.715716; 
 245 100.000000; 
 289 61.561562; 


Name: Epicatechin
SYNON: $:00in-source
DB#: MetaboBASE0426
InChIKey: PFTAWBLQPZVEMU-UKRRQHHQSA-N
Instrument_type: LC-ESI-TOF
Instrument: impact HD
Ion_mode: N
Collision_energy: 10
InChIKey: PFTAWBLQPZVEMU-UKRRQHHQSA-N
Formula: C15H14O6
MW: 290
ExactMass: 290.079038168
Comments: "synonym=(-) Epicatechin" "license=License CC-BY-NC-SA 4.0 International" "author=Plant Biology, The Noble Foundation, Ardmore, OK, US/Dennis Fine, Daniel Wherritt, and Lloyd Sumner" "instrument type=LC-ESI-TOF" "instrument=impact HD" "ionization=ESI" "ionization mode=negative" "collision gas=Nitrogen" "collision energy=10" "peak width=0.017" "date=2013-11-21 06:26:02+01:00" "column=Waters Acquity BEH C18 1.7um x 2.1 x 150 mm" "retention time=176.4" "raw data file=C:\Data\Confirmed Standards\Confirmed Stds 19Nov13\Epicatechin (vial 249) 3 uL.d" "cas number=2545-08-6" "SMILES=c1cc(c(cc1[C@@H]2[C@@H](Cc3c(cc(cc3O2)O)O)O)O)O" "InChI=InChI=1S/C15H14O6/c16-8-4-11(18)9-6-13(20)15(21-14(9)5-8)7-1-2-10(17)12(19)3-7/h1-5,13,15-20H,6H2/t13-,15-/m1/s1" "InChIKey=PFTAWBLQPZVEMU-UKRRQHHQSA-N" "molecular formula=C15H14O6" "total exact mass=290.079038168" "SMILES=C1C(C(OC2=CC(=CC(=C21)O)O)C3=CC(=C(C=C3)O)O)O" "InChI=InChI=1S/C15H14O6/c16-8-4-11(18)9-6-13(20)15(21-14(9)5-8)7-1-2-10(17)12(19)3-7/h1-5,13,15-20H,6H2" "InChIKey=PFTAWBLQPZVEMU-UHFFFAOYSA-N"
Num Peaks: 15
 137 2.302302; 
 243 3.703704; 
 245 17.317317; 
 246 3.703704; 
 259 7.007007; 
 287 17.017017; 
 288 3.703704; 
 289 100.000000; 
 290 12.212212; 
 291 2.802803; 
 303 3.303303; 
 311 3.803804; 
 373 2.902903; 
 433 2.902903; 
 556 5.605606; 


Name: Epicatechin
SYNON: $:00in-source
DB#: MetaboBASE0427
InChIKey: PFTAWBLQPZVEMU-UKRRQHHQSA-N
Precursor_type: [M-H]-
Spectrum_type: MS2
PrecursorMZ: 289.0721
Instrument_type: LC-ESI-TOF
Instrument: impact HD
Ion_mode: N
Collision_energy: 10
InChIKey: PFTAWBLQPZVEMU-UKRRQHHQSA-N
Formula: C15H14O6
MW: 290
ExactMass: 290.079038168
Comments: "synonym=(-) Epicatechin" "license=License CC-BY-NC-SA 4.0 International" "author=Plant Biology, The Noble Foundation, Ardmore, OK, US/Dennis Fine, Daniel Wherritt, and Lloyd Sumner" "instrument type=LC-ESI-TOF" "instrument=impact HD" "ionization=ESI" "ionization mode=negative" "ms level=MS2" "precursor m/z=289.0721" "isolation width=5" "collision gas=Nitrogen" "collision energy=10" "peak width=0.014" "date=2014-01-11 03:57:32+01:00" "column=Waters Acquity BEH C18 1.7um x 2.1 x 150 mm" "retention time=175.2" "raw data file=C:\Data\Confirmed Standards\14Jan10 Confirmed stds MSMS\Epicatechin (vial 249).d" "precursor type=[M-H]-" "mass accuracy=1.1686772952386661" "mass error=3.378319999569612E-4" "cas number=2545-08-6" "SMILES=c1cc(c(cc1[C@@H]2[C@@H](Cc3c(cc(cc3O2)O)O)O)O)O" "InChI=InChI=1S/C15H14O6/c16-8-4-11(18)9-6-13(20)15(21-14(9)5-8)7-1-2-10(17)12(19)3-7/h1-5,13,15-20H,6H2/t13-,15-/m1/s1" "InChIKey=PFTAWBLQPZVEMU-UKRRQHHQSA-N" "molecular formula=C15H14O6" "total exact mass=290.079038168" "SMILES=C1C(C(OC2=CC(=CC(=C21)O)O)C3=CC(=C(C=C3)O)O)O" "InChI=InChI=1S/C15H14O6/c16-8-4-11(18)9-6-13(20)15(21-14(9)5-8)7-1-2-10(17)12(19)3-7/h1-5,13,15-20H,6H2" "InChIKey=PFTAWBLQPZVEMU-UHFFFAOYSA-N"
Num Peaks: 6
 243 2.002002; 
 245 11.711712; 
 259 5.305305; 
 287 8.008008; 
 289 100.000000; 
 290 13.313313; 


Name: Epicatechin
SYNON: $:00in-source
DB#: MetaboBASE0428
InChIKey: PFTAWBLQPZVEMU-UKRRQHHQSA-N
Instrument_type: LC-ESI-TOF
Instrument: impact HD
Ion_mode: N
InChIKey: PFTAWBLQPZVEMU-UKRRQHHQSA-N
Formula: C15H14O6
MW: 290
ExactMass: 290.07903816799995
Comments: "synonym=(-) Epicatechin" "license=License CC-BY-NC-SA 4.0 International" "author=Plant Biology, The Noble Foundation, Ardmore, OK, US/Dennis Fine, Daniel Wherritt, and Lloyd Sumner" "instrument type=LC-ESI-TOF" "instrument=impact HD" "ionization=ESI" "ionization mode=negative" "collision gas=Nitrogen" "peak width=0.014" "date=2014-08-05 23:12:13+02:00" "column=Waters Acquity BEH C18 1.7um x 2.1 x 150 mm" "retention time=175.2" "raw data file=C:\Data\Confirmed standards 24_July_2014\MSMS\Sissotin vial 87 dil 50%MeOH_1-F,6_01_542.d" "cas number=2545-08-6" "SMILES=c1cc(c(cc1[C@@H]2[C@@H](Cc3c(cc(cc3O2)O)O)O)O)O" "InChI=InChI=1S/C15H14O6/c16-8-4-11(18)9-6-13(20)15(21-14(9)5-8)7-1-2-10(17)12(19)3-7/h1-5,13,15-20H,6H2/t13-,15-/m1/s1" "InChIKey=PFTAWBLQPZVEMU-UKRRQHHQSA-N" "molecular formula=C15H14O6" "total exact mass=290.07903816799995" "SMILES=C1C(C(OC2=CC(=CC(=C21)O)O)C3=CC(=C(C=C3)O)O)O" "InChI=InChI=1S/C15H14O6/c16-8-4-11(18)9-6-13(20)15(21-14(9)5-8)7-1-2-10(17)12(19)3-7/h1-5,13,15-20H,6H2" "InChIKey=PFTAWBLQPZVEMU-UHFFFAOYSA-N"
Num Peaks: 250
 112 0.500501; 
 116 1.001001; 
 187 0.200200; 
 255 0.700701; 
 268 0.300300; 
 283 100.000000; 
 284 15.915916; 
 285 2.402402; 
 286 0.200200; 
 304 0.200200; 
 317 0.400400; 
 325 1.601602; 
 326 0.300300; 
 355 0.200200; 
 367 0.400400; 
 445 25.725726; 
 446 5.905906; 
 447 1.301301; 
 448 0.300300; 
 481 2.502503; 
 482 0.700701; 
 483 0.900901; 
 484 0.300300; 
 491 79.479479; 
 492 19.919920; 
 493 3.703704; 
 494 0.700701; 
 495 0.200200; 
 513 1.601602; 
 514 0.500501; 
 521 0.400400; 
 533 0.400400; 
 534 0.200200; 
 535 0.800801; 
 536 0.300300; 
 543 0.200200; 
 547 0.300300; 
 556 1.601602; 
 557 0.200200; 
 559 0.400400; 
 563 0.600601; 
 564 0.300300; 
 565 0.200200; 
 575 0.700701; 
 576 0.200200; 
 581 1.401401; 
 582 0.400400; 
 583 0.200200; 
 585 0.200200; 
 588 0.200200; 
 590 1.101101; 
 591 0.400400; 
 633 2.802803; 
 634 1.101101; 
 635 0.400400; 
 640 0.300300; 
 643 0.500501; 
 644 0.200200; 
 649 0.200200; 
 649 0.200200; 
 655 0.200200; 
 658 0.300300; 
 659 0.200200; 
 661 0.200200; 
 661 0.400400; 
 662 0.200200; 
 666 0.900901; 
 667 0.200200; 
 701 0.200200; 
 708 0.200200; 
 711 0.300300; 
 723 0.200200; 
 729 1.801802; 
 730 0.800801; 
 731 0.300300; 
 823 0.200200; 
 836 0.200200; 
 840 0.200200; 
 855 0.200200; 
 857 0.200200; 
 865 0.200200; 
 884 0.200200; 
 891 5.905906; 
 891 0.200200; 
 892 3.103103; 
 893 1.001001; 
 893 0.200200; 
 894 0.400400; 
 895 0.200200; 
 899 0.200200; 
 913 0.300300; 
 914 0.200200; 
 927 0.700701; 
 927 0.200200; 
 928 0.400400; 
 929 0.300300; 
 930 0.300300; 
 932 0.200200; 
 935 0.200200; 
 937 16.916917; 
 938 8.608609; 
 939 3.203203; 
 940 0.900901; 
 941 0.300300; 
 942 0.200200; 
 943 0.200200; 
 944 0.400400; 
 944 0.200200; 
 945 0.300300; 
 948 0.200200; 
 958 0.200200; 
 959 2.502503; 
 960 1.301301; 
 961 0.500501; 
 962 0.200200; 
 971 0.200200; 
 973 0.200200; 
 975 0.600601; 
 975 0.200200; 
 976 0.400400; 
 977 0.200200; 
 979 0.200200; 
 979 0.200200; 
 980 0.200200; 
 981 0.300300; 
 981 0.200200; 
 982 0.200200; 
 983 0.200200; 
 989 0.200200; 
 990 0.300300; 
 991 0.300300; 
 991 0.200200; 
 993 0.300300; 
 994 0.200200; 
 995 0.200200; 
 996 0.200200; 
 997 0.200200; 
 1003 0.200200; 
 1003 0.200200; 
 1004 0.200200; 
 1005 0.200200; 
 1007 0.200200; 
 1009 0.300300; 
 1010 0.200200; 
 1010 0.200200; 
 1012 0.200200; 
 1021 0.300300; 
 1022 0.200200; 
 1023 0.200200; 
 1027 0.300300; 
 1028 0.200200; 
 1029 0.200200; 
 1029 0.200200; 
 1031 0.200200; 
 1032 0.200200; 
 1033 0.200200; 
 1034 0.200200; 
 1036 0.200200; 
 1040 0.200200; 
 1041 0.200200; 
 1043 0.400400; 
 1044 0.300300; 
 1045 0.200200; 
 1049 0.300300; 
 1050 0.200200; 
 1050 0.200200; 
 1054 0.200200; 
 1058 0.300300; 
 1059 0.200200; 
 1060 0.200200; 
 1061 0.200200; 
 1063 0.200200; 
 1068 0.200200; 
 1071 0.200200; 
 1075 0.200200; 
 1075 0.200200; 
 1079 0.500501; 
 1080 0.200200; 
 1080 0.400400; 
 1081 0.200200; 
 1092 0.200200; 
 1101 0.200200; 
 1101 0.200200; 
 1103 0.200200; 
 1107 0.200200; 
 1107 0.200200; 
 1109 0.200200; 
 1111 0.200200; 
 1112 0.200200; 
 1113 0.200200; 
 1114 0.200200; 
 1114 0.200200; 
 1120 0.200200; 
 1125 0.200200; 
 1130 0.200200; 
 1132 0.200200; 
 1133 0.200200; 
 1134 0.200200; 
 1134 0.200200; 
 1136 0.200200; 
 1161 0.200200; 
 1165 0.200200; 
 1170 0.200200; 
 1179 0.200200; 
 1181 0.200200; 
 1191 0.200200; 
 1200 0.200200; 
 1214 0.200200; 
 1233 0.200200; 
 1235 0.200200; 
 1237 0.200200; 
 1252 0.200200; 
 1260 0.200200; 
 1282 0.200200; 
 1337 4.004004; 
 1338 3.003003; 
 1339 1.401401; 
 1340 0.500501; 
 1340 0.200200; 
 1341 0.200200; 
 1359 0.200200; 
 1359 0.200200; 
 1360 0.200200; 
 1382 0.200200; 
 1383 2.002002; 
 1384 1.501502; 
 1385 0.700701; 
 1386 0.400400; 
 1387 0.200200; 
 1390 0.200200; 
 1390 0.300300; 
 1391 0.300300; 
 1392 0.300300; 
 1405 1.201201; 
 1406 0.900901; 
 1407 0.500501; 
 1408 0.300300; 
 1408 0.200200; 
 1421 0.300300; 
 1422 0.300300; 
 1423 0.200200; 
 1423 0.200200; 
 1427 0.300300; 
 1428 0.300300; 
 1428 0.300300; 
 1443 0.300300; 
 1444 0.300300; 
 1449 0.200200; 
 1467 0.300300; 
 1468 0.200200; 


Name: 3,7,3',4',5'-Pentahydroxyflavone
Synon: Robinetin
SYNON: $:00in-source
DB#: MetaboBASE0429
InChIKey: SOEDEYVDCDYMMH-UHFFFAOYSA-N
Instrument_type: LC-ESI-TOF
Instrument: impact HD
Ion_mode: N
Collision_energy: 10
InChIKey: SOEDEYVDCDYMMH-UHFFFAOYSA-N
Formula: C15H10O7
MW: 302
ExactMass: 302.04265266
Comments: "license=License CC-BY-NC-SA 4.0 International" "author=Plant Biology, The Noble Foundation, Ardmore, OK, US/Dennis Fine, Daniel Wherritt, and Lloyd Sumner" "instrument type=LC-ESI-TOF" "instrument=impact HD" "ionization=ESI" "ionization mode=negative" "collision gas=Nitrogen" "collision energy=10" "peak width=0.016" "date=2013-11-21 05:04:30+01:00" "column=Waters Acquity BEH C18 1.7um x 2.1 x 150 mm" "retention time=279" "raw data file=C:\Data\Confirmed Standards\Confirmed Stds 19Nov13\373'4'5'Pentahydroxyflavo dil.d" "cas number=490-31-3" "SMILES=c1cc2c(cc1O)oc(c(c2=O)O)c3cc(c(c(c3)O)O)O" "InChI=InChI=1S/C15H10O7/c16-7-1-2-8-11(5-7)22-15(14(21)12(8)19)6-3-9(17)13(20)10(18)4-6/h1-5,16-18,20-21H" "InChIKey=SOEDEYVDCDYMMH-UHFFFAOYSA-N" "molecular formula=C15H10O7" "total exact mass=302.04265266" "SMILES=C1=CC2=C(C=C1O)OC(=C(C2=O)O)C3=CC(=C(C(=C3)O)O)O"
Num Peaks: 32
 135 1.501502; 
 162 1.801802; 
 271 8.208208; 
 272 1.201201; 
 285 1.701702; 
 299 71.471471; 
 300 10.710711; 
 301 100.000000; 
 302 13.713714; 
 303 1.801802; 
 317 7.107107; 
 318 1.201201; 
 335 3.403403; 
 569 1.401401; 
 573 5.705706; 
 574 1.501502; 
 599 16.516517; 
 600 4.404404; 
 601 4.604605; 
 602 1.301301; 
 603 3.903904; 
 604 1.001001; 
 615 1.901902; 
 617 19.819820; 
 618 5.505506; 
 619 1.601602; 
 633 5.605606; 
 634 1.501502; 
 651 1.601602; 
 901 1.001001; 
 919 3.903904; 
 920 1.701702; 


Name: 3,7,3',4',5'-Pentahydroxyflavone
Synon: Robinetin
SYNON: $:00in-source
DB#: MetaboBASE0430
InChIKey: SOEDEYVDCDYMMH-UHFFFAOYSA-N
Instrument_type: LC-ESI-TOF
Instrument: impact HD
Ion_mode: N
InChIKey: SOEDEYVDCDYMMH-UHFFFAOYSA-N
Formula: C15H10O7
MW: 302
ExactMass: 302.04265266
Comments: "license=License CC-BY-NC-SA 4.0 International" "author=Plant Biology, The Noble Foundation, Ardmore, OK, US/Dennis Fine, Daniel Wherritt, and Lloyd Sumner" "instrument type=LC-ESI-TOF" "instrument=impact HD" "ionization=ESI" "ionization mode=negative" "collision gas=Nitrogen" "peak width=0.015" "date=2013-11-23 03:26:37+01:00" "column=Waters Acquity BEH C18 1.7um x 2.1 x 150 mm" "retention time=279" "raw data file=C:\Data\Confirmed Standards\Confirmed stds MSMS 22Nov13\373'4'5'Pentahydroxyfla MSMS.d" "cas number=490-31-3" "SMILES=c1cc2c(cc1O)oc(c(c2=O)O)c3cc(c(c(c3)O)O)O" "InChI=InChI=1S/C15H10O7/c16-7-1-2-8-11(5-7)22-15(14(21)12(8)19)6-3-9(17)13(20)10(18)4-6/h1-5,16-18,20-21H" "InChIKey=SOEDEYVDCDYMMH-UHFFFAOYSA-N" "molecular formula=C15H10O7" "total exact mass=302.04265266" "SMILES=C1=CC2=C(C=C1O)OC(=C(C2=O)O)C3=CC(=C(C(=C3)O)O)O"
Num Peaks: 26
 299 40.640641; 
 300 6.106106; 
 301 100.000000; 
 302 12.012012; 
 303 1.701702; 
 317 4.604605; 
 335 5.505506; 
 599 6.906907; 
 600 1.801802; 
 601 13.113113; 
 602 3.803804; 
 603 26.126126; 
 604 6.806807; 
 615 2.102102; 
 617 25.425425; 
 618 6.506507; 
 619 2.902903; 
 633 5.805806; 
 634 1.801802; 
 637 2.402402; 
 651 1.701702; 
 905 3.703704; 
 917 1.601602; 
 919 12.412412; 
 920 5.205205; 
 935 2.402402; 


Name: 3,7,3',4',5'-Pentahydroxyflavone
Synon: Robinetin
SYNON: $:00in-source
DB#: MetaboBASE0431
InChIKey: SOEDEYVDCDYMMH-UHFFFAOYSA-N
Precursor_type: [M-H]-
Spectrum_type: MS2
PrecursorMZ: 301.0371
Instrument_type: LC-ESI-TOF
Instrument: impact HD
Ion_mode: N
Collision_energy: 10
InChIKey: SOEDEYVDCDYMMH-UHFFFAOYSA-N
Formula: C15H10O7
MW: 302
ExactMass: 302.04265266
Comments: "license=License CC-BY-NC-SA 4.0 International" "author=Plant Biology, The Noble Foundation, Ardmore, OK, US/Dennis Fine, Daniel Wherritt, and Lloyd Sumner" "instrument type=LC-ESI-TOF" "instrument=impact HD" "ionization=ESI" "ionization mode=negative" "ms level=MS2" "precursor m/z=301.0371" "isolation width=5" "collision gas=Nitrogen" "collision energy=10" "peak width=0.013" "date=2013-11-23 03:26:37+01:00" "column=Waters Acquity BEH C18 1.7um x 2.1 x 150 mm" "retention time=279" "raw data file=C:\Data\Confirmed Standards\Confirmed stds MSMS 22Nov13\373'4'5'Pentahydroxyfla MSMS.d" "precursor type=[M-H]-" "mass accuracy=5.72467646018476" "mass error=0.0017233400000122856" "cas number=490-31-3" "SMILES=c1cc2c(cc1O)oc(c(c2=O)O)c3cc(c(c(c3)O)O)O" "InChI=InChI=1S/C15H10O7/c16-7-1-2-8-11(5-7)22-15(14(21)12(8)19)6-3-9(17)13(20)10(18)4-6/h1-5,16-18,20-21H" "InChIKey=SOEDEYVDCDYMMH-UHFFFAOYSA-N" "molecular formula=C15H10O7" "total exact mass=302.04265266" "SMILES=C1=CC2=C(C=C1O)OC(=C(C2=O)O)C3=CC(=C(C(=C3)O)O)O"
Num Peaks: 7
 271 2.102102; 
 272 0.500501; 
 299 9.809810; 
 300 1.401401; 
 301 100.000000; 
 302 10.710711; 
 303 1.701702; 


Name: 3,7,3',4',5'-Pentahydroxyflavone
Synon: Robinetin
SYNON: $:00in-source
DB#: MetaboBASE0432
InChIKey: SOEDEYVDCDYMMH-UHFFFAOYSA-N
Precursor_type: [M-H]-
Spectrum_type: MS2
PrecursorMZ: 301.03
Instrument_type: LC-ESI-TOF
Instrument: impact HD
Ion_mode: N
Collision_energy: 40
InChIKey: SOEDEYVDCDYMMH-UHFFFAOYSA-N
Formula: C15H10O7
MW: 302
ExactMass: 302.04265266
Comments: "license=License CC-BY-NC-SA 4.0 International" "author=Plant Biology, The Noble Foundation, Ardmore, OK, US/Dennis Fine, Daniel Wherritt, and Lloyd Sumner" "instrument type=LC-ESI-TOF" "instrument=impact HD" "ionization=ESI" "ionization mode=negative" "ms level=MS2" "precursor m/z=301.03" "isolation width=5" "collision gas=Nitrogen" "collision energy=40" "peak width=0.019" "date=2013-11-23 03:26:37+01:00" "column=Waters Acquity BEH C18 1.7um x 2.1 x 150 mm" "retention time=279" "raw data file=C:\Data\Confirmed Standards\Confirmed stds MSMS 22Nov13\373'4'5'Pentahydroxyfla MSMS.d" "precursor type=[M-H]-" "mass accuracy=17.860877653471277" "mass error=-0.005376660000024458" "cas number=490-31-3" "SMILES=c1cc2c(cc1O)oc(c(c2=O)O)c3cc(c(c(c3)O)O)O" "InChI=InChI=1S/C15H10O7/c16-7-1-2-8-11(5-7)22-15(14(21)12(8)19)6-3-9(17)13(20)10(18)4-6/h1-5,16-18,20-21H" "InChIKey=SOEDEYVDCDYMMH-UHFFFAOYSA-N" "molecular formula=C15H10O7" "total exact mass=302.04265266" "SMILES=C1=CC2=C(C=C1O)OC(=C(C2=O)O)C3=CC(=C(C(=C3)O)O)O"
Num Peaks: 13
 109 100.000000; 
 110 5.305305; 
 119 6.506507; 
 135 42.542543; 
 137 70.770771; 
 138 6.006006; 
 163 5.205205; 
 165 6.206206; 
 187 5.605606; 
 197 8.408408; 
 226 7.907908; 
 227 4.104104; 
 271 4.204204; 


Name: 3,7,3',4',5'-Pentahydroxyflavone
Synon: Robinetin
SYNON: $:00in-source
DB#: MetaboBASE0433
InChIKey: SOEDEYVDCDYMMH-UHFFFAOYSA-N
Precursor_type: [M-H]-
Spectrum_type: MS2
PrecursorMZ: 301.0373
Instrument_type: LC-ESI-TOF
Instrument: impact HD
Ion_mode: N
Collision_energy: 20
InChIKey: SOEDEYVDCDYMMH-UHFFFAOYSA-N
Formula: C15H10O7
MW: 302
ExactMass: 302.04265266
Comments: "license=License CC-BY-NC-SA 4.0 International" "author=Plant Biology, The Noble Foundation, Ardmore, OK, US/Dennis Fine, Daniel Wherritt, and Lloyd Sumner" "instrument type=LC-ESI-TOF" "instrument=impact HD" "ionization=ESI" "ionization mode=negative" "ms level=MS2" "precursor m/z=301.0373" "isolation width=5" "collision gas=Nitrogen" "collision energy=20" "peak width=0.016" "date=2013-11-23 03:26:37+01:00" "column=Waters Acquity BEH C18 1.7um x 2.1 x 150 mm" "retention time=279" "raw data file=C:\Data\Confirmed Standards\Confirmed stds MSMS 22Nov13\373'4'5'Pentahydroxyfla MSMS.d" "precursor type=[M-H]-" "mass accuracy=6.389042155304093" "mass error=0.001923340000018925" "cas number=490-31-3" "SMILES=c1cc2c(cc1O)oc(c(c2=O)O)c3cc(c(c(c3)O)O)O" "InChI=InChI=1S/C15H10O7/c16-7-1-2-8-11(5-7)22-15(14(21)12(8)19)6-3-9(17)13(20)10(18)4-6/h1-5,16-18,20-21H" "InChIKey=SOEDEYVDCDYMMH-UHFFFAOYSA-N" "molecular formula=C15H10O7" "total exact mass=302.04265266" "SMILES=C1=CC2=C(C=C1O)OC(=C(C2=O)O)C3=CC(=C(C(=C3)O)O)O"
Num Peaks: 15
 109 5.405405; 
 135 38.338338; 
 137 29.829830; 
 153 6.506507; 
 163 44.344344; 
 164 3.903904; 
 165 8.908909; 
 243 3.803804; 
 255 3.703704; 
 271 36.136136; 
 272 4.304304; 
 273 3.703704; 
 299 5.605606; 
 301 100.000000; 
 302 13.213213; 


Name: 3,7,3',4',5'-Pentahydroxyflavone
Synon: Robinetin
SYNON: $:00in-source
DB#: MetaboBASE0434
InChIKey: SOEDEYVDCDYMMH-UHFFFAOYSA-N
Precursor_type: [M-H]-
Spectrum_type: MS2
PrecursorMZ: 301.03
Instrument_type: LC-ESI-TOF
Instrument: impact HD
Ion_mode: N
Collision_energy: 30
InChIKey: SOEDEYVDCDYMMH-UHFFFAOYSA-N
Formula: C15H10O7
MW: 302
ExactMass: 302.04265266
Comments: "license=License CC-BY-NC-SA 4.0 International" "author=Plant Biology, The Noble Foundation, Ardmore, OK, US/Dennis Fine, Daniel Wherritt, and Lloyd Sumner" "instrument type=LC-ESI-TOF" "instrument=impact HD" "ionization=ESI" "ionization mode=negative" "ms level=MS2" "precursor m/z=301.03" "isolation width=5" "collision gas=Nitrogen" "collision energy=30" "peak width=0.019" "date=2013-11-23 03:26:37+01:00" "column=Waters Acquity BEH C18 1.7um x 2.1 x 150 mm" "retention time=279" "raw data file=C:\Data\Confirmed Standards\Confirmed stds MSMS 22Nov13\373'4'5'Pentahydroxyfla MSMS.d" "precursor type=[M-H]-" "mass accuracy=17.860877653471277" "mass error=-0.005376660000024458" "cas number=490-31-3" "SMILES=c1cc2c(cc1O)oc(c(c2=O)O)c3cc(c(c(c3)O)O)O" "InChI=InChI=1S/C15H10O7/c16-7-1-2-8-11(5-7)22-15(14(21)12(8)19)6-3-9(17)13(20)10(18)4-6/h1-5,16-18,20-21H" "InChIKey=SOEDEYVDCDYMMH-UHFFFAOYSA-N" "molecular formula=C15H10O7" "total exact mass=302.04265266" "SMILES=C1=CC2=C(C=C1O)OC(=C(C2=O)O)C3=CC(=C(C(=C3)O)O)O"
Num Peaks: 11
 109 53.553554; 
 135 78.878879; 
 136 10.110110; 
 137 100.000000; 
 138 9.909910; 
 153 10.910911; 
 163 15.615616; 
 165 22.122122; 
 226 7.707708; 
 243 12.112112; 
 271 19.819820; 


Name: 6,4'-Dimethoxyisoflavone-7-glucoside
Synon: Wistin
SYNON: $:00in-source
DB#: MetaboBASE0435
InChIKey: YLYJXNTZVUEFJZ-DODNOZFWSA-N
Spectrum_type: MS2
PrecursorMZ: 297
Instrument_type: LC-ESI-TOF
Instrument: impact HD
Ion_mode: N
Collision_energy: 50
InChIKey: YLYJXNTZVUEFJZ-DODNOZFWSA-N
Formula: C23H24O10
MW: 460
ExactMass: 460.13694696799996
Comments: "license=License CC-BY-NC-SA 4.0 International" "author=Plant Biology, The Noble Foundation, Ardmore, OK, US/Dennis Fine, Daniel Wherritt, and Lloyd Sumner" "instrument type=LC-ESI-TOF" "instrument=impact HD" "ionization=ESI" "ionization mode=negative" "ms level=MS2" "precursor m/z=297" "isolation width=5" "collision gas=Nitrogen" "collision energy=50" "peak width=0.02" "date=2014-07-26 11:24:51+02:00" "column=Waters Acquity BEH C18 1.7um x 2.1 x 150 mm" "retention time=505.8" "raw data file=C:\Data\Confirmed standards 24_July_2014\MSMS\64Dimethoxyisovalone7Glu_1-C,2_01_499.d" "cas number=19046-26-5" "SMILES=COC1=CC=C(C=C1)C2=COC3=CC(=C(C=C3C2=O)OC)O[C@H]4[C@@H]([C@H]([C@@H]([C@H](O4)CO)O)O)O" "InChI=InChI=1S/C23H24O10/c1-29-12-5-3-11(4-6-12)14-10-31-15-8-17(16(30-2)7-13(15)19(14)25)32-23-22(28)21(27)20(26)18(9-24)33-23/h3-8,10,18,20-24,26-28H,9H2,1-2H3/t18-,20-,21+,22-,23-/m1/s1" "InChIKey=YLYJXNTZVUEFJZ-DODNOZFWSA-N" "molecular formula=C23H24O10" "total exact mass=460.13694696799996" "SMILES=COC1=CC=C(C=C1)C2=COC3=CC(=C(C=C3C2=O)OC)OC4C(C(C(C(O4)CO)O)O)O"
Num Peaks: 48
 115 1.301301; 
 117 11.211211; 
 118 0.800801; 
 119 1.701702; 
 127 4.904905; 
 129 3.603604; 
 132 10.710711; 
 133 1.201201; 
 139 6.406406; 
 141 23.323323; 
 142 2.602603; 
 143 18.018018; 
 144 1.801802; 
 145 2.502503; 
 145 1.401401; 
 147 1.401401; 
 153 1.401401; 
 154 12.512513; 
 155 72.472472; 
 156 6.906907; 
 165 1.501502; 
 166 1.301301; 
 167 74.374374; 
 168 8.208208; 
 169 2.602603; 
 171 2.702703; 
 173 3.303303; 
 182 19.019019; 
 183 47.647648; 
 184 5.605606; 
 186 1.001001; 
 195 100.000000; 
 196 13.613614; 
 197 2.002002; 
 210 19.719720; 
 211 66.566567; 
 212 9.709710; 
 223 7.407407; 
 224 1.101101; 
 225 1.701702; 
 238 36.436436; 
 239 95.895896; 
 240 12.712713; 
 241 0.900901; 
 253 1.201201; 
 254 3.403403; 
 266 4.904905; 
 267 2.002002; 


Name: 6,4'-Dimethoxyisoflavone-7-glucoside
Synon: Wistin
SYNON: $:00in-source
DB#: MetaboBASE0436
InChIKey: YLYJXNTZVUEFJZ-DODNOZFWSA-N
Spectrum_type: MS2
PrecursorMZ: 297
Instrument_type: LC-ESI-TOF
Instrument: impact HD
Ion_mode: N
Collision_energy: 40
InChIKey: YLYJXNTZVUEFJZ-DODNOZFWSA-N
Formula: C23H24O10
MW: 460
ExactMass: 460.13694696799996
Comments: "license=License CC-BY-NC-SA 4.0 International" "author=Plant Biology, The Noble Foundation, Ardmore, OK, US/Dennis Fine, Daniel Wherritt, and Lloyd Sumner" "instrument type=LC-ESI-TOF" "instrument=impact HD" "ionization=ESI" "ionization mode=negative" "ms level=MS2" "precursor m/z=297" "isolation width=5" "collision gas=Nitrogen" "collision energy=40" "peak width=0.02" "date=2014-07-26 11:24:51+02:00" "column=Waters Acquity BEH C18 1.7um x 2.1 x 150 mm" "retention time=505.8" "raw data file=C:\Data\Confirmed standards 24_July_2014\MSMS\64Dimethoxyisovalone7Glu_1-C,2_01_499.d" "cas number=19046-26-5" "SMILES=COC1=CC=C(C=C1)C2=COC3=CC(=C(C=C3C2=O)OC)O[C@H]4[C@@H]([C@H]([C@@H]([C@H](O4)CO)O)O)O" "InChI=InChI=1S/C23H24O10/c1-29-12-5-3-11(4-6-12)14-10-31-15-8-17(16(30-2)7-13(15)19(14)25)32-23-22(28)21(27)20(26)18(9-24)33-23/h3-8,10,18,20-24,26-28H,9H2,1-2H3/t18-,20-,21+,22-,23-/m1/s1" "InChIKey=YLYJXNTZVUEFJZ-DODNOZFWSA-N" "molecular formula=C23H24O10" "total exact mass=460.13694696799996" "SMILES=COC1=CC=C(C=C1)C2=COC3=CC(=C(C=C3C2=O)OC)OC4C(C(C(C(O4)CO)O)O)O"
Num Peaks: 49
 117 0.600601; 
 119 0.300300; 
 127 0.300300; 
 129 0.200200; 
 132 1.501502; 
 139 0.300300; 
 141 1.301301; 
 143 2.202202; 
 147 0.200200; 
 154 0.500501; 
 155 6.206206; 
 156 0.700701; 
 167 6.106106; 
 168 0.600601; 
 169 0.200200; 
 171 0.400400; 
 173 0.400400; 
 182 1.301301; 
 183 9.609610; 
 184 1.101101; 
 186 0.300300; 
 195 23.123123; 
 196 3.103103; 
 197 0.500501; 
 198 0.400400; 
 199 0.200200; 
 201 0.200200; 
 210 2.402402; 
 210 0.600601; 
 211 21.621622; 
 212 2.902903; 
 215 0.200200; 
 223 4.704705; 
 224 0.700701; 
 225 1.501502; 
 226 0.400400; 
 238 6.506507; 
 239 100.000000; 
 240 14.214214; 
 241 0.900901; 
 253 1.501502; 
 254 15.315315; 
 255 2.602603; 
 266 2.802803; 
 267 6.606607; 
 268 1.001001; 
 281 0.800801; 
 282 5.205205; 
 283 0.900901; 


Name: 6,4'-Dimethoxyisoflavone-7-glucoside
Synon: Wistin
SYNON: $:00in-source
DB#: MetaboBASE0437
InChIKey: YLYJXNTZVUEFJZ-DODNOZFWSA-N
Precursor_type: [M+FA-H]-
Spectrum_type: MS2
PrecursorMZ: 505.1404
Instrument_type: LC-ESI-TOF
Instrument: impact HD
Ion_mode: N
Collision_energy: 10
InChIKey: YLYJXNTZVUEFJZ-DODNOZFWSA-N
Formula: C23H24O10
MW: 460
ExactMass: 460.13694696799996
Comments: "license=License CC-BY-NC-SA 4.0 International" "author=Plant Biology, The Noble Foundation, Ardmore, OK, US/Dennis Fine, Daniel Wherritt, and Lloyd Sumner" "instrument type=LC-ESI-TOF" "instrument=impact HD" "ionization=ESI" "ionization mode=negative" "ms level=MS2" "precursor m/z=505.1404" "isolation width=5" "collision gas=Nitrogen" "collision energy=10" "peak width=0.017" "date=2014-08-06 22:48:21+02:00" "column=Waters Acquity BEH C18 1.7um x 2.1 x 150 mm" "retention time=505.8" "raw data file=C:\Data\Confirmed standards 24_July_2014\MSMS\64Dimethoxyisovalone7Glu_1-C,2_01_556.d" "precursor type=[M+FA-H]-" "mass accuracy=10.397172746515588" "mass error=0.005252032000043982" "cas number=19046-26-5" "SMILES=COC1=CC=C(C=C1)C2=COC3=CC(=C(C=C3C2=O)OC)O[C@H]4[C@@H]([C@H]([C@@H]([C@H](O4)CO)O)O)O" "InChI=InChI=1S/C23H24O10/c1-29-12-5-3-11(4-6-12)14-10-31-15-8-17(16(30-2)7-13(15)19(14)25)32-23-22(28)21(27)20(26)18(9-24)33-23/h3-8,10,18,20-24,26-28H,9H2,1-2H3/t18-,20-,21+,22-,23-/m1/s1" "InChIKey=YLYJXNTZVUEFJZ-DODNOZFWSA-N" "molecular formula=C23H24O10" "total exact mass=460.13694696799996" "SMILES=COC1=CC=C(C=C1)C2=COC3=CC(=C(C=C3C2=O)OC)OC4C(C(C(C(O4)CO)O)O)O"
Num Peaks: 11
 207 0.700701; 
 282 0.900901; 
 283 0.100100; 
 297 100.000000; 
 298 11.911912; 
 299 0.700701; 
 459 1.601602; 
 460 0.300300; 
 505 31.431431; 
 506 6.306306; 
 507 0.600601; 


Name: 6,4'-Dimethoxyisoflavone-7-glucoside
Synon: Wistin
SYNON: $:00in-source
DB#: MetaboBASE0438
InChIKey: YLYJXNTZVUEFJZ-DODNOZFWSA-N
Spectrum_type: MS2
PrecursorMZ: 297.0742
Instrument_type: LC-ESI-TOF
Instrument: impact HD
Ion_mode: N
Collision_energy: 20
InChIKey: YLYJXNTZVUEFJZ-DODNOZFWSA-N
Formula: C23H24O10
MW: 460
ExactMass: 460.13694696799996
Comments: "license=License CC-BY-NC-SA 4.0 International" "author=Plant Biology, The Noble Foundation, Ardmore, OK, US/Dennis Fine, Daniel Wherritt, and Lloyd Sumner" "instrument type=LC-ESI-TOF" "instrument=impact HD" "ionization=ESI" "ionization mode=negative" "ms level=MS2" "precursor m/z=297.0742" "isolation width=5" "collision gas=Nitrogen" "collision energy=20" "peak width=0.018" "date=2014-07-26 11:24:51+02:00" "column=Waters Acquity BEH C18 1.7um x 2.1 x 150 mm" "retention time=505.8" "raw data file=C:\Data\Confirmed standards 24_July_2014\MSMS\64Dimethoxyisovalone7Glu_1-C,2_01_499.d" "cas number=19046-26-5" "SMILES=COC1=CC=C(C=C1)C2=COC3=CC(=C(C=C3C2=O)OC)O[C@H]4[C@@H]([C@H]([C@@H]([C@H](O4)CO)O)O)O" "InChI=InChI=1S/C23H24O10/c1-29-12-5-3-11(4-6-12)14-10-31-15-8-17(16(30-2)7-13(15)19(14)25)32-23-22(28)21(27)20(26)18(9-24)33-23/h3-8,10,18,20-24,26-28H,9H2,1-2H3/t18-,20-,21+,22-,23-/m1/s1" "InChIKey=YLYJXNTZVUEFJZ-DODNOZFWSA-N" "molecular formula=C23H24O10" "total exact mass=460.13694696799996" "SMILES=COC1=CC=C(C=C1)C2=COC3=CC(=C(C=C3C2=O)OC)OC4C(C(C(C(O4)CO)O)O)O"
Num Peaks: 19
 195 0.100100; 
 211 0.100100; 
 223 0.200200; 
 238 0.200200; 
 239 6.906907; 
 240 0.800801; 
 253 0.100100; 
 254 9.309309; 
 255 1.201201; 
 266 0.100100; 
 267 4.404404; 
 268 0.500501; 
 281 0.300300; 
 282 100.000000; 
 283 15.515516; 
 284 1.001001; 
 297 21.321321; 
 298 4.304304; 
 299 0.200200; 


Name: 6,4'-Dimethoxyisoflavone-7-glucoside
Synon: Wistin
SYNON: $:00in-source
DB#: MetaboBASE0439
InChIKey: YLYJXNTZVUEFJZ-DODNOZFWSA-N
Spectrum_type: MS2
PrecursorMZ: 297.073
Instrument_type: LC-ESI-TOF
Instrument: impact HD
Ion_mode: N
Collision_energy: 30
InChIKey: YLYJXNTZVUEFJZ-DODNOZFWSA-N
Formula: C23H24O10
MW: 460
ExactMass: 460.13694696799996
Comments: "license=License CC-BY-NC-SA 4.0 International" "author=Plant Biology, The Noble Foundation, Ardmore, OK, US/Dennis Fine, Daniel Wherritt, and Lloyd Sumner" "instrument type=LC-ESI-TOF" "instrument=impact HD" "ionization=ESI" "ionization mode=negative" "ms level=MS2" "precursor m/z=297.073" "isolation width=5" "collision gas=Nitrogen" "collision energy=30" "peak width=0.019" "date=2014-07-26 11:24:51+02:00" "column=Waters Acquity BEH C18 1.7um x 2.1 x 150 mm" "retention time=505.8" "raw data file=C:\Data\Confirmed standards 24_July_2014\MSMS\64Dimethoxyisovalone7Glu_1-C,2_01_499.d" "cas number=19046-26-5" "SMILES=COC1=CC=C(C=C1)C2=COC3=CC(=C(C=C3C2=O)OC)O[C@H]4[C@@H]([C@H]([C@@H]([C@H](O4)CO)O)O)O" "InChI=InChI=1S/C23H24O10/c1-29-12-5-3-11(4-6-12)14-10-31-15-8-17(16(30-2)7-13(15)19(14)25)32-23-22(28)21(27)20(26)18(9-24)33-23/h3-8,10,18,20-24,26-28H,9H2,1-2H3/t18-,20-,21+,22-,23-/m1/s1" "InChIKey=YLYJXNTZVUEFJZ-DODNOZFWSA-N" "molecular formula=C23H24O10" "total exact mass=460.13694696799996" "SMILES=COC1=CC=C(C=C1)C2=COC3=CC(=C(C=C3C2=O)OC)OC4C(C(C(C(O4)CO)O)O)O"
Num Peaks: 37
 132 0.200200; 
 143 0.200200; 
 147 0.200200; 
 155 0.400400; 
 167 0.600601; 
 183 1.201201; 
 195 5.705706; 
 196 0.700701; 
 198 0.200200; 
 210 0.300300; 
 210 0.900901; 
 211 4.904905; 
 211 0.100100; 
 212 0.500501; 
 215 0.200200; 
 223 3.903904; 
 224 0.500501; 
 225 1.801802; 
 226 0.600601; 
 238 1.701702; 
 239 100.000000; 
 240 13.213213; 
 241 0.800801; 
 253 1.501502; 
 254 60.660661; 
 255 9.809810; 
 256 0.500501; 
 266 1.701702; 
 267 26.126126; 
 268 4.104104; 
 269 0.200200; 
 281 2.502503; 
 282 82.382382; 
 283 14.314314; 
 284 0.900901; 
 297 1.001001; 
 298 0.200200; 


Name: 6,4'-Dimethoxyisoflavone-7-glucoside
Synon: Wistin
SYNON: $:00in-source
DB#: MetaboBASE0440
InChIKey: YLYJXNTZVUEFJZ-DODNOZFWSA-N
Precursor_type: [M+FA-H]-
Spectrum_type: MS2
PrecursorMZ: 505.14
Instrument_type: LC-ESI-TOF
Instrument: impact HD
Ion_mode: N
Collision_energy: 50
InChIKey: YLYJXNTZVUEFJZ-DODNOZFWSA-N
Formula: C23H24O10
MW: 460
ExactMass: 460.13694696799996
Comments: "license=License CC-BY-NC-SA 4.0 International" "author=Plant Biology, The Noble Foundation, Ardmore, OK, US/Dennis Fine, Daniel Wherritt, and Lloyd Sumner" "instrument type=LC-ESI-TOF" "instrument=impact HD" "ionization=ESI" "ionization mode=negative" "ms level=MS2" "precursor m/z=505.14" "isolation width=5" "collision gas=Nitrogen" "collision energy=50" "peak width=0.016" "date=2014-08-06 22:48:21+02:00" "column=Waters Acquity BEH C18 1.7um x 2.1 x 150 mm" "retention time=505.8" "raw data file=C:\Data\Confirmed standards 24_July_2014\MSMS\64Dimethoxyisovalone7Glu_1-C,2_01_556.d" "precursor type=[M+FA-H]-" "mass accuracy=9.605321297126942" "mass error=0.004852032000030704" "cas number=19046-26-5" "SMILES=COC1=CC=C(C=C1)C2=COC3=CC(=C(C=C3C2=O)OC)O[C@H]4[C@@H]([C@H]([C@@H]([C@H](O4)CO)O)O)O" "InChI=InChI=1S/C23H24O10/c1-29-12-5-3-11(4-6-12)14-10-31-15-8-17(16(30-2)7-13(15)19(14)25)32-23-22(28)21(27)20(26)18(9-24)33-23/h3-8,10,18,20-24,26-28H,9H2,1-2H3/t18-,20-,21+,22-,23-/m1/s1" "InChIKey=YLYJXNTZVUEFJZ-DODNOZFWSA-N" "molecular formula=C23H24O10" "total exact mass=460.13694696799996" "SMILES=COC1=CC=C(C=C1)C2=COC3=CC(=C(C=C3C2=O)OC)OC4C(C(C(C(O4)CO)O)O)O"
Num Peaks: 23
 195 0.500501; 
 211 0.400400; 
 223 0.700701; 
 225 0.200200; 
 226 0.200200; 
 238 0.400400; 
 239 15.915916; 
 240 1.401401; 
 241 0.100100; 
 253 0.200200; 
 254 17.117117; 
 255 1.901902; 
 266 0.400400; 
 267 8.208208; 
 268 0.600601; 
 281 0.800801; 
 282 100.000000; 
 282 0.200200; 
 283 10.910911; 
 284 0.700701; 
 297 14.614615; 
 298 2.102102; 
 299 0.200200; 


Name: 6,4'-Dimethoxyisoflavone-7-glucoside
Synon: Wistin
SYNON: $:00in-source
DB#: MetaboBASE0441
InChIKey: YLYJXNTZVUEFJZ-DODNOZFWSA-N
Precursor_type: [M+FA-H]-
Spectrum_type: MS2
PrecursorMZ: 505.14
Instrument_type: LC-ESI-TOF
Instrument: impact HD
Ion_mode: N
Collision_energy: 30
InChIKey: YLYJXNTZVUEFJZ-DODNOZFWSA-N
Formula: C23H24O10
MW: 460
ExactMass: 460.13694696799996
Comments: "license=License CC-BY-NC-SA 4.0 International" "author=Plant Biology, The Noble Foundation, Ardmore, OK, US/Dennis Fine, Daniel Wherritt, and Lloyd Sumner" "instrument type=LC-ESI-TOF" "instrument=impact HD" "ionization=ESI" "ionization mode=negative" "ms level=MS2" "precursor m/z=505.14" "isolation width=5" "collision gas=Nitrogen" "collision energy=30" "peak width=0.017" "date=2014-08-06 22:48:21+02:00" "column=Waters Acquity BEH C18 1.7um x 2.1 x 150 mm" "retention time=505.8" "raw data file=C:\Data\Confirmed standards 24_July_2014\MSMS\64Dimethoxyisovalone7Glu_1-C,2_01_556.d" "precursor type=[M+FA-H]-" "mass accuracy=9.605321297126942" "mass error=0.004852032000030704" "cas number=19046-26-5" "SMILES=COC1=CC=C(C=C1)C2=COC3=CC(=C(C=C3C2=O)OC)O[C@H]4[C@@H]([C@H]([C@@H]([C@H](O4)CO)O)O)O" "InChI=InChI=1S/C23H24O10/c1-29-12-5-3-11(4-6-12)14-10-31-15-8-17(16(30-2)7-13(15)19(14)25)32-23-22(28)21(27)20(26)18(9-24)33-23/h3-8,10,18,20-24,26-28H,9H2,1-2H3/t18-,20-,21+,22-,23-/m1/s1" "InChIKey=YLYJXNTZVUEFJZ-DODNOZFWSA-N" "molecular formula=C23H24O10" "total exact mass=460.13694696799996" "SMILES=COC1=CC=C(C=C1)C2=COC3=CC(=C(C=C3C2=O)OC)OC4C(C(C(C(O4)CO)O)O)O"
Num Peaks: 12
 239 2.102102; 
 240 0.200200; 
 254 1.401401; 
 255 0.100100; 
 267 0.700701; 
 282 22.522523; 
 283 2.402402; 
 284 0.100100; 
 297 100.000000; 
 298 12.012012; 
 299 0.800801; 
 307 0.100100; 


Name: 6,4'-Dimethoxyisoflavone-7-glucoside
Synon: Wistin
SYNON: $:00in-source
DB#: MetaboBASE0442
InChIKey: YLYJXNTZVUEFJZ-DODNOZFWSA-N
Spectrum_type: MS2
PrecursorMZ: 297.0749
Instrument_type: LC-ESI-TOF
Instrument: impact HD
Ion_mode: N
Collision_energy: 10
InChIKey: YLYJXNTZVUEFJZ-DODNOZFWSA-N
Formula: C23H24O10
MW: 460
ExactMass: 460.13694696799996
Comments: "license=License CC-BY-NC-SA 4.0 International" "author=Plant Biology, The Noble Foundation, Ardmore, OK, US/Dennis Fine, Daniel Wherritt, and Lloyd Sumner" "instrument type=LC-ESI-TOF" "instrument=impact HD" "ionization=ESI" "ionization mode=negative" "ms level=MS2" "precursor m/z=297.0749" "isolation width=5" "collision gas=Nitrogen" "collision energy=10" "peak width=0.014" "date=2014-07-26 11:24:51+02:00" "column=Waters Acquity BEH C18 1.7um x 2.1 x 150 mm" "retention time=505.8" "raw data file=C:\Data\Confirmed standards 24_July_2014\MSMS\64Dimethoxyisovalone7Glu_1-C,2_01_499.d" "cas number=19046-26-5" "SMILES=COC1=CC=C(C=C1)C2=COC3=CC(=C(C=C3C2=O)OC)O[C@H]4[C@@H]([C@H]([C@@H]([C@H](O4)CO)O)O)O" "InChI=InChI=1S/C23H24O10/c1-29-12-5-3-11(4-6-12)14-10-31-15-8-17(16(30-2)7-13(15)19(14)25)32-23-22(28)21(27)20(26)18(9-24)33-23/h3-8,10,18,20-24,26-28H,9H2,1-2H3/t18-,20-,21+,22-,23-/m1/s1" "InChIKey=YLYJXNTZVUEFJZ-DODNOZFWSA-N" "molecular formula=C23H24O10" "total exact mass=460.13694696799996" "SMILES=COC1=CC=C(C=C1)C2=COC3=CC(=C(C=C3C2=O)OC)OC4C(C(C(C(O4)CO)O)O)O"
Num Peaks: 9
 239 0.500501; 
 254 0.500501; 
 267 0.300300; 
 282 15.515516; 
 283 1.901902; 
 284 0.100100; 
 297 100.000000; 
 298 17.517518; 
 299 1.101101; 


Name: 6,4'-Dimethoxyisoflavone-7-glucoside
Synon: Wistin
SYNON: $:00in-source
DB#: MetaboBASE0443
InChIKey: YLYJXNTZVUEFJZ-DODNOZFWSA-N
Precursor_type: [M+FA-H]-
Spectrum_type: MS2
PrecursorMZ: 505.14
Instrument_type: LC-ESI-TOF
Instrument: impact HD
Ion_mode: N
Collision_energy: 40
InChIKey: YLYJXNTZVUEFJZ-DODNOZFWSA-N
Formula: C23H24O10
MW: 460
ExactMass: 460.13694696799996
Comments: "license=License CC-BY-NC-SA 4.0 International" "author=Plant Biology, The Noble Foundation, Ardmore, OK, US/Dennis Fine, Daniel Wherritt, and Lloyd Sumner" "instrument type=LC-ESI-TOF" "instrument=impact HD" "ionization=ESI" "ionization mode=negative" "ms level=MS2" "precursor m/z=505.14" "isolation width=5" "collision gas=Nitrogen" "collision energy=40" "peak width=0.015" "date=2014-08-06 22:48:21+02:00" "column=Waters Acquity BEH C18 1.7um x 2.1 x 150 mm" "retention time=505.8" "raw data file=C:\Data\Confirmed standards 24_July_2014\MSMS\64Dimethoxyisovalone7Glu_1-C,2_01_556.d" "precursor type=[M+FA-H]-" "mass accuracy=9.605321297126942" "mass error=0.004852032000030704" "cas number=19046-26-5" "SMILES=COC1=CC=C(C=C1)C2=COC3=CC(=C(C=C3C2=O)OC)O[C@H]4[C@@H]([C@H]([C@@H]([C@H](O4)CO)O)O)O" "InChI=InChI=1S/C23H24O10/c1-29-12-5-3-11(4-6-12)14-10-31-15-8-17(16(30-2)7-13(15)19(14)25)32-23-22(28)21(27)20(26)18(9-24)33-23/h3-8,10,18,20-24,26-28H,9H2,1-2H3/t18-,20-,21+,22-,23-/m1/s1" "InChIKey=YLYJXNTZVUEFJZ-DODNOZFWSA-N" "molecular formula=C23H24O10" "total exact mass=460.13694696799996" "SMILES=COC1=CC=C(C=C1)C2=COC3=CC(=C(C=C3C2=O)OC)OC4C(C(C(C(O4)CO)O)O)O"
Num Peaks: 21
 211 0.100100; 
 223 0.300300; 
 238 0.200200; 
 239 6.606607; 
 240 0.500501; 
 253 0.100100; 
 254 6.806807; 
 255 0.800801; 
 266 0.200200; 
 267 2.602603; 
 268 0.300300; 
 281 0.300300; 
 282 100.000000; 
 282 0.200200; 
 283 10.210210; 
 284 0.600601; 
 297 80.580581; 
 298 10.010010; 
 299 0.800801; 
 304 0.200200; 
 307 0.100100; 


Name: 6,4'-Dimethoxyisoflavone-7-glucoside
Synon: Wistin
SYNON: $:00in-source
DB#: MetaboBASE0444
InChIKey: YLYJXNTZVUEFJZ-DODNOZFWSA-N
Precursor_type: [M+FA-H]-
Spectrum_type: MS2
PrecursorMZ: 505.1405
Instrument_type: LC-ESI-TOF
Instrument: impact HD
Ion_mode: N
Collision_energy: 20
InChIKey: YLYJXNTZVUEFJZ-DODNOZFWSA-N
Formula: C23H24O10
MW: 460
ExactMass: 460.13694696799996
Comments: "license=License CC-BY-NC-SA 4.0 International" "author=Plant Biology, The Noble Foundation, Ardmore, OK, US/Dennis Fine, Daniel Wherritt, and Lloyd Sumner" "instrument type=LC-ESI-TOF" "instrument=impact HD" "ionization=ESI" "ionization mode=negative" "ms level=MS2" "precursor m/z=505.1405" "isolation width=5" "collision gas=Nitrogen" "collision energy=20" "peak width=0.017" "date=2014-08-06 22:48:21+02:00" "column=Waters Acquity BEH C18 1.7um x 2.1 x 150 mm" "retention time=505.8" "raw data file=C:\Data\Confirmed standards 24_July_2014\MSMS\64Dimethoxyisovalone7Glu_1-C,2_01_556.d" "precursor type=[M+FA-H]-" "mass accuracy=10.595135412858166" "mass error=0.00535203200001888" "cas number=19046-26-5" "SMILES=COC1=CC=C(C=C1)C2=COC3=CC(=C(C=C3C2=O)OC)O[C@H]4[C@@H]([C@H]([C@@H]([C@H](O4)CO)O)O)O" "InChI=InChI=1S/C23H24O10/c1-29-12-5-3-11(4-6-12)14-10-31-15-8-17(16(30-2)7-13(15)19(14)25)32-23-22(28)21(27)20(26)18(9-24)33-23/h3-8,10,18,20-24,26-28H,9H2,1-2H3/t18-,20-,21+,22-,23-/m1/s1" "InChIKey=YLYJXNTZVUEFJZ-DODNOZFWSA-N" "molecular formula=C23H24O10" "total exact mass=460.13694696799996" "SMILES=COC1=CC=C(C=C1)C2=COC3=CC(=C(C=C3C2=O)OC)OC4C(C(C(C(O4)CO)O)O)O"
Num Peaks: 12
 207 0.200200; 
 239 0.500501; 
 254 0.400400; 
 267 0.200200; 
 282 4.604605; 
 283 0.500501; 
 297 100.000000; 
 298 12.212212; 
 299 0.600601; 
 307 0.100100; 
 339 0.100100; 
 505 0.100100; 


Name: 6,4'-Dimethoxyisoflavone-7-glucoside
Synon: Wistin
SYNON: $:00in-source
DB#: MetaboBASE0445
InChIKey: YLYJXNTZVUEFJZ-DODNOZFWSA-N
Instrument_type: LC-ESI-TOF
Instrument: impact HD
Ion_mode: N
Collision_energy: 10
InChIKey: YLYJXNTZVUEFJZ-DODNOZFWSA-N
Formula: C23H24O10
MW: 460
ExactMass: 460.13694696799996
Comments: "license=License CC-BY-NC-SA 4.0 International" "author=Plant Biology, The Noble Foundation, Ardmore, OK, US/Dennis Fine, Daniel Wherritt, and Lloyd Sumner" "instrument type=LC-ESI-TOF" "instrument=impact HD" "ionization=ESI" "ionization mode=negative" "collision gas=Nitrogen" "collision energy=10" "peak width=0.017" "date=2013-11-21 03:02:21+01:00" "column=Waters Acquity BEH C18 1.7um x 2.1 x 150 mm" "retention time=505.8" "raw data file=C:\Data\Confirmed Standards\Confirmed Stds 19Nov13\363'4'Tetrahydroxyflavone dil.d" "cas number=19046-26-5" "SMILES=COC1=CC=C(C=C1)C2=COC3=CC(=C(C=C3C2=O)OC)O[C@H]4[C@@H]([C@H]([C@@H]([C@H](O4)CO)O)O)O" "InChI=InChI=1S/C23H24O10/c1-29-12-5-3-11(4-6-12)14-10-31-15-8-17(16(30-2)7-13(15)19(14)25)32-23-22(28)21(27)20(26)18(9-24)33-23/h3-8,10,18,20-24,26-28H,9H2,1-2H3/t18-,20-,21+,22-,23-/m1/s1" "InChIKey=YLYJXNTZVUEFJZ-DODNOZFWSA-N" "molecular formula=C23H24O10" "total exact mass=460.13694696799996" "SMILES=COC1=CC=C(C=C1)C2=COC3=CC(=C(C=C3C2=O)OC)OC4C(C(C(C(O4)CO)O)O)O"
Num Peaks: 21
 135 1.901902; 
 153 2.602603; 
 163 3.503504; 
 211 1.101101; 
 227 2.902903; 
 229 1.501502; 
 239 7.507508; 
 240 1.301301; 
 255 5.205205; 
 257 4.004004; 
 273 1.301301; 
 283 62.362362; 
 284 8.708709; 
 285 100.000000; 
 286 13.013013; 
 287 1.901902; 
 301 23.723724; 
 302 3.503504; 
 556 1.101101; 
 589 2.002002; 
 591 1.801802; 


Name: 3,6,3',4'-Tetrahydroxyflavone
SYNON: $:00in-source
DB#: MetaboBASE0446
InChIKey: BXPBSBBFPNTFFT-UHFFFAOYSA-N
Precursor_type: [M-H]-
Spectrum_type: MS2
PrecursorMZ: 285.04
Instrument_type: LC-ESI-TOF
Instrument: impact HD
Ion_mode: N
Collision_energy: 40
InChIKey: BXPBSBBFPNTFFT-UHFFFAOYSA-N
Formula: C15H10O6
MW: 286
ExactMass: 286.04773804
Comments: "license=License CC-BY-NC-SA 4.0 International" "author=Plant Biology, The Noble Foundation, Ardmore, OK, US/Dennis Fine, Daniel Wherritt, and Lloyd Sumner" "instrument type=LC-ESI-TOF" "instrument=impact HD" "ionization=ESI" "ionization mode=negative" "ms level=MS2" "precursor m/z=285.04" "isolation width=5" "collision gas=Nitrogen" "collision energy=40" "peak width=0.015" "date=2013-11-23 01:24:26+01:00" "column=Waters Acquity BEH C18 1.7um x 2.1 x 150 mm" "retention time=406.8" "raw data file=C:\Data\Confirmed Standards\Confirmed stds MSMS 22Nov13\363'4'Tetrahydroxyflavone MSMS.d" "precursor type=[M-H]-" "mass accuracy=1.6209654785369134" "mass error=-4.6204000000216183E-4" "SMILES=c1cc(c(cc1c2c(c(=O)c3cc(ccc3o2)O)O)O)O" "InChI=InChI=1S/C15H10O6/c16-8-2-4-12-9(6-8)13(19)14(20)15(21-12)7-1-3-10(17)11(18)5-7/h1-6,16-18,20H" "InChIKey=BXPBSBBFPNTFFT-UHFFFAOYSA-N" "molecular formula=C15H10O6" "total exact mass=286.04773804" "SMILES=C1=C(C=C2C(=C1)OC(=C(C2=O)O)C3=CC=C(C(=C3)O)O)O"
Num Peaks: 6
 121 100.000000; 
 135 11.311311; 
 149 16.316316; 
 211 17.117117; 
 227 14.014014; 
 229 17.917918; 


Name: 3,6,3',4'-Tetrahydroxyflavone
SYNON: $:00in-source
DB#: MetaboBASE0447
InChIKey: BXPBSBBFPNTFFT-UHFFFAOYSA-N
Instrument_type: LC-ESI-TOF
Instrument: impact HD
Ion_mode: N
Collision_energy: 10
InChIKey: BXPBSBBFPNTFFT-UHFFFAOYSA-N
Formula: C15H10O6
MW: 286
ExactMass: 286.04773804
Comments: "license=License CC-BY-NC-SA 4.0 International" "author=Plant Biology, The Noble Foundation, Ardmore, OK, US/Dennis Fine, Daniel Wherritt, and Lloyd Sumner" "instrument type=LC-ESI-TOF" "instrument=impact HD" "ionization=ESI" "ionization mode=negative" "collision gas=Nitrogen" "collision energy=10" "peak width=0.017" "date=2013-11-21 03:02:21+01:00" "column=Waters Acquity BEH C18 1.7um x 2.1 x 150 mm" "retention time=406.8" "raw data file=C:\Data\Confirmed Standards\Confirmed Stds 19Nov13\363'4'Tetrahydroxyflavone dil.d" "SMILES=c1cc(c(cc1c2c(c(=O)c3cc(ccc3o2)O)O)O)O" "InChI=InChI=1S/C15H10O6/c16-8-2-4-12-9(6-8)13(19)14(20)15(21-12)7-1-3-10(17)11(18)5-7/h1-6,16-18,20H" "InChIKey=BXPBSBBFPNTFFT-UHFFFAOYSA-N" "molecular formula=C15H10O6" "total exact mass=286.04773804" "SMILES=C1=C(C=C2C(=C1)OC(=C(C2=O)O)C3=CC=C(C(=C3)O)O)O"
Num Peaks: 21
 135 1.901902; 
 153 2.602603; 
 163 3.503504; 
 211 1.101101; 
 227 2.902903; 
 229 1.501502; 
 239 7.507508; 
 240 1.301301; 
 255 5.205205; 
 257 4.004004; 
 273 1.301301; 
 283 62.362362; 
 284 8.708709; 
 285 100.000000; 
 286 13.013013; 
 287 1.901902; 
 301 23.723724; 
 302 3.503504; 
 556 1.101101; 
 589 2.002002; 
 591 1.801802; 


Name: 3,6,3',4'-Tetrahydroxyflavone
SYNON: $:00in-source
DB#: MetaboBASE0448
InChIKey: BXPBSBBFPNTFFT-UHFFFAOYSA-N
Precursor_type: [M-H]-
Spectrum_type: MS2
PrecursorMZ: 285.0406
Instrument_type: LC-ESI-TOF
Instrument: impact HD
Ion_mode: N
Collision_energy: 10
InChIKey: BXPBSBBFPNTFFT-UHFFFAOYSA-N
Formula: C15H10O6
MW: 286
ExactMass: 286.04773804
Comments: "license=License CC-BY-NC-SA 4.0 International" "author=Plant Biology, The Noble Foundation, Ardmore, OK, US/Dennis Fine, Daniel Wherritt, and Lloyd Sumner" "instrument type=LC-ESI-TOF" "instrument=impact HD" "ionization=ESI" "ionization mode=negative" "ms level=MS2" "precursor m/z=285.0406" "isolation width=5" "collision gas=Nitrogen" "collision energy=10" "peak width=0.014" "date=2013-11-23 01:24:26+01:00" "column=Waters Acquity BEH C18 1.7um x 2.1 x 150 mm" "retention time=406.8" "raw data file=C:\Data\Confirmed Standards\Confirmed stds MSMS 22Nov13\363'4'Tetrahydroxyflavone MSMS.d" "precursor type=[M-H]-" "mass accuracy=0.4840012263548164" "mass error=1.3795999996091268E-4" "SMILES=c1cc(c(cc1c2c(c(=O)c3cc(ccc3o2)O)O)O)O" "InChI=InChI=1S/C15H10O6/c16-8-2-4-12-9(6-8)13(19)14(20)15(21-12)7-1-3-10(17)11(18)5-7/h1-6,16-18,20H" "InChIKey=BXPBSBBFPNTFFT-UHFFFAOYSA-N" "molecular formula=C15H10O6" "total exact mass=286.04773804" "SMILES=C1=C(C=C2C(=C1)OC(=C(C2=O)O)C3=CC=C(C(=C3)O)O)O"
Num Peaks: 13
 163 0.400400; 
 227 1.201201; 
 228 0.300300; 
 239 5.705706; 
 240 1.001001; 
 255 3.003003; 
 256 0.800801; 
 257 0.700701; 
 283 33.433433; 
 284 5.705706; 
 285 100.000000; 
 286 10.610611; 
 287 1.501502; 


Name: 3,6,3',4'-Tetrahydroxyflavone
SYNON: $:00in-source
DB#: MetaboBASE0449
InChIKey: BXPBSBBFPNTFFT-UHFFFAOYSA-N
Precursor_type: [M-H]-
Spectrum_type: MS2
PrecursorMZ: 285.0406
Instrument_type: LC-ESI-TOF
Instrument: impact HD
Ion_mode: N
Collision_energy: 20
InChIKey: BXPBSBBFPNTFFT-UHFFFAOYSA-N
Formula: C15H10O6
MW: 286
ExactMass: 286.04773804
Comments: "license=License CC-BY-NC-SA 4.0 International" "author=Plant Biology, The Noble Foundation, Ardmore, OK, US/Dennis Fine, Daniel Wherritt, and Lloyd Sumner" "instrument type=LC-ESI-TOF" "instrument=impact HD" "ionization=ESI" "ionization mode=negative" "ms level=MS2" "precursor m/z=285.0406" "isolation width=5" "collision gas=Nitrogen" "collision energy=20" "peak width=0.017" "date=2013-11-23 01:24:26+01:00" "column=Waters Acquity BEH C18 1.7um x 2.1 x 150 mm" "retention time=406.8" "raw data file=C:\Data\Confirmed Standards\Confirmed stds MSMS 22Nov13\363'4'Tetrahydroxyflavone MSMS.d" "precursor type=[M-H]-" "mass accuracy=0.4840012263548164" "mass error=1.3795999996091268E-4" "SMILES=c1cc(c(cc1c2c(c(=O)c3cc(ccc3o2)O)O)O)O" "InChI=InChI=1S/C15H10O6/c16-8-2-4-12-9(6-8)13(19)14(20)15(21-12)7-1-3-10(17)11(18)5-7/h1-6,16-18,20H" "InChIKey=BXPBSBBFPNTFFT-UHFFFAOYSA-N" "molecular formula=C15H10O6" "total exact mass=286.04773804" "SMILES=C1=C(C=C2C(=C1)OC(=C(C2=O)O)C3=CC=C(C(=C3)O)O)O"
Num Peaks: 24
 121 29.729730; 
 122 2.802803; 
 135 24.024024; 
 149 4.904905; 
 163 33.533534; 
 183 6.606607; 
 199 2.302302; 
 211 7.407407; 
 213 2.702703; 
 226 3.803804; 
 227 33.433433; 
 228 8.308308; 
 229 23.223223; 
 239 55.855856; 
 240 16.916917; 
 241 10.110110; 
 255 24.024024; 
 256 3.103103; 
 257 22.022022; 
 258 2.402402; 
 283 25.725726; 
 284 5.705706; 
 285 100.000000; 
 286 14.114114; 


Name: 3,6,3',4'-Tetrahydroxyflavone
SYNON: $:00in-source
DB#: MetaboBASE0450
InChIKey: BXPBSBBFPNTFFT-UHFFFAOYSA-N
Precursor_type: [M-H]-
Spectrum_type: MS2
PrecursorMZ: 285.0394
Instrument_type: LC-ESI-TOF
Instrument: impact HD
Ion_mode: N
Collision_energy: 30
InChIKey: BXPBSBBFPNTFFT-UHFFFAOYSA-N
Formula: C15H10O6
MW: 286
ExactMass: 286.04773804
Comments: "license=License CC-BY-NC-SA 4.0 International" "author=Plant Biology, The Noble Foundation, Ardmore, OK, US/Dennis Fine, Daniel Wherritt, and Lloyd Sumner" "instrument type=LC-ESI-TOF" "instrument=impact HD" "ionization=ESI" "ionization mode=negative" "ms level=MS2" "precursor m/z=285.0394" "isolation width=5" "collision gas=Nitrogen" "collision energy=30" "peak width=0.014" "date=2013-11-23 01:24:26+01:00" "column=Waters Acquity BEH C18 1.7um x 2.1 x 150 mm" "retention time=406.8" "raw data file=C:\Data\Confirmed Standards\Confirmed stds MSMS 22Nov13\363'4'Tetrahydroxyflavone MSMS.d" "precursor type=[M-H]-" "mass accuracy=3.7259410454206674" "mass error=-0.0010620400000220798" "SMILES=c1cc(c(cc1c2c(c(=O)c3cc(ccc3o2)O)O)O)O" "InChI=InChI=1S/C15H10O6/c16-8-2-4-12-9(6-8)13(19)14(20)15(21-12)7-1-3-10(17)11(18)5-7/h1-6,16-18,20H" "InChIKey=BXPBSBBFPNTFFT-UHFFFAOYSA-N" "molecular formula=C15H10O6" "total exact mass=286.04773804" "SMILES=C1=C(C=C2C(=C1)OC(=C(C2=O)O)C3=CC=C(C(=C3)O)O)O"
Num Peaks: 23
 107 5.205205; 
 119 7.507508; 
 121 100.000000; 
 122 10.710711; 
 135 38.638639; 
 149 17.017017; 
 163 12.712713; 
 182 5.605606; 
 183 18.518519; 
 199 5.805806; 
 210 8.808809; 
 211 10.110110; 
 213 5.905906; 
 226 8.408408; 
 227 17.317317; 
 228 6.806807; 
 229 27.327327; 
 239 13.813814; 
 240 7.907908; 
 241 6.106106; 
 255 6.106106; 
 257 6.606607; 
 285 7.107107; 


Name: 3,6,3',4'-Tetrahydroxyflavone
SYNON: $:00in-source
DB#: MetaboBASE0451
InChIKey: BXPBSBBFPNTFFT-UHFFFAOYSA-N
Instrument_type: LC-ESI-TOF
Instrument: impact HD
Ion_mode: N
InChIKey: BXPBSBBFPNTFFT-UHFFFAOYSA-N
Formula: C15H10O6
MW: 286
ExactMass: 286.04773803999996
Comments: "license=License CC-BY-NC-SA 4.0 International" "author=Plant Biology, The Noble Foundation, Ardmore, OK, US/Dennis Fine, Daniel Wherritt, and Lloyd Sumner" "instrument type=LC-ESI-TOF" "instrument=impact HD" "ionization=ESI" "ionization mode=negative" "collision gas=Nitrogen" "peak width=0.015" "date=2013-11-23 01:24:26+01:00" "column=Waters Acquity BEH C18 1.7um x 2.1 x 150 mm" "retention time=406.8" "raw data file=C:\Data\Confirmed Standards\Confirmed stds MSMS 22Nov13\363'4'Tetrahydroxyflavone MSMS.d" "SMILES=c1cc(c(cc1c2c(c(=O)c3cc(ccc3o2)O)O)O)O" "InChI=InChI=1S/C15H10O6/c16-8-2-4-12-9(6-8)13(19)14(20)15(21-12)7-1-3-10(17)11(18)5-7/h1-6,16-18,20H" "InChIKey=BXPBSBBFPNTFFT-UHFFFAOYSA-N" "molecular formula=C15H10O6" "total exact mass=286.04773803999996" "SMILES=C1=C(C=C2C(=C1)OC(=C(C2=O)O)C3=CC=C(C(=C3)O)O)O"
Num Peaks: 23
 239 1.301301; 
 283 61.061061; 
 284 6.806807; 
 285 100.000000; 
 286 12.512513; 
 287 1.501502; 
 299 1.601602; 
 301 73.973974; 
 302 9.009009; 
 303 1.201201; 
 315 1.201201; 
 317 2.302302; 
 319 2.502503; 
 569 3.903904; 
 570 1.201201; 
 571 13.913914; 
 572 3.403403; 
 585 1.501502; 
 587 3.803804; 
 603 6.406406; 
 604 1.901902; 
 621 1.101101; 
 857 2.002002; 


Name: 3,6,2',3'-Tetrahydroxyflavone
SYNON: $:00in-source
DB#: MetaboBASE0452
InChIKey: KQRPHHDERPYSPX-UHFFFAOYSA-N
Precursor_type: [M-H]-
Spectrum_type: MS2
PrecursorMZ: 285.0411
Instrument_type: LC-ESI-TOF
Instrument: impact HD
Ion_mode: N
Collision_energy: 10
InChIKey: KQRPHHDERPYSPX-UHFFFAOYSA-N
Formula: C15H10O6
MW: 286
ExactMass: 286.04773804
Comments: "license=License CC-BY-NC-SA 4.0 International" "author=Plant Biology, The Noble Foundation, Ardmore, OK, US/Dennis Fine, Daniel Wherritt, and Lloyd Sumner" "instrument type=LC-ESI-TOF" "instrument=impact HD" "ionization=ESI" "ionization mode=negative" "ms level=MS2" "precursor m/z=285.0411" "isolation width=5" "collision gas=Nitrogen" "collision energy=10" "peak width=0.012" "date=2013-11-23 02:05:09+01:00" "column=Waters Acquity BEH C18 1.7um x 2.1 x 150 mm" "retention time=475.2" "raw data file=C:\Data\Confirmed Standards\Confirmed stds MSMS 22Nov13\362'3'Tetrahydroxyflavone MSMS.d" "precursor type=[M-H]-" "mass accuracy=2.2381333777798686" "mass error=6.379599999490893E-4" "SMILES=c1cc(c(c(c1)O)O)c2c(c(=O)c3cc(ccc3o2)O)O" "InChI=InChI=1S/C15H10O6/c16-7-4-5-11-9(6-7)13(19)14(20)15(21-11)8-2-1-3-10(17)12(8)18/h1-6,16-18,20H" "InChIKey=KQRPHHDERPYSPX-UHFFFAOYSA-N" "molecular formula=C15H10O6" "total exact mass=286.04773804" "SMILES=C1=C(C=C2C(=C1)OC(=C(C2=O)O)C3=CC=CC(=C3O)O)O"
Num Peaks: 9
 227 1.401401; 
 239 7.207207; 
 240 1.301301; 
 255 5.205205; 
 283 31.731732; 
 284 4.004004; 
 285 100.000000; 
 286 10.310310; 
 287 1.201201; 


Name: 3,6,2',3'-Tetrahydroxyflavone
SYNON: $:00in-source
DB#: MetaboBASE0453
InChIKey: KQRPHHDERPYSPX-UHFFFAOYSA-N
Precursor_type: [M-H]-
Spectrum_type: MS2
PrecursorMZ: 285.0408
Instrument_type: LC-ESI-TOF
Instrument: impact HD
Ion_mode: N
Collision_energy: 20
InChIKey: KQRPHHDERPYSPX-UHFFFAOYSA-N
Formula: C15H10O6
MW: 286
ExactMass: 286.04773804
Comments: "license=License CC-BY-NC-SA 4.0 International" "author=Plant Biology, The Noble Foundation, Ardmore, OK, US/Dennis Fine, Daniel Wherritt, and Lloyd Sumner" "instrument type=LC-ESI-TOF" "instrument=impact HD" "ionization=ESI" "ionization mode=negative" "ms level=MS2" "precursor m/z=285.0408" "isolation width=5" "collision gas=Nitrogen" "collision energy=20" "peak width=0.017" "date=2013-11-23 02:05:09+01:00" "column=Waters Acquity BEH C18 1.7um x 2.1 x 150 mm" "retention time=475.2" "raw data file=C:\Data\Confirmed Standards\Confirmed stds MSMS 22Nov13\362'3'Tetrahydroxyflavone MSMS.d" "precursor type=[M-H]-" "mass accuracy=1.1856548254409613" "mass error=3.37959999967552E-4" "SMILES=c1cc(c(c(c1)O)O)c2c(c(=O)c3cc(ccc3o2)O)O" "InChI=InChI=1S/C15H10O6/c16-7-4-5-11-9(6-7)13(19)14(20)15(21-11)8-2-1-3-10(17)12(8)18/h1-6,16-18,20H" "InChIKey=KQRPHHDERPYSPX-UHFFFAOYSA-N" "molecular formula=C15H10O6" "total exact mass=286.04773804" "SMILES=C1=C(C=C2C(=C1)OC(=C(C2=O)O)C3=CC=CC(=C3O)O)O"
Num Peaks: 16
 121 6.806807; 
 135 8.808809; 
 149 100.000000; 
 150 5.905906; 
 163 9.709710; 
 175 8.508509; 
 211 9.609610; 
 227 36.736737; 
 229 9.909910; 
 239 27.227227; 
 255 20.620621; 
 257 14.014014; 
 267 10.810811; 
 283 9.009009; 
 285 75.175175; 
 286 6.706707; 


Name: 3,6,2',3'-Tetrahydroxyflavone
SYNON: $:00in-source
DB#: MetaboBASE0454
InChIKey: KQRPHHDERPYSPX-UHFFFAOYSA-N
Precursor_type: [M-H]-
Spectrum_type: MS2
PrecursorMZ: 285.04
Instrument_type: LC-ESI-TOF
Instrument: impact HD
Ion_mode: N
Collision_energy: 30
InChIKey: KQRPHHDERPYSPX-UHFFFAOYSA-N
Formula: C15H10O6
MW: 286
ExactMass: 286.04773804
Comments: "license=License CC-BY-NC-SA 4.0 International" "author=Plant Biology, The Noble Foundation, Ardmore, OK, US/Dennis Fine, Daniel Wherritt, and Lloyd Sumner" "instrument type=LC-ESI-TOF" "instrument=impact HD" "ionization=ESI" "ionization mode=negative" "ms level=MS2" "precursor m/z=285.04" "isolation width=5" "collision gas=Nitrogen" "collision energy=30" "peak width=0.015" "date=2013-11-23 02:05:09+01:00" "column=Waters Acquity BEH C18 1.7um x 2.1 x 150 mm" "retention time=475.2" "raw data file=C:\Data\Confirmed Standards\Confirmed stds MSMS 22Nov13\362'3'Tetrahydroxyflavone MSMS.d" "precursor type=[M-H]-" "mass accuracy=1.6209654785369134" "mass error=-4.6204000000216183E-4" "SMILES=c1cc(c(c(c1)O)O)c2c(c(=O)c3cc(ccc3o2)O)O" "InChI=InChI=1S/C15H10O6/c16-7-4-5-11-9(6-7)13(19)14(20)15(21-11)8-2-1-3-10(17)12(8)18/h1-6,16-18,20H" "InChIKey=KQRPHHDERPYSPX-UHFFFAOYSA-N" "molecular formula=C15H10O6" "total exact mass=286.04773804" "SMILES=C1=C(C=C2C(=C1)OC(=C(C2=O)O)C3=CC=CC(=C3O)O)O"
Num Peaks: 27
 108 4.804805; 
 109 4.104104; 
 119 3.403403; 
 121 19.619620; 
 122 1.701702; 
 131 1.701702; 
 135 8.208208; 
 143 2.202202; 
 147 2.802803; 
 148 1.801802; 
 149 100.000000; 
 150 6.406406; 
 155 2.302302; 
 163 4.504505; 
 164 1.901902; 
 175 2.202202; 
 182 1.801802; 
 183 3.803804; 
 199 3.003003; 
 210 1.601602; 
 211 4.904905; 
 227 9.509510; 
 229 3.403403; 
 239 4.304304; 
 255 1.701702; 
 257 2.002002; 
 267 1.901902; 


Name: 3,6,2',3'-Tetrahydroxyflavone
SYNON: $:00in-source
DB#: MetaboBASE0455
InChIKey: KQRPHHDERPYSPX-UHFFFAOYSA-N
Precursor_type: [M-H]-
Spectrum_type: MS2
PrecursorMZ: 285.04
Instrument_type: LC-ESI-TOF
Instrument: impact HD
Ion_mode: N
Collision_energy: 40
InChIKey: KQRPHHDERPYSPX-UHFFFAOYSA-N
Formula: C15H10O6
MW: 286
ExactMass: 286.04773804
Comments: "license=License CC-BY-NC-SA 4.0 International" "author=Plant Biology, The Noble Foundation, Ardmore, OK, US/Dennis Fine, Daniel Wherritt, and Lloyd Sumner" "instrument type=LC-ESI-TOF" "instrument=impact HD" "ionization=ESI" "ionization mode=negative" "ms level=MS2" "precursor m/z=285.04" "isolation width=5" "collision gas=Nitrogen" "collision energy=40" "peak width=0.016" "date=2013-11-23 02:05:09+01:00" "column=Waters Acquity BEH C18 1.7um x 2.1 x 150 mm" "retention time=475.2" "raw data file=C:\Data\Confirmed Standards\Confirmed stds MSMS 22Nov13\362'3'Tetrahydroxyflavone MSMS.d" "precursor type=[M-H]-" "mass accuracy=1.6209654785369134" "mass error=-4.6204000000216183E-4" "SMILES=c1cc(c(c(c1)O)O)c2c(c(=O)c3cc(ccc3o2)O)O" "InChI=InChI=1S/C15H10O6/c16-7-4-5-11-9(6-7)13(19)14(20)15(21-11)8-2-1-3-10(17)12(8)18/h1-6,16-18,20H" "InChIKey=KQRPHHDERPYSPX-UHFFFAOYSA-N" "molecular formula=C15H10O6" "total exact mass=286.04773804" "SMILES=C1=C(C=C2C(=C1)OC(=C(C2=O)O)C3=CC=CC(=C3O)O)O"
Num Peaks: 25
 108 7.307307; 
 109 7.207207; 
 115 2.502503; 
 117 3.603604; 
 119 4.004004; 
 121 58.958959; 
 122 2.302302; 
 123 2.602603; 
 135 3.803804; 
 139 4.804805; 
 143 5.405405; 
 147 2.402402; 
 149 100.000000; 
 150 8.108108; 
 155 2.502503; 
 171 2.602603; 
 175 3.703704; 
 182 7.807808; 
 183 4.004004; 
 199 2.402402; 
 201 2.502503; 
 210 3.503504; 
 211 3.203203; 
 227 3.203203; 
 238 3.703704; 


Name: 3,6,2',3'-Tetrahydroxyflavone
SYNON: $:00in-source
DB#: MetaboBASE0456
InChIKey: KQRPHHDERPYSPX-UHFFFAOYSA-N
Instrument_type: LC-ESI-TOF
Instrument: impact HD
Ion_mode: N
Collision_energy: 10
InChIKey: KQRPHHDERPYSPX-UHFFFAOYSA-N
Formula: C15H10O6
MW: 286
ExactMass: 286.04773804
Comments: "license=License CC-BY-NC-SA 4.0 International" "author=Plant Biology, The Noble Foundation, Ardmore, OK, US/Dennis Fine, Daniel Wherritt, and Lloyd Sumner" "instrument type=LC-ESI-TOF" "instrument=impact HD" "ionization=ESI" "ionization mode=negative" "collision gas=Nitrogen" "collision energy=10" "peak width=0.018" "date=2013-11-21 03:43:03+01:00" "column=Waters Acquity BEH C18 1.7um x 2.1 x 150 mm" "retention time=475.2" "raw data file=C:\Data\Confirmed Standards\Confirmed Stds 19Nov13\362'3'Tetrahydroxyflavone dil.d" "SMILES=c1cc(c(c(c1)O)O)c2c(c(=O)c3cc(ccc3o2)O)O" "InChI=InChI=1S/C15H10O6/c16-7-4-5-11-9(6-7)13(19)14(20)15(21-11)8-2-1-3-10(17)12(8)18/h1-6,16-18,20H" "InChIKey=KQRPHHDERPYSPX-UHFFFAOYSA-N" "molecular formula=C15H10O6" "total exact mass=286.04773804" "SMILES=C1=C(C=C2C(=C1)OC(=C(C2=O)O)C3=CC=CC(=C3O)O)O"
Num Peaks: 20
 149 2.102102; 
 163 1.801802; 
 211 1.201201; 
 227 3.103103; 
 239 5.405405; 
 255 5.105105; 
 257 3.303303; 
 267 1.301301; 
 283 13.613614; 
 284 2.102102; 
 285 100.000000; 
 286 14.014014; 
 287 1.701702; 
 299 19.019019; 
 300 2.602603; 
 301 2.102102; 
 315 1.701702; 
 567 2.202202; 
 569 2.002002; 
 593 2.302302; 


Name: 7-Methoxy-4'-hydroxyflavone
SYNON: $:00in-source
DB#: MetaboBASE0457
InChIKey: DZUKXCCSULKRJA-UHFFFAOYSA-N
Instrument_type: LC-ESI-TOF
Instrument: impact HD
Ion_mode: N
Collision_energy: 10
InChIKey: DZUKXCCSULKRJA-UHFFFAOYSA-N
Formula: C16H12O4
MW: 268
ExactMass: 268.073558864
Comments: "license=License CC-BY-NC-SA 4.0 International" "author=Plant Biology, The Noble Foundation, Ardmore, OK, US/Dennis Fine, Daniel Wherritt, and Lloyd Sumner" "instrument type=LC-ESI-TOF" "instrument=impact HD" "ionization=ESI" "ionization mode=negative" "collision gas=Nitrogen" "collision energy=10" "peak width=0.014" "date=2013-11-21 02:21:36+01:00" "column=Waters Acquity BEH C18 1.7um x 2.1 x 150 mm" "retention time=688.8" "raw data file=C:\Data\Confirmed Standards\Confirmed Stds 19Nov13\7Methoxy4'hydroxyflavone dil.d" "cas number=32272-23-4" "SMILES=COc1ccc2c(=O)cc(oc2c1)c3ccc(cc3)O" "InChI=InChI=1S/C16H12O4/c1-19-12-6-7-13-14(18)9-15(20-16(13)8-12)10-2-4-11(17)5-3-10/h2-9,17H,1H3" "InChIKey=DZUKXCCSULKRJA-UHFFFAOYSA-N" "molecular formula=C16H12O4" "total exact mass=268.073558864" "SMILES=COC1=CC2=C(C=C1)C(=O)C=C(O2)C3=CC=C(C=C3)O"
Num Peaks: 5
 252 9.809810; 
 253 1.401401; 
 267 100.000000; 
 268 14.814815; 
 269 1.401401; 


Name: Isobavachin
SYNON: $:00in-source
DB#: MetaboBASE0458
InChIKey: KYFBXCHUXFKMGQ-IBGZPJMESA-N
Instrument_type: LC-ESI-TOF
Instrument: impact HD
Ion_mode: N
Collision_energy: 10
InChIKey: KYFBXCHUXFKMGQ-IBGZPJMESA-N
Formula: C20H20O4
MW: 324
ExactMass: 324.13615912
Comments: "license=License CC-BY-NC-SA 4.0 International" "author=Plant Biology, The Noble Foundation, Ardmore, OK, US/Dennis Fine, Daniel Wherritt, and Lloyd Sumner" "instrument type=LC-ESI-TOF" "instrument=impact HD" "ionization=ESI" "ionization mode=negative" "collision gas=Nitrogen" "collision energy=10" "peak width=0.011" "date=2013-11-21 07:06:46+01:00" "column=Waters Acquity BEH C18 1.7um x 2.1 x 150 mm" "retention time=878.4" "raw data file=C:\Data\Confirmed Standards\Confirmed Stds 19Nov13\Isobavachin (vial 255) dil.d" "cas number=31524-62-6" "SMILES=CC(=CCc1c(ccc2c1O[C@@H](CC2=O)c3ccc(cc3)O)O)C" "InChI=InChI=1S/C20H20O4/c1-12(2)3-8-15-17(22)10-9-16-18(23)11-19(24-20(15)16)13-4-6-14(21)7-5-13/h3-7,9-10,19,21-22H,8,11H2,1-2H3/t19-/m0/s1" "InChIKey=KYFBXCHUXFKMGQ-IBGZPJMESA-N" "molecular formula=C20H20O4" "total exact mass=324.13615912" "SMILES=CC(=CCC1=C(C=CC2=C1OC(CC2=O)C3=CC=C(C=C3)O)O)C" "InChI=InChI=1S/C20H20O4/c1-12(2)3-8-15-17(22)10-9-16-18(23)11-19(24-20(15)16)13-4-6-14(21)7-5-13/h3-7,9-10,19,21-22H,8,11H2,1-2H3" "InChIKey=KYFBXCHUXFKMGQ-UHFFFAOYSA-N"
Num Peaks: 4
 203 2.702703; 
 323 100.000000; 
 324 17.317317; 
 325 1.801802; 


Name: Isobavachin
SYNON: $:00in-source
DB#: MetaboBASE0459
InChIKey: KYFBXCHUXFKMGQ-IBGZPJMESA-N
Precursor_type: [M-H]-
Spectrum_type: MS2
PrecursorMZ: 323.1299
Instrument_type: LC-ESI-TOF
Instrument: impact HD
Ion_mode: N
Collision_energy: 10
InChIKey: KYFBXCHUXFKMGQ-IBGZPJMESA-N
Formula: C20H20O4
MW: 324
ExactMass: 324.13615912
Comments: "license=License CC-BY-NC-SA 4.0 International" "author=Plant Biology, The Noble Foundation, Ardmore, OK, US/Dennis Fine, Daniel Wherritt, and Lloyd Sumner" "instrument type=LC-ESI-TOF" "instrument=impact HD" "ionization=ESI" "ionization mode=negative" "ms level=MS2" "precursor m/z=323.1299" "isolation width=5" "collision gas=Nitrogen" "collision energy=10" "peak width=0.0089" "date=2013-11-23 05:28:56+01:00" "column=Waters Acquity BEH C18 1.7um x 2.1 x 150 mm" "retention time=878.4" "raw data file=C:\Data\Confirmed Standards\Confirmed stds MSMS 22Nov13\Isobavachin (vial 255) MSMS.d" "precursor type=[M-H]-" "mass accuracy=3.1469696862121657" "mass error=0.0010168800000087685" "cas number=31524-62-6" "SMILES=CC(=CCc1c(ccc2c1O[C@@H](CC2=O)c3ccc(cc3)O)O)C" "InChI=InChI=1S/C20H20O4/c1-12(2)3-8-15-17(22)10-9-16-18(23)11-19(24-20(15)16)13-4-6-14(21)7-5-13/h3-7,9-10,19,21-22H,8,11H2,1-2H3/t19-/m0/s1" "InChIKey=KYFBXCHUXFKMGQ-IBGZPJMESA-N" "molecular formula=C20H20O4" "total exact mass=324.13615912" "SMILES=CC(=CCC1=C(C=CC2=C1OC(CC2=O)C3=CC=C(C=C3)O)O)C" "InChI=InChI=1S/C20H20O4/c1-12(2)3-8-15-17(22)10-9-16-18(23)11-19(24-20(15)16)13-4-6-14(21)7-5-13/h3-7,9-10,19,21-22H,8,11H2,1-2H3" "InChIKey=KYFBXCHUXFKMGQ-UHFFFAOYSA-N"
Num Peaks: 7
 119 0.500501; 
 203 0.700701; 
 204 0.100100; 
 221 0.400400; 
 323 100.000000; 
 324 13.713714; 
 325 1.501502; 


Name: Isobavachin
SYNON: $:00in-source
DB#: MetaboBASE0460
InChIKey: KYFBXCHUXFKMGQ-IBGZPJMESA-N
Instrument_type: LC-ESI-TOF
Instrument: impact HD
Ion_mode: N
InChIKey: KYFBXCHUXFKMGQ-IBGZPJMESA-N
Formula: C20H20O4
MW: 324
ExactMass: 324.13615912
Comments: "license=License CC-BY-NC-SA 4.0 International" "author=Plant Biology, The Noble Foundation, Ardmore, OK, US/Dennis Fine, Daniel Wherritt, and Lloyd Sumner" "instrument type=LC-ESI-TOF" "instrument=impact HD" "ionization=ESI" "ionization mode=negative" "collision gas=Nitrogen" "peak width=0.012" "date=2013-11-23 05:28:56+01:00" "column=Waters Acquity BEH C18 1.7um x 2.1 x 150 mm" "retention time=878.4" "raw data file=C:\Data\Confirmed Standards\Confirmed stds MSMS 22Nov13\Isobavachin (vial 255) MSMS.d" "cas number=31524-62-6" "SMILES=CC(=CCc1c(ccc2c1O[C@@H](CC2=O)c3ccc(cc3)O)O)C" "InChI=InChI=1S/C20H20O4/c1-12(2)3-8-15-17(22)10-9-16-18(23)11-19(24-20(15)16)13-4-6-14(21)7-5-13/h3-7,9-10,19,21-22H,8,11H2,1-2H3/t19-/m0/s1" "InChIKey=KYFBXCHUXFKMGQ-IBGZPJMESA-N" "molecular formula=C20H20O4" "total exact mass=324.13615912" "SMILES=CC(=CCC1=C(C=CC2=C1OC(CC2=O)C3=CC=C(C=C3)O)O)C" "InChI=InChI=1S/C20H20O4/c1-12(2)3-8-15-17(22)10-9-16-18(23)11-19(24-20(15)16)13-4-6-14(21)7-5-13/h3-7,9-10,19,21-22H,8,11H2,1-2H3" "InChIKey=KYFBXCHUXFKMGQ-UHFFFAOYSA-N"
Num Peaks: 23
 112 0.100100; 
 235 0.100100; 
 242 0.200200; 
 248 0.100100; 
 323 100.000000; 
 324 17.417417; 
 325 1.801802; 
 326 0.200200; 
 359 0.100100; 
 391 1.401401; 
 392 0.400400; 
 453 0.100100; 
 459 0.100100; 
 556 0.100100; 
 647 14.914915; 
 648 5.605606; 
 649 1.201201; 
 650 0.200200; 
 666 0.300300; 
 669 0.200200; 
 670 0.100100; 
 1348 0.200200; 
 1349 0.200200; 


Name: Isobavachin
SYNON: $:00in-source
DB#: MetaboBASE0461
InChIKey: KYFBXCHUXFKMGQ-IBGZPJMESA-N
Precursor_type: [M-H]-
Spectrum_type: MS2
PrecursorMZ: 323.1295
Instrument_type: LC-ESI-TOF
Instrument: impact HD
Ion_mode: N
Collision_energy: 30
InChIKey: KYFBXCHUXFKMGQ-IBGZPJMESA-N
Formula: C20H20O4
MW: 324
ExactMass: 324.13615912
Comments: "license=License CC-BY-NC-SA 4.0 International" "author=Plant Biology, The Noble Foundation, Ardmore, OK, US/Dennis Fine, Daniel Wherritt, and Lloyd Sumner" "instrument type=LC-ESI-TOF" "instrument=impact HD" "ionization=ESI" "ionization mode=negative" "ms level=MS2" "precursor m/z=323.1295" "isolation width=5" "collision gas=Nitrogen" "collision energy=30" "peak width=0.015" "date=2013-11-23 05:28:56+01:00" "column=Waters Acquity BEH C18 1.7um x 2.1 x 150 mm" "retention time=878.4" "raw data file=C:\Data\Confirmed Standards\Confirmed stds MSMS 22Nov13\Isobavachin (vial 255) MSMS.d" "precursor type=[M-H]-" "mass accuracy=1.9090797961668309" "mass error=6.168799999954899E-4" "cas number=31524-62-6" "SMILES=CC(=CCc1c(ccc2c1O[C@@H](CC2=O)c3ccc(cc3)O)O)C" "InChI=InChI=1S/C20H20O4/c1-12(2)3-8-15-17(22)10-9-16-18(23)11-19(24-20(15)16)13-4-6-14(21)7-5-13/h3-7,9-10,19,21-22H,8,11H2,1-2H3/t19-/m0/s1" "InChIKey=KYFBXCHUXFKMGQ-IBGZPJMESA-N" "molecular formula=C20H20O4" "total exact mass=324.13615912" "SMILES=CC(=CCC1=C(C=CC2=C1OC(CC2=O)C3=CC=C(C=C3)O)O)C" "InChI=InChI=1S/C20H20O4/c1-12(2)3-8-15-17(22)10-9-16-18(23)11-19(24-20(15)16)13-4-6-14(21)7-5-13/h3-7,9-10,19,21-22H,8,11H2,1-2H3" "InChIKey=KYFBXCHUXFKMGQ-UHFFFAOYSA-N"
Num Peaks: 18
 117 0.700701; 
 119 100.000000; 
 120 5.605606; 
 121 0.500501; 
 136 0.700701; 
 143 0.600601; 
 144 0.800801; 
 145 0.400400; 
 157 1.601602; 
 159 7.107107; 
 160 0.900901; 
 201 0.400400; 
 203 11.011011; 
 204 1.301301; 
 217 0.400400; 
 221 2.602603; 
 281 0.800801; 
 323 0.400400; 


Name: Isobavachin
SYNON: $:00in-source
DB#: MetaboBASE0462
InChIKey: KYFBXCHUXFKMGQ-IBGZPJMESA-N
Precursor_type: [M-H]-
Spectrum_type: MS2
PrecursorMZ: 323.13
Instrument_type: LC-ESI-TOF
Instrument: impact HD
Ion_mode: N
Collision_energy: 40
InChIKey: KYFBXCHUXFKMGQ-IBGZPJMESA-N
Formula: C20H20O4
MW: 324
ExactMass: 324.13615912
Comments: "license=License CC-BY-NC-SA 4.0 International" "author=Plant Biology, The Noble Foundation, Ardmore, OK, US/Dennis Fine, Daniel Wherritt, and Lloyd Sumner" "instrument type=LC-ESI-TOF" "instrument=impact HD" "ionization=ESI" "ionization mode=negative" "ms level=MS2" "precursor m/z=323.13" "isolation width=5" "collision gas=Nitrogen" "collision energy=40" "peak width=0.016" "date=2013-11-23 05:28:56+01:00" "column=Waters Acquity BEH C18 1.7um x 2.1 x 150 mm" "retention time=878.4" "raw data file=C:\Data\Confirmed Standards\Confirmed stds MSMS 22Nov13\Isobavachin (vial 255) MSMS.d" "precursor type=[M-H]-" "mass accuracy=3.4564416797687203" "mass error=0.0011168799999836665" "cas number=31524-62-6" "SMILES=CC(=CCc1c(ccc2c1O[C@@H](CC2=O)c3ccc(cc3)O)O)C" "InChI=InChI=1S/C20H20O4/c1-12(2)3-8-15-17(22)10-9-16-18(23)11-19(24-20(15)16)13-4-6-14(21)7-5-13/h3-7,9-10,19,21-22H,8,11H2,1-2H3/t19-/m0/s1" "InChIKey=KYFBXCHUXFKMGQ-IBGZPJMESA-N" "molecular formula=C20H20O4" "total exact mass=324.13615912" "SMILES=CC(=CCC1=C(C=CC2=C1OC(CC2=O)C3=CC=C(C=C3)O)O)C" "InChI=InChI=1S/C20H20O4/c1-12(2)3-8-15-17(22)10-9-16-18(23)11-19(24-20(15)16)13-4-6-14(21)7-5-13/h3-7,9-10,19,21-22H,8,11H2,1-2H3" "InChIKey=KYFBXCHUXFKMGQ-UHFFFAOYSA-N"
Num Peaks: 13
 117 0.700701; 
 119 100.000000; 
 120 0.500501; 
 120 6.506507; 
 121 0.700701; 
 143 0.600601; 
 144 1.201201; 
 145 0.600601; 
 157 3.103103; 
 159 3.203203; 
 203 2.302302; 
 225 0.600601; 
 237 0.600601; 


Name: Isobavachin
SYNON: $:00in-source
DB#: MetaboBASE0463
InChIKey: KYFBXCHUXFKMGQ-IBGZPJMESA-N
Precursor_type: [M-H]-
Spectrum_type: MS2
PrecursorMZ: 323.1297
Instrument_type: LC-ESI-TOF
Instrument: impact HD
Ion_mode: N
Collision_energy: 20
InChIKey: KYFBXCHUXFKMGQ-IBGZPJMESA-N
Formula: C20H20O4
MW: 324
ExactMass: 324.13615912
Comments: "license=License CC-BY-NC-SA 4.0 International" "author=Plant Biology, The Noble Foundation, Ardmore, OK, US/Dennis Fine, Daniel Wherritt, and Lloyd Sumner" "instrument type=LC-ESI-TOF" "instrument=impact HD" "ionization=ESI" "ionization mode=negative" "ms level=MS2" "precursor m/z=323.1297" "isolation width=5" "collision gas=Nitrogen" "collision energy=20" "peak width=0.014" "date=2013-11-23 05:28:56+01:00" "column=Waters Acquity BEH C18 1.7um x 2.1 x 150 mm" "retention time=878.4" "raw data file=C:\Data\Confirmed Standards\Confirmed stds MSMS 22Nov13\Isobavachin (vial 255) MSMS.d" "precursor type=[M-H]-" "mass accuracy=2.5280251242833116" "mass error=8.168800000021292E-4" "cas number=31524-62-6" "SMILES=CC(=CCc1c(ccc2c1O[C@@H](CC2=O)c3ccc(cc3)O)O)C" "InChI=InChI=1S/C20H20O4/c1-12(2)3-8-15-17(22)10-9-16-18(23)11-19(24-20(15)16)13-4-6-14(21)7-5-13/h3-7,9-10,19,21-22H,8,11H2,1-2H3/t19-/m0/s1" "InChIKey=KYFBXCHUXFKMGQ-IBGZPJMESA-N" "molecular formula=C20H20O4" "total exact mass=324.13615912" "SMILES=CC(=CCC1=C(C=CC2=C1OC(CC2=O)C3=CC=C(C=C3)O)O)C" "InChI=InChI=1S/C20H20O4/c1-12(2)3-8-15-17(22)10-9-16-18(23)11-19(24-20(15)16)13-4-6-14(21)7-5-13/h3-7,9-10,19,21-22H,8,11H2,1-2H3" "InChIKey=KYFBXCHUXFKMGQ-UHFFFAOYSA-N"
Num Peaks: 15
 119 100.000000; 
 120 6.806807; 
 121 0.500501; 
 157 0.700701; 
 159 4.304304; 
 160 0.800801; 
 203 61.761762; 
 204 5.305305; 
 205 0.900901; 
 221 12.912913; 
 222 2.002002; 
 281 1.301301; 
 323 45.345345; 
 324 8.608609; 
 325 1.401401; 


Name: Eriodictyol
SYNON: $:00in-source
DB#: MetaboBASE0464
InChIKey: SBHXYTNGIZCORC-ZDUSSCGKSA-N
Spectrum_type: MS2
PrecursorMZ: 285.0393
Instrument_type: LC-ESI-TOF
Instrument: impact HD
Ion_mode: N
Collision_energy: 10
InChIKey: SBHXYTNGIZCORC-ZDUSSCGKSA-N
Formula: C15H12O6
MW: 288
ExactMass: 288.06338810399996
Comments: "license=License CC-BY-NC-SA 4.0 International" "author=Plant Biology, The Noble Foundation, Ardmore, OK, US/Dennis Fine, Daniel Wherritt, and Lloyd Sumner" "instrument type=LC-ESI-TOF" "instrument=impact HD" "ionization=ESI" "ionization mode=negative" "ms level=MS2" "precursor m/z=285.0393" "isolation width=5" "collision gas=Nitrogen" "collision energy=10" "peak width=0.014" "date=2013-11-23 08:11:52+01:00" "column=Waters Acquity BEH C18 1.7um x 2.1 x 150 mm" "retention time=456.6" "raw data file=C:\Data\Confirmed Standards\Confirmed stds MSMS 22Nov13\Eridodictyol (vial 259) MSMS.d" "cas number=552-58-9" "SMILES=c1cc(c(cc1[C@@H]2CC(=O)c3c(cc(cc3O2)O)O)O)O" "InChI=InChI=1S/C15H12O6/c16-8-4-11(19)15-12(20)6-13(21-14(15)5-8)7-1-2-9(17)10(18)3-7/h1-5,13,16-19H,6H2/t13-/m0/s1" "InChIKey=SBHXYTNGIZCORC-ZDUSSCGKSA-N" "molecular formula=C15H12O6" "total exact mass=288.06338810399996" "SMILES=C1C(OC2=CC(=CC(=C2C1=O)O)O)C3=CC(=C(C=C3)O)O" "InChI=InChI=1S/C15H12O6/c16-8-4-11(19)15-12(20)6-13(21-14(15)5-8)7-1-2-9(17)10(18)3-7/h1-5,13,16-19H,6H2" "InChIKey=SBHXYTNGIZCORC-UHFFFAOYSA-N"
Num Peaks: 10
 135 1.801802; 
 151 2.402402; 
 255 8.108108; 
 257 2.302302; 
 283 36.736737; 
 284 6.506507; 
 285 100.000000; 
 286 12.112112; 
 287 18.318318; 
 288 2.202202; 


Name: Eriodictyol
SYNON: $:00in-source
DB#: MetaboBASE0465
InChIKey: SBHXYTNGIZCORC-ZDUSSCGKSA-N
Spectrum_type: MS2
PrecursorMZ: 285.0395
Instrument_type: LC-ESI-TOF
Instrument: impact HD
Ion_mode: N
Collision_energy: 20
InChIKey: SBHXYTNGIZCORC-ZDUSSCGKSA-N
Formula: C15H12O6
MW: 288
ExactMass: 288.06338810399996
Comments: "license=License CC-BY-NC-SA 4.0 International" "author=Plant Biology, The Noble Foundation, Ardmore, OK, US/Dennis Fine, Daniel Wherritt, and Lloyd Sumner" "instrument type=LC-ESI-TOF" "instrument=impact HD" "ionization=ESI" "ionization mode=negative" "ms level=MS2" "precursor m/z=285.0395" "isolation width=5" "collision gas=Nitrogen" "collision energy=20" "peak width=0.015" "date=2013-11-23 08:11:52+01:00" "column=Waters Acquity BEH C18 1.7um x 2.1 x 150 mm" "retention time=456.6" "raw data file=C:\Data\Confirmed Standards\Confirmed stds MSMS 22Nov13\Eridodictyol (vial 259) MSMS.d" "cas number=552-58-9" "SMILES=c1cc(c(cc1[C@@H]2CC(=O)c3c(cc(cc3O2)O)O)O)O" "InChI=InChI=1S/C15H12O6/c16-8-4-11(19)15-12(20)6-13(21-14(15)5-8)7-1-2-9(17)10(18)3-7/h1-5,13,16-19H,6H2/t13-/m0/s1" "InChIKey=SBHXYTNGIZCORC-ZDUSSCGKSA-N" "molecular formula=C15H12O6" "total exact mass=288.06338810399996" "SMILES=C1C(OC2=CC(=CC(=C2C1=O)O)O)C3=CC(=C(C=C3)O)O" "InChI=InChI=1S/C15H12O6/c16-8-4-11(19)15-12(20)6-13(21-14(15)5-8)7-1-2-9(17)10(18)3-7/h1-5,13,16-19H,6H2" "InChIKey=SBHXYTNGIZCORC-UHFFFAOYSA-N"
Num Peaks: 12
 135 4.804805; 
 151 9.009009; 
 229 5.205205; 
 241 4.804805; 
 255 46.346346; 
 256 12.112112; 
 257 7.507508; 
 283 5.505506; 
 284 3.503504; 
 285 100.000000; 
 286 9.909910; 
 287 3.303303; 


Name: Eriodictyol
SYNON: $:00in-source
DB#: MetaboBASE0466
InChIKey: SBHXYTNGIZCORC-ZDUSSCGKSA-N
Spectrum_type: MS2
PrecursorMZ: 285.0394
Instrument_type: LC-ESI-TOF
Instrument: impact HD
Ion_mode: N
Collision_energy: 30
InChIKey: SBHXYTNGIZCORC-ZDUSSCGKSA-N
Formula: C15H12O6
MW: 288
ExactMass: 288.06338810399996
Comments: "license=License CC-BY-NC-SA 4.0 International" "author=Plant Biology, The Noble Foundation, Ardmore, OK, US/Dennis Fine, Daniel Wherritt, and Lloyd Sumner" "instrument type=LC-ESI-TOF" "instrument=impact HD" "ionization=ESI" "ionization mode=negative" "ms level=MS2" "precursor m/z=285.0394" "isolation width=5" "collision gas=Nitrogen" "collision energy=30" "peak width=0.015" "date=2013-11-23 08:11:52+01:00" "column=Waters Acquity BEH C18 1.7um x 2.1 x 150 mm" "retention time=456.6" "raw data file=C:\Data\Confirmed Standards\Confirmed stds MSMS 22Nov13\Eridodictyol (vial 259) MSMS.d" "cas number=552-58-9" "SMILES=c1cc(c(cc1[C@@H]2CC(=O)c3c(cc(cc3O2)O)O)O)O" "InChI=InChI=1S/C15H12O6/c16-8-4-11(19)15-12(20)6-13(21-14(15)5-8)7-1-2-9(17)10(18)3-7/h1-5,13,16-19H,6H2/t13-/m0/s1" "InChIKey=SBHXYTNGIZCORC-ZDUSSCGKSA-N" "molecular formula=C15H12O6" "total exact mass=288.06338810399996" "SMILES=C1C(OC2=CC(=CC(=C2C1=O)O)O)C3=CC(=C(C=C3)O)O" "InChI=InChI=1S/C15H12O6/c16-8-4-11(19)15-12(20)6-13(21-14(15)5-8)7-1-2-9(17)10(18)3-7/h1-5,13,16-19H,6H2" "InChIKey=SBHXYTNGIZCORC-UHFFFAOYSA-N"
Num Peaks: 10
 135 46.646647; 
 149 12.912913; 
 151 16.016016; 
 228 13.813814; 
 229 29.029029; 
 255 100.000000; 
 256 26.226226; 
 257 21.721722; 
 285 95.895896; 
 286 26.326326; 


Name: Eriodictyol
SYNON: $:00in-source
DB#: MetaboBASE0467
InChIKey: SBHXYTNGIZCORC-ZDUSSCGKSA-N
Instrument_type: LC-ESI-TOF
Instrument: impact HD
Ion_mode: N
Collision_energy: 10
InChIKey: SBHXYTNGIZCORC-ZDUSSCGKSA-N
Formula: C15H12O6
MW: 288
ExactMass: 288.06338810399996
Comments: "license=License CC-BY-NC-SA 4.0 International" "author=Plant Biology, The Noble Foundation, Ardmore, OK, US/Dennis Fine, Daniel Wherritt, and Lloyd Sumner" "instrument type=LC-ESI-TOF" "instrument=impact HD" "ionization=ESI" "ionization mode=negative" "collision gas=Nitrogen" "collision energy=10" "peak width=0.018" "date=2013-11-20 04:29:14+01:00" "column=Waters Acquity BEH C18 1.7um x 2.1 x 150 mm" "retention time=456.6" "raw data file=C:\Data\Confirmed Standards\Confirmed Stds 19Nov13\Eridodictyol (vial 259).d" "cas number=552-58-9" "SMILES=c1cc(c(cc1[C@@H]2CC(=O)c3c(cc(cc3O2)O)O)O)O" "InChI=InChI=1S/C15H12O6/c16-8-4-11(19)15-12(20)6-13(21-14(15)5-8)7-1-2-9(17)10(18)3-7/h1-5,13,16-19H,6H2/t13-/m0/s1" "InChIKey=SBHXYTNGIZCORC-ZDUSSCGKSA-N" "molecular formula=C15H12O6" "total exact mass=288.06338810399996" "SMILES=C1C(OC2=CC(=CC(=C2C1=O)O)O)C3=CC(=C(C=C3)O)O" "InChI=InChI=1S/C15H12O6/c16-8-4-11(19)15-12(20)6-13(21-14(15)5-8)7-1-2-9(17)10(18)3-7/h1-5,13,16-19H,6H2" "InChIKey=SBHXYTNGIZCORC-UHFFFAOYSA-N"
Num Peaks: 13
 135 1.201201; 
 151 6.706707; 
 255 16.116116; 
 256 2.202202; 
 257 3.203203; 
 283 64.364364; 
 284 10.010010; 
 285 100.000000; 
 286 13.113113; 
 287 18.318318; 
 288 3.003003; 
 301 2.002002; 
 309 2.802803; 


Name: Eriodictyol
SYNON: $:00in-source
DB#: MetaboBASE0468
InChIKey: SBHXYTNGIZCORC-ZDUSSCGKSA-N
Instrument_type: LC-ESI-TOF
Instrument: impact HD
Ion_mode: N
InChIKey: SBHXYTNGIZCORC-ZDUSSCGKSA-N
Formula: C15H12O6
MW: 288
ExactMass: 288.06338810399996
Comments: "license=License CC-BY-NC-SA 4.0 International" "author=Plant Biology, The Noble Foundation, Ardmore, OK, US/Dennis Fine, Daniel Wherritt, and Lloyd Sumner" "instrument type=LC-ESI-TOF" "instrument=impact HD" "ionization=ESI" "ionization mode=negative" "collision gas=Nitrogen" "peak width=0.013" "date=2013-11-23 08:11:52+01:00" "column=Waters Acquity BEH C18 1.7um x 2.1 x 150 mm" "retention time=456.6" "raw data file=C:\Data\Confirmed Standards\Confirmed stds MSMS 22Nov13\Eridodictyol (vial 259) MSMS.d" "cas number=552-58-9" "SMILES=c1cc(c(cc1[C@@H]2CC(=O)c3c(cc(cc3O2)O)O)O)O" "InChI=InChI=1S/C15H12O6/c16-8-4-11(19)15-12(20)6-13(21-14(15)5-8)7-1-2-9(17)10(18)3-7/h1-5,13,16-19H,6H2/t13-/m0/s1" "InChIKey=SBHXYTNGIZCORC-ZDUSSCGKSA-N" "molecular formula=C15H12O6" "total exact mass=288.06338810399996" "SMILES=C1C(OC2=CC(=CC(=C2C1=O)O)O)C3=CC(=C(C=C3)O)O" "InChI=InChI=1S/C15H12O6/c16-8-4-11(19)15-12(20)6-13(21-14(15)5-8)7-1-2-9(17)10(18)3-7/h1-5,13,16-19H,6H2" "InChIKey=SBHXYTNGIZCORC-UHFFFAOYSA-N"
Num Peaks: 9
 283 62.562563; 
 284 10.410410; 
 285 100.000000; 
 286 16.116116; 
 287 67.167167; 
 288 8.408408; 
 571 3.103103; 
 573 4.604605; 
 575 3.203203; 


Name: Eriodictyol
SYNON: $:00in-source
DB#: MetaboBASE0469
InChIKey: SBHXYTNGIZCORC-ZDUSSCGKSA-N
Spectrum_type: MS2
PrecursorMZ: 285.04
Instrument_type: LC-ESI-TOF
Instrument: impact HD
Ion_mode: N
Collision_energy: 40
InChIKey: SBHXYTNGIZCORC-ZDUSSCGKSA-N
Formula: C15H12O6
MW: 288
ExactMass: 288.06338810399996
Comments: "license=License CC-BY-NC-SA 4.0 International" "author=Plant Biology, The Noble Foundation, Ardmore, OK, US/Dennis Fine, Daniel Wherritt, and Lloyd Sumner" "instrument type=LC-ESI-TOF" "instrument=impact HD" "ionization=ESI" "ionization mode=negative" "ms level=MS2" "precursor m/z=285.04" "isolation width=5" "collision gas=Nitrogen" "collision energy=40" "peak width=0.012" "date=2013-11-23 08:11:52+01:00" "column=Waters Acquity BEH C18 1.7um x 2.1 x 150 mm" "retention time=456.6" "raw data file=C:\Data\Confirmed Standards\Confirmed stds MSMS 22Nov13\Eridodictyol (vial 259) MSMS.d" "cas number=552-58-9" "SMILES=c1cc(c(cc1[C@@H]2CC(=O)c3c(cc(cc3O2)O)O)O)O" "InChI=InChI=1S/C15H12O6/c16-8-4-11(19)15-12(20)6-13(21-14(15)5-8)7-1-2-9(17)10(18)3-7/h1-5,13,16-19H,6H2/t13-/m0/s1" "InChIKey=SBHXYTNGIZCORC-ZDUSSCGKSA-N" "molecular formula=C15H12O6" "total exact mass=288.06338810399996" "SMILES=C1C(OC2=CC(=CC(=C2C1=O)O)O)C3=CC(=C(C=C3)O)O" "InChI=InChI=1S/C15H12O6/c16-8-4-11(19)15-12(20)6-13(21-14(15)5-8)7-1-2-9(17)10(18)3-7/h1-5,13,16-19H,6H2" "InChIKey=SBHXYTNGIZCORC-UHFFFAOYSA-N"
Num Peaks: 3
 119 28.128128; 
 135 100.000000; 
 227 34.034034; 


Name: Hesperetin
SYNON: $:00in-source
DB#: MetaboBASE0470
InChIKey: AIONOLUJZLIMTK-AWEZNQCLSA-N
Instrument_type: LC-ESI-TOF
Instrument: impact HD
Ion_mode: N
Collision_energy: 10
InChIKey: AIONOLUJZLIMTK-AWEZNQCLSA-N
Formula: C16H14O6
MW: 302
ExactMass: 302.079038168
Comments: "license=License CC-BY-NC-SA 4.0 International" "author=Plant Biology, The Noble Foundation, Ardmore, OK, US/Dennis Fine, Daniel Wherritt, and Lloyd Sumner" "instrument type=LC-ESI-TOF" "instrument=impact HD" "ionization=ESI" "ionization mode=negative" "collision gas=Nitrogen" "collision energy=10" "peak width=0.012" "date=2013-11-20 03:48:32+01:00" "column=Waters Acquity BEH C18 1.7um x 2.1 x 150 mm" "retention time=623.4" "raw data file=C:\Data\Confirmed Standards\Confirmed Stds 19Nov13\Hesperetin (vial 258).d" "cas number=520-33-2" "SMILES=COc1ccc(cc1O)[C@@H]2CC(=O)c3c(cc(cc3O2)O)O" "InChI=InChI=1S/C16H14O6/c1-21-13-3-2-8(4-10(13)18)14-7-12(20)16-11(19)5-9(17)6-15(16)22-14/h2-6,14,17-19H,7H2,1H3/t14-/m0/s1" "InChIKey=AIONOLUJZLIMTK-AWEZNQCLSA-N" "molecular formula=C16H14O6" "total exact mass=302.079038168" "SMILES=COC1=C(C=C(C=C1)C2CC(=O)C3=C(C=C(C=C3O2)O)O)O" "InChI=InChI=1S/C16H14O6/c1-21-13-3-2-8(4-10(13)18)14-7-12(20)16-11(19)5-9(17)6-15(16)22-14/h2-6,14,17-19H,7H2,1H3" "InChIKey=AIONOLUJZLIMTK-UHFFFAOYSA-N"
Num Peaks: 4
 286 1.801802; 
 301 100.000000; 
 302 13.713714; 
 303 1.701702; 


Name: Hesperetin
SYNON: $:00in-source
DB#: MetaboBASE0471
InChIKey: AIONOLUJZLIMTK-AWEZNQCLSA-N
Precursor_type: [M-H]-
Spectrum_type: MS2
PrecursorMZ: 301.0722
Instrument_type: LC-ESI-TOF
Instrument: impact HD
Ion_mode: N
Collision_energy: 20
InChIKey: AIONOLUJZLIMTK-AWEZNQCLSA-N
Formula: C16H14O6
MW: 302
ExactMass: 302.07903816799995
Comments: "license=License CC-BY-NC-SA 4.0 International" "author=Plant Biology, The Noble Foundation, Ardmore, OK, US/Dennis Fine, Daniel Wherritt, and Lloyd Sumner" "instrument type=LC-ESI-TOF" "instrument=impact HD" "ionization=ESI" "ionization mode=negative" "ms level=MS2" "precursor m/z=301.0722" "isolation width=5" "collision gas=Nitrogen" "collision energy=20" "peak width=0.015" "date=2013-11-23 07:31:07+01:00" "column=Waters Acquity BEH C18 1.7um x 2.1 x 150 mm" "retention time=623.4" "raw data file=C:\Data\Confirmed Standards\Confirmed stds MSMS 22Nov13\Hesperetin (vial 258).d" "precursor type=[M-H]-" "mass accuracy=1.454242537323426" "mass error=4.37832000045546E-4" "cas number=520-33-2" "SMILES=COc1ccc(cc1O)[C@@H]2CC(=O)c3c(cc(cc3O2)O)O" "InChI=InChI=1S/C16H14O6/c1-21-13-3-2-8(4-10(13)18)14-7-12(20)16-11(19)5-9(17)6-15(16)22-14/h2-6,14,17-19H,7H2,1H3/t14-/m0/s1" "InChIKey=AIONOLUJZLIMTK-AWEZNQCLSA-N" "molecular formula=C16H14O6" "total exact mass=302.07903816799995" "SMILES=COC1=C(C=C(C=C1)C2CC(=O)C3=C(C=C(C=C3O2)O)O)O" "InChI=InChI=1S/C16H14O6/c1-21-13-3-2-8(4-10(13)18)14-7-12(20)16-11(19)5-9(17)6-15(16)22-14/h2-6,14,17-19H,7H2,1H3" "InChIKey=AIONOLUJZLIMTK-UHFFFAOYSA-N"
Num Peaks: 21
 125 3.303303; 
 151 3.703704; 
 164 3.803804; 
 196 2.402402; 
 199 1.601602; 
 233 1.601602; 
 240 2.502503; 
 241 3.003003; 
 242 13.713714; 
 243 2.502503; 
 257 10.810811; 
 258 4.804805; 
 258 1.601602; 
 259 1.601602; 
 268 2.102102; 
 283 2.902903; 
 286 29.529530; 
 287 3.603604; 
 301 100.000000; 
 302 9.609610; 
 303 1.701702; 


Name: Hesperetin
SYNON: $:00in-source
DB#: MetaboBASE0472
InChIKey: AIONOLUJZLIMTK-AWEZNQCLSA-N
Precursor_type: [M-H]-
Spectrum_type: MS2
PrecursorMZ: 301.07
Instrument_type: LC-ESI-TOF
Instrument: impact HD
Ion_mode: N
Collision_energy: 40
InChIKey: AIONOLUJZLIMTK-AWEZNQCLSA-N
Formula: C16H14O6
MW: 302
ExactMass: 302.079038168
Comments: "license=License CC-BY-NC-SA 4.0 International" "author=Plant Biology, The Noble Foundation, Ardmore, OK, US/Dennis Fine, Daniel Wherritt, and Lloyd Sumner" "instrument type=LC-ESI-TOF" "instrument=impact HD" "ionization=ESI" "ionization mode=negative" "ms level=MS2" "precursor m/z=301.07" "isolation width=5" "collision gas=Nitrogen" "collision energy=40" "peak width=0.013" "date=2013-11-23 07:31:07+01:00" "column=Waters Acquity BEH C18 1.7um x 2.1 x 150 mm" "retention time=623.4" "raw data file=C:\Data\Confirmed Standards\Confirmed stds MSMS 22Nov13\Hesperetin (vial 258).d" "precursor type=[M-H]-" "mass accuracy=5.8530175707559255" "mass error=-0.0017621680000274864" "cas number=520-33-2" "SMILES=COc1ccc(cc1O)[C@@H]2CC(=O)c3c(cc(cc3O2)O)O" "InChI=InChI=1S/C16H14O6/c1-21-13-3-2-8(4-10(13)18)14-7-12(20)16-11(19)5-9(17)6-15(16)22-14/h2-6,14,17-19H,7H2,1H3/t14-/m0/s1" "InChIKey=AIONOLUJZLIMTK-AWEZNQCLSA-N" "molecular formula=C16H14O6" "total exact mass=302.079038168" "SMILES=COC1=C(C=C(C=C1)C2CC(=O)C3=C(C=C(C=C3O2)O)O)O" "InChI=InChI=1S/C16H14O6/c1-21-13-3-2-8(4-10(13)18)14-7-12(20)16-11(19)5-9(17)6-15(16)22-14/h2-6,14,17-19H,7H2,1H3" "InChIKey=AIONOLUJZLIMTK-UHFFFAOYSA-N"
Num Peaks: 23
 107 11.911912; 
 108 87.987988; 
 123 16.516517; 
 124 23.223223; 
 134 79.479479; 
 135 20.620621; 
 136 100.000000; 
 151 56.756757; 
 152 11.211211; 
 158 13.913914; 
 159 11.311311; 
 164 53.353353; 
 174 12.112112; 
 196 15.815816; 
 199 12.812813; 
 200 11.311311; 
 201 11.611612; 
 214 14.114114; 
 240 10.910911; 
 241 24.524525; 
 242 18.718719; 
 243 11.211211; 
 285 35.535536; 


Name: Hesperetin
SYNON: $:00in-source
DB#: MetaboBASE0473
InChIKey: AIONOLUJZLIMTK-AWEZNQCLSA-N
Instrument_type: LC-ESI-TOF
Instrument: impact HD
Ion_mode: N
InChIKey: AIONOLUJZLIMTK-AWEZNQCLSA-N
Formula: C16H14O6
MW: 302
ExactMass: 302.079038168
Comments: "license=License CC-BY-NC-SA 4.0 International" "author=Plant Biology, The Noble Foundation, Ardmore, OK, US/Dennis Fine, Daniel Wherritt, and Lloyd Sumner" "instrument type=LC-ESI-TOF" "instrument=impact HD" "ionization=ESI" "ionization mode=negative" "collision gas=Nitrogen" "peak width=0.014" "date=2013-11-23 07:31:07+01:00" "column=Waters Acquity BEH C18 1.7um x 2.1 x 150 mm" "retention time=623.4" "raw data file=C:\Data\Confirmed Standards\Confirmed stds MSMS 22Nov13\Hesperetin (vial 258).d" "cas number=520-33-2" "SMILES=COc1ccc(cc1O)[C@@H]2CC(=O)c3c(cc(cc3O2)O)O" "InChI=InChI=1S/C16H14O6/c1-21-13-3-2-8(4-10(13)18)14-7-12(20)16-11(19)5-9(17)6-15(16)22-14/h2-6,14,17-19H,7H2,1H3/t14-/m0/s1" "InChIKey=AIONOLUJZLIMTK-AWEZNQCLSA-N" "molecular formula=C16H14O6" "total exact mass=302.079038168" "SMILES=COC1=C(C=C(C=C1)C2CC(=O)C3=C(C=C(C=C3O2)O)O)O" "InChI=InChI=1S/C16H14O6/c1-21-13-3-2-8(4-10(13)18)14-7-12(20)16-11(19)5-9(17)6-15(16)22-14/h2-6,14,17-19H,7H2,1H3" "InChIKey=AIONOLUJZLIMTK-UHFFFAOYSA-N"
Num Peaks: 20
 112 0.200200; 
 116 0.300300; 
 174 0.200200; 
 235 0.400400; 
 242 0.300300; 
 248 0.200200; 
 286 0.200200; 
 301 100.000000; 
 302 14.614615; 
 303 1.601602; 
 304 0.200200; 
 304 0.200200; 
 369 1.901902; 
 370 0.400400; 
 431 0.300300; 
 491 0.200200; 
 603 4.804805; 
 604 1.601602; 
 605 0.400400; 
 666 0.500501; 


Name: Hesperetin
SYNON: $:00in-source
DB#: MetaboBASE0474
InChIKey: AIONOLUJZLIMTK-AWEZNQCLSA-N
Precursor_type: [M-H]-
Spectrum_type: MS2
PrecursorMZ: 301.0724
Instrument_type: LC-ESI-TOF
Instrument: impact HD
Ion_mode: N
Collision_energy: 10
InChIKey: AIONOLUJZLIMTK-AWEZNQCLSA-N
Formula: C16H14O6
MW: 302
ExactMass: 302.079038168
Comments: "license=License CC-BY-NC-SA 4.0 International" "author=Plant Biology, The Noble Foundation, Ardmore, OK, US/Dennis Fine, Daniel Wherritt, and Lloyd Sumner" "instrument type=LC-ESI-TOF" "instrument=impact HD" "ionization=ESI" "ionization mode=negative" "ms level=MS2" "precursor m/z=301.0724" "isolation width=5" "collision gas=Nitrogen" "collision energy=10" "peak width=0.01" "date=2013-11-23 07:31:07+01:00" "column=Waters Acquity BEH C18 1.7um x 2.1 x 150 mm" "retention time=623.4" "raw data file=C:\Data\Confirmed Standards\Confirmed stds MSMS 22Nov13\Hesperetin (vial 258).d" "precursor type=[M-H]-" "mass accuracy=2.1185336151548326" "mass error=6.378319999953419E-4" "cas number=520-33-2" "SMILES=COc1ccc(cc1O)[C@@H]2CC(=O)c3c(cc(cc3O2)O)O" "InChI=InChI=1S/C16H14O6/c1-21-13-3-2-8(4-10(13)18)14-7-12(20)16-11(19)5-9(17)6-15(16)22-14/h2-6,14,17-19H,7H2,1H3/t14-/m0/s1" "InChIKey=AIONOLUJZLIMTK-AWEZNQCLSA-N" "molecular formula=C16H14O6" "total exact mass=302.079038168" "SMILES=COC1=C(C=C(C=C1)C2CC(=O)C3=C(C=C(C=C3O2)O)O)O" "InChI=InChI=1S/C16H14O6/c1-21-13-3-2-8(4-10(13)18)14-7-12(20)16-11(19)5-9(17)6-15(16)22-14/h2-6,14,17-19H,7H2,1H3" "InChIKey=AIONOLUJZLIMTK-UHFFFAOYSA-N"
Num Peaks: 10
 242 0.300300; 
 257 0.500501; 
 258 0.200200; 
 283 0.200200; 
 286 1.201201; 
 287 0.200200; 
 301 100.000000; 
 302 11.811812; 
 303 1.701702; 
 304 0.200200; 


Name: Hesperetin
SYNON: $:00in-source
DB#: MetaboBASE0475
InChIKey: AIONOLUJZLIMTK-AWEZNQCLSA-N
Precursor_type: [M-H]-
Spectrum_type: MS2
PrecursorMZ: 301.0734
Instrument_type: LC-ESI-TOF
Instrument: impact HD
Ion_mode: N
Collision_energy: 30
InChIKey: AIONOLUJZLIMTK-AWEZNQCLSA-N
Formula: C16H14O6
MW: 302
ExactMass: 302.079038168
Comments: "license=License CC-BY-NC-SA 4.0 International" "author=Plant Biology, The Noble Foundation, Ardmore, OK, US/Dennis Fine, Daniel Wherritt, and Lloyd Sumner" "instrument type=LC-ESI-TOF" "instrument=impact HD" "ionization=ESI" "ionization mode=negative" "ms level=MS2" "precursor m/z=301.0734" "isolation width=5" "collision gas=Nitrogen" "collision energy=30" "peak width=0.018" "date=2013-11-23 07:31:07+01:00" "column=Waters Acquity BEH C18 1.7um x 2.1 x 150 mm" "retention time=623.4" "raw data file=C:\Data\Confirmed Standards\Confirmed stds MSMS 22Nov13\Hesperetin (vial 258).d" "precursor type=[M-H]-" "mass accuracy=5.43997576661271" "mass error=0.001637831999971695" "cas number=520-33-2" "SMILES=COc1ccc(cc1O)[C@@H]2CC(=O)c3c(cc(cc3O2)O)O" "InChI=InChI=1S/C16H14O6/c1-21-13-3-2-8(4-10(13)18)14-7-12(20)16-11(19)5-9(17)6-15(16)22-14/h2-6,14,17-19H,7H2,1H3/t14-/m0/s1" "InChIKey=AIONOLUJZLIMTK-AWEZNQCLSA-N" "molecular formula=C16H14O6" "total exact mass=302.079038168" "SMILES=COC1=C(C=C(C=C1)C2CC(=O)C3=C(C=C(C=C3O2)O)O)O" "InChI=InChI=1S/C16H14O6/c1-21-13-3-2-8(4-10(13)18)14-7-12(20)16-11(19)5-9(17)6-15(16)22-14/h2-6,14,17-19H,7H2,1H3" "InChIKey=AIONOLUJZLIMTK-UHFFFAOYSA-N"
Num Peaks: 11
 108 22.222222; 
 134 46.646647; 
 136 34.034034; 
 151 74.874875; 
 164 100.000000; 
 196 41.741742; 
 201 21.921922; 
 241 19.519520; 
 242 33.833834; 
 285 22.722723; 
 286 26.226226; 


Name: Kaempferol-3-O-glucoside
SYNON: $:00in-source
DB#: MetaboBASE0476
InChIKey: JPUKWEQWGBDDQB-QSOFNFLRSA-N
Precursor_type: [M-H]-
Spectrum_type: MS2
PrecursorMZ: 447.0934
Instrument_type: LC-ESI-TOF
Instrument: impact HD
Ion_mode: N
Collision_energy: 10
InChIKey: JPUKWEQWGBDDQB-QSOFNFLRSA-N
Formula: C21H20O11
MW: 448
ExactMass: 448.10056146
Comments: "license=License CC-BY-NC-SA 4.0 International" "author=Plant Biology, The Noble Foundation, Ardmore, OK, US/Dennis Fine, Daniel Wherritt, and Lloyd Sumner" "instrument type=LC-ESI-TOF" "instrument=impact HD" "ionization=ESI" "ionization mode=negative" "ms level=MS2" "precursor m/z=447.0934" "isolation width=5" "collision gas=Nitrogen" "collision energy=10" "peak width=0.0088" "date=2013-11-22 23:22:00+01:00" "column=Waters Acquity BEH C18 1.7um x 2.1 x 150 mm" "retention time=362.4" "raw data file=C:\Data\Confirmed Standards\Confirmed stds MSMS 22Nov13\Kaempferol3glucoside MSMS.d" "precursor type=[M-H]-" "mass accuracy=0.2561880805442896" "mass error=1.1453999997002029E-4" "cas number=480-10-4" "SMILES=c1cc(ccc1c2c(c(=O)c3c(cc(cc3o2)O)O)O[C@H]4[C@@H]([C@H]([C@@H]([C@H](O4)CO)O)O)O)O" "InChI=InChI=1S/C21H20O11/c22-7-13-15(26)17(28)18(29)21(31-13)32-20-16(27)14-11(25)5-10(24)6-12(14)30-19(20)8-1-3-9(23)4-2-8/h1-6,13,15,17-18,21-26,28-29H,7H2/t13-,15-,17+,18-,21+/m1/s1" "InChIKey=JPUKWEQWGBDDQB-QSOFNFLRSA-N" "molecular formula=C21H20O11" "total exact mass=448.10056146" "SMILES=C1=CC(=CC=C1C2=C(C(=O)C3=C(C=C(C=C3O2)O)O)OC4C(C(C(C(O4)CO)O)O)O)O" "InChI=InChI=1S/C21H20O11/c22-7-13-15(26)17(28)18(29)21(31-13)32-20-16(27)14-11(25)5-10(24)6-12(14)30-19(20)8-1-3-9(23)4-2-8/h1-6,13,15,17-18,21-26,28-29H,7H2" "InChIKey=JPUKWEQWGBDDQB-UHFFFAOYSA-N"
Num Peaks: 7
 284 0.200200; 
 285 0.700701; 
 286 0.100100; 
 447 0.100100; 
 447 100.000000; 
 448 16.216216; 
 449 2.002002; 


Name: Kaempferol-3-O-glucoside
SYNON: $:00in-source
DB#: MetaboBASE0477
InChIKey: JPUKWEQWGBDDQB-QSOFNFLRSA-N
Instrument_type: LC-ESI-TOF
Instrument: impact HD
Ion_mode: N
Collision_energy: 10
InChIKey: JPUKWEQWGBDDQB-QSOFNFLRSA-N
Formula: C21H20O11
MW: 448
ExactMass: 448.10056146
Comments: "license=License CC-BY-NC-SA 4.0 International" "author=Plant Biology, The Noble Foundation, Ardmore, OK, US/Dennis Fine, Daniel Wherritt, and Lloyd Sumner" "instrument type=LC-ESI-TOF" "instrument=impact HD" "ionization=ESI" "ionization mode=negative" "collision gas=Nitrogen" "collision energy=10" "peak width=0.015" "date=2013-11-19 19:39:53+01:00" "column=Waters Acquity BEH C18 1.7um x 2.1 x 150 mm" "retention time=362.4" "raw data file=C:\Data\Confirmed Standards\Confirmed Stds 19Nov13\Kaempferol3glucoside (v 238).d" "cas number=480-10-4" "SMILES=c1cc(ccc1c2c(c(=O)c3c(cc(cc3o2)O)O)O[C@H]4[C@@H]([C@H]([C@@H]([C@H](O4)CO)O)O)O)O" "InChI=InChI=1S/C21H20O11/c22-7-13-15(26)17(28)18(29)21(31-13)32-20-16(27)14-11(25)5-10(24)6-12(14)30-19(20)8-1-3-9(23)4-2-8/h1-6,13,15,17-18,21-26,28-29H,7H2/t13-,15-,17+,18-,21+/m1/s1" "InChIKey=JPUKWEQWGBDDQB-QSOFNFLRSA-N" "molecular formula=C21H20O11" "total exact mass=448.10056146" "SMILES=C1=CC(=CC=C1C2=C(C(=O)C3=C(C=C(C=C3O2)O)O)OC4C(C(C(C(O4)CO)O)O)O)O" "InChI=InChI=1S/C21H20O11/c22-7-13-15(26)17(28)18(29)21(31-13)32-20-16(27)14-11(25)5-10(24)6-12(14)30-19(20)8-1-3-9(23)4-2-8/h1-6,13,15,17-18,21-26,28-29H,7H2" "InChIKey=JPUKWEQWGBDDQB-UHFFFAOYSA-N"
Num Peaks: 7
 447 100.000000; 
 448 19.419419; 
 449 3.303303; 
 895 11.711712; 
 896 4.804805; 
 897 1.301301; 
 1343 1.001001; 


Name: Kaempferol-3-O-glucoside
SYNON: $:00in-source
DB#: MetaboBASE0478
InChIKey: JPUKWEQWGBDDQB-QSOFNFLRSA-N
Precursor_type: [M-H]-
Spectrum_type: MS2
PrecursorMZ: 447.0934
Instrument_type: LC-ESI-TOF
Instrument: impact HD
Ion_mode: N
Collision_energy: 20
InChIKey: JPUKWEQWGBDDQB-QSOFNFLRSA-N
Formula: C21H20O11
MW: 448
ExactMass: 448.10056146
Comments: "license=License CC-BY-NC-SA 4.0 International" "author=Plant Biology, The Noble Foundation, Ardmore, OK, US/Dennis Fine, Daniel Wherritt, and Lloyd Sumner" "instrument type=LC-ESI-TOF" "instrument=impact HD" "ionization=ESI" "ionization mode=negative" "ms level=MS2" "precursor m/z=447.0934" "isolation width=5" "collision gas=Nitrogen" "collision energy=20" "peak width=0.0096" "date=2013-11-22 23:22:00+01:00" "column=Waters Acquity BEH C18 1.7um x 2.1 x 150 mm" "retention time=362.4" "raw data file=C:\Data\Confirmed Standards\Confirmed stds MSMS 22Nov13\Kaempferol3glucoside MSMS.d" "precursor type=[M-H]-" "mass accuracy=0.2561880805442896" "mass error=1.1453999997002029E-4" "cas number=480-10-4" "SMILES=c1cc(ccc1c2c(c(=O)c3c(cc(cc3o2)O)O)O[C@H]4[C@@H]([C@H]([C@@H]([C@H](O4)CO)O)O)O)O" "InChI=InChI=1S/C21H20O11/c22-7-13-15(26)17(28)18(29)21(31-13)32-20-16(27)14-11(25)5-10(24)6-12(14)30-19(20)8-1-3-9(23)4-2-8/h1-6,13,15,17-18,21-26,28-29H,7H2/t13-,15-,17+,18-,21+/m1/s1" "InChIKey=JPUKWEQWGBDDQB-QSOFNFLRSA-N" "molecular formula=C21H20O11" "total exact mass=448.10056146" "SMILES=C1=CC(=CC=C1C2=C(C(=O)C3=C(C=C(C=C3O2)O)O)OC4C(C(C(C(O4)CO)O)O)O)O" "InChI=InChI=1S/C21H20O11/c22-7-13-15(26)17(28)18(29)21(31-13)32-20-16(27)14-11(25)5-10(24)6-12(14)30-19(20)8-1-3-9(23)4-2-8/h1-6,13,15,17-18,21-26,28-29H,7H2" "InChIKey=JPUKWEQWGBDDQB-UHFFFAOYSA-N"
Num Peaks: 16
 151 0.100100; 
 178 0.100100; 
 227 0.300300; 
 255 0.600601; 
 256 0.200200; 
 257 0.100100; 
 284 10.910911; 
 285 14.814815; 
 286 1.901902; 
 287 0.200200; 
 327 0.300300; 
 446 0.100100; 
 447 100.000000; 
 448 15.215215; 
 449 2.402402; 
 450 0.200200; 


Name: Kaempferol-3-O-glucoside
SYNON: $:00in-source
DB#: MetaboBASE0479
InChIKey: JPUKWEQWGBDDQB-QSOFNFLRSA-N
Precursor_type: [M-H]-
Spectrum_type: MS2
PrecursorMZ: 447.0937
Instrument_type: LC-ESI-TOF
Instrument: impact HD
Ion_mode: N
Collision_energy: 30
InChIKey: JPUKWEQWGBDDQB-QSOFNFLRSA-N
Formula: C21H20O11
MW: 448
ExactMass: 448.10056146
Comments: "license=License CC-BY-NC-SA 4.0 International" "author=Plant Biology, The Noble Foundation, Ardmore, OK, US/Dennis Fine, Daniel Wherritt, and Lloyd Sumner" "instrument type=LC-ESI-TOF" "instrument=impact HD" "ionization=ESI" "ionization mode=negative" "ms level=MS2" "precursor m/z=447.0937" "isolation width=5" "collision gas=Nitrogen" "collision energy=30" "peak width=0.011" "date=2013-11-22 23:22:00+01:00" "column=Waters Acquity BEH C18 1.7um x 2.1 x 150 mm" "retention time=362.4" "raw data file=C:\Data\Confirmed Standards\Confirmed stds MSMS 22Nov13\Kaempferol3glucoside MSMS.d" "precursor type=[M-H]-" "mass accuracy=0.927188193455647" "mass error=4.1454000000840097E-4" "cas number=480-10-4" "SMILES=c1cc(ccc1c2c(c(=O)c3c(cc(cc3o2)O)O)O[C@H]4[C@@H]([C@H]([C@@H]([C@H](O4)CO)O)O)O)O" "InChI=InChI=1S/C21H20O11/c22-7-13-15(26)17(28)18(29)21(31-13)32-20-16(27)14-11(25)5-10(24)6-12(14)30-19(20)8-1-3-9(23)4-2-8/h1-6,13,15,17-18,21-26,28-29H,7H2/t13-,15-,17+,18-,21+/m1/s1" "InChIKey=JPUKWEQWGBDDQB-QSOFNFLRSA-N" "molecular formula=C21H20O11" "total exact mass=448.10056146" "SMILES=C1=CC(=CC=C1C2=C(C(=O)C3=C(C=C(C=C3O2)O)O)OC4C(C(C(C(O4)CO)O)O)O)O" "InChI=InChI=1S/C21H20O11/c22-7-13-15(26)17(28)18(29)21(31-13)32-20-16(27)14-11(25)5-10(24)6-12(14)30-19(20)8-1-3-9(23)4-2-8/h1-6,13,15,17-18,21-26,28-29H,7H2" "InChIKey=JPUKWEQWGBDDQB-UHFFFAOYSA-N"
Num Peaks: 26
 125 0.200200; 
 151 0.500501; 
 178 0.200200; 
 227 4.504505; 
 228 0.900901; 
 229 0.400400; 
 241 0.200200; 
 243 0.300300; 
 255 9.709710; 
 255 0.200200; 
 256 3.003003; 
 257 1.001001; 
 267 0.100100; 
 269 0.200200; 
 283 0.200200; 
 284 100.000000; 
 285 31.231231; 
 286 3.803804; 
 287 0.300300; 
 299 0.200200; 
 327 1.101101; 
 328 0.200200; 
 357 0.200200; 
 447 23.223223; 
 448 3.203203; 
 449 0.700701; 


Name: Kaempferol-3-O-glucoside
SYNON: $:00in-source
DB#: MetaboBASE0480
InChIKey: JPUKWEQWGBDDQB-QSOFNFLRSA-N
Precursor_type: [M-H]-
Spectrum_type: MS2
PrecursorMZ: 447.0907
Instrument_type: LC-ESI-TOF
Instrument: impact HD
Ion_mode: N
Collision_energy: 40
InChIKey: JPUKWEQWGBDDQB-QSOFNFLRSA-N
Formula: C21H20O11
MW: 448
ExactMass: 448.10056146
Comments: "license=License CC-BY-NC-SA 4.0 International" "author=Plant Biology, The Noble Foundation, Ardmore, OK, US/Dennis Fine, Daniel Wherritt, and Lloyd Sumner" "instrument type=LC-ESI-TOF" "instrument=impact HD" "ionization=ESI" "ionization mode=negative" "ms level=MS2" "precursor m/z=447.0907" "isolation width=5" "collision gas=Nitrogen" "collision energy=40" "peak width=0.013" "date=2013-11-22 23:22:00+01:00" "column=Waters Acquity BEH C18 1.7um x 2.1 x 150 mm" "retention time=362.4" "raw data file=C:\Data\Confirmed Standards\Confirmed stds MSMS 22Nov13\Kaempferol3glucoside MSMS.d" "precursor type=[M-H]-" "mass accuracy=5.782853456753857" "mass error=-0.002585459999977502" "cas number=480-10-4" "SMILES=c1cc(ccc1c2c(c(=O)c3c(cc(cc3o2)O)O)O[C@H]4[C@@H]([C@H]([C@@H]([C@H](O4)CO)O)O)O)O" "InChI=InChI=1S/C21H20O11/c22-7-13-15(26)17(28)18(29)21(31-13)32-20-16(27)14-11(25)5-10(24)6-12(14)30-19(20)8-1-3-9(23)4-2-8/h1-6,13,15,17-18,21-26,28-29H,7H2/t13-,15-,17+,18-,21+/m1/s1" "InChIKey=JPUKWEQWGBDDQB-QSOFNFLRSA-N" "molecular formula=C21H20O11" "total exact mass=448.10056146" "SMILES=C1=CC(=CC=C1C2=C(C(=O)C3=C(C=C(C=C3O2)O)O)OC4C(C(C(C(O4)CO)O)O)O)O" "InChI=InChI=1S/C21H20O11/c22-7-13-15(26)17(28)18(29)21(31-13)32-20-16(27)14-11(25)5-10(24)6-12(14)30-19(20)8-1-3-9(23)4-2-8/h1-6,13,15,17-18,21-26,28-29H,7H2" "InChIKey=JPUKWEQWGBDDQB-UHFFFAOYSA-N"
Num Peaks: 25
 151 0.500501; 
 152 0.200200; 
 211 0.200200; 
 213 0.200200; 
 227 51.151151; 
 228 6.506507; 
 229 2.302302; 
 230 0.400400; 
 239 0.400400; 
 240 0.300300; 
 241 0.400400; 
 255 79.779780; 
 256 17.217217; 
 257 2.902903; 
 258 0.300300; 
 267 0.300300; 
 269 0.200200; 
 284 100.000000; 
 285 27.727728; 
 286 2.902903; 
 287 0.600601; 
 299 0.200200; 
 327 0.300300; 
 447 1.101101; 
 448 0.400400; 


Name: Kaempferol-3-O-glucoside
SYNON: $:00in-source
DB#: MetaboBASE0481
InChIKey: JPUKWEQWGBDDQB-QSOFNFLRSA-N
Precursor_type: [M-H]-
Spectrum_type: MS2
PrecursorMZ: 447.09
Instrument_type: LC-ESI-TOF
Instrument: impact HD
Ion_mode: N
Collision_energy: 50
InChIKey: JPUKWEQWGBDDQB-QSOFNFLRSA-N
Formula: C21H20O11
MW: 448
ExactMass: 448.10056146
Comments: "license=License CC-BY-NC-SA 4.0 International" "author=Plant Biology, The Noble Foundation, Ardmore, OK, US/Dennis Fine, Daniel Wherritt, and Lloyd Sumner" "instrument type=LC-ESI-TOF" "instrument=impact HD" "ionization=ESI" "ionization mode=negative" "ms level=MS2" "precursor m/z=447.09" "isolation width=5" "collision gas=Nitrogen" "collision energy=50" "peak width=0.013" "date=2013-11-22 23:22:00+01:00" "column=Waters Acquity BEH C18 1.7um x 2.1 x 150 mm" "retention time=362.4" "raw data file=C:\Data\Confirmed Standards\Confirmed stds MSMS 22Nov13\Kaempferol3glucoside MSMS.d" "precursor type=[M-H]-" "mass accuracy=7.3485427990542425" "mass error=-0.003285460000029161" "cas number=480-10-4" "SMILES=c1cc(ccc1c2c(c(=O)c3c(cc(cc3o2)O)O)O[C@H]4[C@@H]([C@H]([C@@H]([C@H](O4)CO)O)O)O)O" "InChI=InChI=1S/C21H20O11/c22-7-13-15(26)17(28)18(29)21(31-13)32-20-16(27)14-11(25)5-10(24)6-12(14)30-19(20)8-1-3-9(23)4-2-8/h1-6,13,15,17-18,21-26,28-29H,7H2/t13-,15-,17+,18-,21+/m1/s1" "InChIKey=JPUKWEQWGBDDQB-QSOFNFLRSA-N" "molecular formula=C21H20O11" "total exact mass=448.10056146" "SMILES=C1=CC(=CC=C1C2=C(C(=O)C3=C(C=C(C=C3O2)O)O)OC4C(C(C(C(O4)CO)O)O)O)O" "InChI=InChI=1S/C21H20O11/c22-7-13-15(26)17(28)18(29)21(31-13)32-20-16(27)14-11(25)5-10(24)6-12(14)30-19(20)8-1-3-9(23)4-2-8/h1-6,13,15,17-18,21-26,28-29H,7H2" "InChIKey=JPUKWEQWGBDDQB-UHFFFAOYSA-N"
Num Peaks: 25
 132 0.300300; 
 151 0.400400; 
 163 0.300300; 
 183 0.400400; 
 187 0.300300; 
 200 0.300300; 
 211 0.700701; 
 212 0.200200; 
 226 0.500501; 
 227 100.000000; 
 228 11.511512; 
 229 2.902903; 
 230 0.500501; 
 239 1.001001; 
 240 0.400400; 
 241 0.500501; 
 243 0.300300; 
 255 98.798799; 
 256 16.216216; 
 257 2.202202; 
 258 0.400400; 
 283 0.300300; 
 284 16.116116; 
 285 7.207207; 
 286 1.101101; 


Name: Kaempferol-3-O-glucoside
SYNON: $:00in-source
DB#: MetaboBASE0482
InChIKey: JPUKWEQWGBDDQB-QSOFNFLRSA-N
Instrument_type: LC-ESI-TOF
Instrument: impact HD
Ion_mode: N
InChIKey: JPUKWEQWGBDDQB-QSOFNFLRSA-N
Formula: C21H20O11
MW: 448
ExactMass: 448.10056146
Comments: "license=License CC-BY-NC-SA 4.0 International" "author=Plant Biology, The Noble Foundation, Ardmore, OK, US/Dennis Fine, Daniel Wherritt, and Lloyd Sumner" "instrument type=LC-ESI-TOF" "instrument=impact HD" "ionization=ESI" "ionization mode=negative" "collision gas=Nitrogen" "peak width=0.012" "date=2013-11-22 23:22:00+01:00" "column=Waters Acquity BEH C18 1.7um x 2.1 x 150 mm" "retention time=362.4" "raw data file=C:\Data\Confirmed Standards\Confirmed stds MSMS 22Nov13\Kaempferol3glucoside MSMS.d" "cas number=480-10-4" "SMILES=c1cc(ccc1c2c(c(=O)c3c(cc(cc3o2)O)O)O[C@H]4[C@@H]([C@H]([C@@H]([C@H](O4)CO)O)O)O)O" "InChI=InChI=1S/C21H20O11/c22-7-13-15(26)17(28)18(29)21(31-13)32-20-16(27)14-11(25)5-10(24)6-12(14)30-19(20)8-1-3-9(23)4-2-8/h1-6,13,15,17-18,21-26,28-29H,7H2/t13-,15-,17+,18-,21+/m1/s1" "InChIKey=JPUKWEQWGBDDQB-QSOFNFLRSA-N" "molecular formula=C21H20O11" "total exact mass=448.10056146" "SMILES=C1=CC(=CC=C1C2=C(C(=O)C3=C(C=C(C=C3O2)O)O)OC4C(C(C(C(O4)CO)O)O)O)O" "InChI=InChI=1S/C21H20O11/c22-7-13-15(26)17(28)18(29)21(31-13)32-20-16(27)14-11(25)5-10(24)6-12(14)30-19(20)8-1-3-9(23)4-2-8/h1-6,13,15,17-18,21-26,28-29H,7H2" "InChIKey=JPUKWEQWGBDDQB-UHFFFAOYSA-N"
Num Peaks: 13
 447 100.000000; 
 448 17.817818; 
 449 2.702703; 
 515 1.901902; 
 565 0.700701; 
 666 0.600601; 
 895 34.034034; 
 896 14.314314; 
 897 4.004004; 
 898 0.700701; 
 1343 2.202202; 
 1343 0.900901; 
 1344 1.901902; 


Name: Formononetin-7-O-glucoside
Synon: Ononin
SYNON: $:00in-source
DB#: MetaboBASE0483
InChIKey: MGJLSBDCWOSMHL-MIUGBVLSSA-N
Precursor_type: [M+FA-H]-
Spectrum_type: MS2
PrecursorMZ: 475.1242
Instrument_type: LC-ESI-TOF
Instrument: impact HD
Ion_mode: N
Collision_energy: 10
InChIKey: MGJLSBDCWOSMHL-MIUGBVLSSA-N
Formula: C22H22O9
MW: 430
ExactMass: 430.126382284
Comments: "license=License CC-BY-NC-SA 4.0 International" "author=Plant Biology, The Noble Foundation, Ardmore, OK, US/Dennis Fine, Daniel Wherritt, and Lloyd Sumner" "instrument type=LC-ESI-TOF" "instrument=impact HD" "ionization=ESI" "ionization mode=negative" "ms level=MS2" "precursor m/z=475.1242" "isolation width=5" "collision gas=Nitrogen" "collision energy=10" "peak width=0.012" "date=2013-11-22 22:41:14+01:00" "column=Waters Acquity BEH C18 1.7um x 2.1 x 150 mm" "retention time=489" "raw data file=C:\Data\Confirmed Standards\Confirmed stds MSMS 22Nov13\Ononin (vial 232)  MSMS.d" "precursor type=[M+FA-H]-" "mass accuracy=0.8067027526879151" "mass error=-3.832840000086435E-4" "cas number=486-62-4" "SMILES=COc1ccc(cc1)c2coc3cc(ccc3c2=O)O[C@H]4[C@@H]([C@H]([C@@H]([C@H](O4)CO)O)O)O" "InChI=InChI=1S/C22H22O9/c1-28-12-4-2-11(3-5-12)15-10-29-16-8-13(6-7-14(16)18(15)24)30-22-21(27)20(26)19(25)17(9-23)31-22/h2-8,10,17,19-23,25-27H,9H2,1H3/t17-,19-,20+,21-,22-/m1/s1" "InChIKey=MGJLSBDCWOSMHL-MIUGBVLSSA-N" "molecular formula=C22H22O9" "total exact mass=430.126382284" "SMILES=COC1=CC=C(C=C1)C2=COC3=C(C2=O)C=CC(=C3)OC4C(C(C(C(O4)CO)O)O)O" "InChI=InChI=1S/C22H22O9/c1-28-12-4-2-11(3-5-12)15-10-29-16-8-13(6-7-14(16)18(15)24)30-22-21(27)20(26)19(25)17(9-23)31-22/h2-8,10,17,19-23,25-27H,9H2,1H3" "InChIKey=MGJLSBDCWOSMHL-UHFFFAOYSA-N"
Num Peaks: 11
 207 0.200200; 
 252 0.900901; 
 266 0.200200; 
 267 100.000000; 
 268 12.812813; 
 269 1.101101; 
 429 1.301301; 
 430 0.400400; 
 475 61.961962; 
 476 9.309309; 
 477 1.701702; 


Name: Formononetin-7-O-glucoside
Synon: Ononin
SYNON: $:00in-source
DB#: MetaboBASE0484
InChIKey: MGJLSBDCWOSMHL-MIUGBVLSSA-N
Precursor_type: [M+FA-H]-
Spectrum_type: MS2
PrecursorMZ: 475.12
Instrument_type: LC-ESI-TOF
Instrument: impact HD
Ion_mode: N
Collision_energy: 40
InChIKey: MGJLSBDCWOSMHL-MIUGBVLSSA-N
Formula: C22H22O9
MW: 430
ExactMass: 430.126382284
Comments: "license=License CC-BY-NC-SA 4.0 International" "author=Plant Biology, The Noble Foundation, Ardmore, OK, US/Dennis Fine, Daniel Wherritt, and Lloyd Sumner" "instrument type=LC-ESI-TOF" "instrument=impact HD" "ionization=ESI" "ionization mode=negative" "ms level=MS2" "precursor m/z=475.12" "isolation width=5" "collision gas=Nitrogen" "collision energy=40" "peak width=0.014" "date=2013-11-22 22:41:14+01:00" "column=Waters Acquity BEH C18 1.7um x 2.1 x 150 mm" "retention time=489" "raw data file=C:\Data\Confirmed Standards\Confirmed stds MSMS 22Nov13\Ononin (vial 232)  MSMS.d" "precursor type=[M+FA-H]-" "mass accuracy=9.646581916100226" "mass error=-0.004583283999977539" "cas number=486-62-4" "SMILES=COc1ccc(cc1)c2coc3cc(ccc3c2=O)O[C@H]4[C@@H]([C@H]([C@@H]([C@H](O4)CO)O)O)O" "InChI=InChI=1S/C22H22O9/c1-28-12-4-2-11(3-5-12)15-10-29-16-8-13(6-7-14(16)18(15)24)30-22-21(27)20(26)19(25)17(9-23)31-22/h2-8,10,17,19-23,25-27H,9H2,1H3/t17-,19-,20+,21-,22-/m1/s1" "InChIKey=MGJLSBDCWOSMHL-MIUGBVLSSA-N" "molecular formula=C22H22O9" "total exact mass=430.126382284" "SMILES=COC1=CC=C(C=C1)C2=COC3=C(C2=O)C=CC(=C3)OC4C(C(C(C(O4)CO)O)O)O" "InChI=InChI=1S/C22H22O9/c1-28-12-4-2-11(3-5-12)15-10-29-16-8-13(6-7-14(16)18(15)24)30-22-21(27)20(26)19(25)17(9-23)31-22/h2-8,10,17,19-23,25-27H,9H2,1H3" "InChIKey=MGJLSBDCWOSMHL-UHFFFAOYSA-N"
Num Peaks: 9
 223 2.902903; 
 224 0.800801; 
 251 1.401401; 
 252 38.938939; 
 253 7.207207; 
 254 0.600601; 
 267 100.000000; 
 268 13.613614; 
 269 1.501502; 


Name: Formononetin-7-O-glucoside
Synon: Ononin
SYNON: $:00in-source
DB#: MetaboBASE0485
InChIKey: MGJLSBDCWOSMHL-MIUGBVLSSA-N
Precursor_type: [M+FA-H]-
Spectrum_type: MS2
PrecursorMZ: 475.1212
Instrument_type: LC-ESI-TOF
Instrument: impact HD
Ion_mode: N
Collision_energy: 20
InChIKey: MGJLSBDCWOSMHL-MIUGBVLSSA-N
Formula: C22H22O9
MW: 430
ExactMass: 430.126382284
Comments: "license=License CC-BY-NC-SA 4.0 International" "author=Plant Biology, The Noble Foundation, Ardmore, OK, US/Dennis Fine, Daniel Wherritt, and Lloyd Sumner" "instrument type=LC-ESI-TOF" "instrument=impact HD" "ionization=ESI" "ionization mode=negative" "ms level=MS2" "precursor m/z=475.1212" "isolation width=5" "collision gas=Nitrogen" "collision energy=20" "peak width=0.012" "date=2013-11-22 22:41:14+01:00" "column=Waters Acquity BEH C18 1.7um x 2.1 x 150 mm" "retention time=489" "raw data file=C:\Data\Confirmed Standards\Confirmed stds MSMS 22Nov13\Ononin (vial 232)  MSMS.d" "precursor type=[M+FA-H]-" "mass accuracy=7.1208862075498764" "mass error=-0.0033832839999945463" "cas number=486-62-4" "SMILES=COc1ccc(cc1)c2coc3cc(ccc3c2=O)O[C@H]4[C@@H]([C@H]([C@@H]([C@H](O4)CO)O)O)O" "InChI=InChI=1S/C22H22O9/c1-28-12-4-2-11(3-5-12)15-10-29-16-8-13(6-7-14(16)18(15)24)30-22-21(27)20(26)19(25)17(9-23)31-22/h2-8,10,17,19-23,25-27H,9H2,1H3/t17-,19-,20+,21-,22-/m1/s1" "InChIKey=MGJLSBDCWOSMHL-MIUGBVLSSA-N" "molecular formula=C22H22O9" "total exact mass=430.126382284" "SMILES=COC1=CC=C(C=C1)C2=COC3=C(C2=O)C=CC(=C3)OC4C(C(C(C(O4)CO)O)O)O" "InChI=InChI=1S/C22H22O9/c1-28-12-4-2-11(3-5-12)15-10-29-16-8-13(6-7-14(16)18(15)24)30-22-21(27)20(26)19(25)17(9-23)31-22/h2-8,10,17,19-23,25-27H,9H2,1H3" "InChIKey=MGJLSBDCWOSMHL-UHFFFAOYSA-N"
Num Peaks: 7
 223 0.400400; 
 252 1.801802; 
 253 0.600601; 
 267 100.000000; 
 268 11.211211; 
 269 1.101101; 
 475 0.300300; 


Name: Formononetin-7-O-glucoside
Synon: Ononin
SYNON: $:00in-source
DB#: MetaboBASE0486
InChIKey: MGJLSBDCWOSMHL-MIUGBVLSSA-N
Instrument_type: LC-ESI-TOF
Instrument: impact HD
Ion_mode: N
Collision_energy: 10
InChIKey: MGJLSBDCWOSMHL-MIUGBVLSSA-N
Formula: C22H22O9
MW: 430
ExactMass: 430.126382284
Comments: "license=License CC-BY-NC-SA 4.0 International" "author=Plant Biology, The Noble Foundation, Ardmore, OK, US/Dennis Fine, Daniel Wherritt, and Lloyd Sumner" "instrument type=LC-ESI-TOF" "instrument=impact HD" "ionization=ESI" "ionization mode=negative" "collision gas=Nitrogen" "collision energy=10" "peak width=0.015" "date=2013-11-19 18:59:09+01:00" "column=Waters Acquity BEH C18 1.7um x 2.1 x 150 mm" "retention time=489" "raw data file=C:\Data\Confirmed Standards\Confirmed Stds 19Nov13\Ononin (vial 232).d" "cas number=486-62-4" "SMILES=COc1ccc(cc1)c2coc3cc(ccc3c2=O)O[C@H]4[C@@H]([C@H]([C@@H]([C@H](O4)CO)O)O)O" "InChI=InChI=1S/C22H22O9/c1-28-12-4-2-11(3-5-12)15-10-29-16-8-13(6-7-14(16)18(15)24)30-22-21(27)20(26)19(25)17(9-23)31-22/h2-8,10,17,19-23,25-27H,9H2,1H3/t17-,19-,20+,21-,22-/m1/s1" "InChIKey=MGJLSBDCWOSMHL-MIUGBVLSSA-N" "molecular formula=C22H22O9" "total exact mass=430.126382284" "SMILES=COC1=CC=C(C=C1)C2=COC3=C(C2=O)C=CC(=C3)OC4C(C(C(C(O4)CO)O)O)O" "InChI=InChI=1S/C22H22O9/c1-28-12-4-2-11(3-5-12)15-10-29-16-8-13(6-7-14(16)18(15)24)30-22-21(27)20(26)19(25)17(9-23)31-22/h2-8,10,17,19-23,25-27H,9H2,1H3" "InChIKey=MGJLSBDCWOSMHL-UHFFFAOYSA-N"
Num Peaks: 21
 112 1.301301; 
 116 1.001001; 
 252 2.002002; 
 267 100.000000; 
 268 13.013013; 
 269 1.401401; 
 429 1.001001; 
 475 87.787788; 
 476 18.818819; 
 477 3.003003; 
 543 2.002002; 
 697 3.103103; 
 698 1.101101; 
 859 9.409409; 
 860 4.104104; 
 861 1.101101; 
 905 8.508509; 
 906 3.703704; 
 1289 3.303303; 
 1290 2.302302; 
 1335 1.101101; 


Name: Formononetin-7-O-glucoside
Synon: Ononin
SYNON: $:00in-source
DB#: MetaboBASE0487
InChIKey: MGJLSBDCWOSMHL-MIUGBVLSSA-N
Instrument_type: LC-ESI-TOF
Instrument: impact HD
Ion_mode: N
InChIKey: MGJLSBDCWOSMHL-MIUGBVLSSA-N
Formula: C22H22O9
MW: 430
ExactMass: 430.126382284
Comments: "license=License CC-BY-NC-SA 4.0 International" "author=Plant Biology, The Noble Foundation, Ardmore, OK, US/Dennis Fine, Daniel Wherritt, and Lloyd Sumner" "instrument type=LC-ESI-TOF" "instrument=impact HD" "ionization=ESI" "ionization mode=negative" "collision gas=Nitrogen" "peak width=0.014" "date=2013-11-22 22:41:14+01:00" "column=Waters Acquity BEH C18 1.7um x 2.1 x 150 mm" "retention time=489" "raw data file=C:\Data\Confirmed Standards\Confirmed stds MSMS 22Nov13\Ononin (vial 232)  MSMS.d" "cas number=486-62-4" "SMILES=COc1ccc(cc1)c2coc3cc(ccc3c2=O)O[C@H]4[C@@H]([C@H]([C@@H]([C@H](O4)CO)O)O)O" "InChI=InChI=1S/C22H22O9/c1-28-12-4-2-11(3-5-12)15-10-29-16-8-13(6-7-14(16)18(15)24)30-22-21(27)20(26)19(25)17(9-23)31-22/h2-8,10,17,19-23,25-27H,9H2,1H3/t17-,19-,20+,21-,22-/m1/s1" "InChIKey=MGJLSBDCWOSMHL-MIUGBVLSSA-N" "molecular formula=C22H22O9" "total exact mass=430.126382284" "SMILES=COC1=CC=C(C=C1)C2=COC3=C(C2=O)C=CC(=C3)OC4C(C(C(C(O4)CO)O)O)O" "InChI=InChI=1S/C22H22O9/c1-28-12-4-2-11(3-5-12)15-10-29-16-8-13(6-7-14(16)18(15)24)30-22-21(27)20(26)19(25)17(9-23)31-22/h2-8,10,17,19-23,25-27H,9H2,1H3" "InChIKey=MGJLSBDCWOSMHL-UHFFFAOYSA-N"
Num Peaks: 22
 112 0.700701; 
 116 0.800801; 
 267 5.405405; 
 268 0.800801; 
 429 0.700701; 
 475 100.000000; 
 476 20.620621; 
 477 3.203203; 
 543 1.201201; 
 547 0.700701; 
 666 0.800801; 
 859 2.802803; 
 860 1.101101; 
 905 22.022022; 
 906 9.709710; 
 907 2.802803; 
 973 0.600601; 
 1289 4.004004; 
 1290 2.702703; 
 1291 0.900901; 
 1335 1.501502; 
 1336 1.001001; 


Name: Formononetin-7-O-glucoside
Synon: Ononin
SYNON: $:00in-source
DB#: MetaboBASE0488
InChIKey: MGJLSBDCWOSMHL-MIUGBVLSSA-N
Precursor_type: [M+FA-H]-
Spectrum_type: MS2
PrecursorMZ: 475.12
Instrument_type: LC-ESI-TOF
Instrument: impact HD
Ion_mode: N
Collision_energy: 50
InChIKey: MGJLSBDCWOSMHL-MIUGBVLSSA-N
Formula: C22H22O9
MW: 430
ExactMass: 430.126382284
Comments: "license=License CC-BY-NC-SA 4.0 International" "author=Plant Biology, The Noble Foundation, Ardmore, OK, US/Dennis Fine, Daniel Wherritt, and Lloyd Sumner" "instrument type=LC-ESI-TOF" "instrument=impact HD" "ionization=ESI" "ionization mode=negative" "ms level=MS2" "precursor m/z=475.12" "isolation width=5" "collision gas=Nitrogen" "collision energy=50" "peak width=0.014" "date=2013-11-22 22:41:14+01:00" "column=Waters Acquity BEH C18 1.7um x 2.1 x 150 mm" "retention time=489" "raw data file=C:\Data\Confirmed Standards\Confirmed stds MSMS 22Nov13\Ononin (vial 232)  MSMS.d" "precursor type=[M+FA-H]-" "mass accuracy=9.646581916100226" "mass error=-0.004583283999977539" "cas number=486-62-4" "SMILES=COc1ccc(cc1)c2coc3cc(ccc3c2=O)O[C@H]4[C@@H]([C@H]([C@@H]([C@H](O4)CO)O)O)O" "InChI=InChI=1S/C22H22O9/c1-28-12-4-2-11(3-5-12)15-10-29-16-8-13(6-7-14(16)18(15)24)30-22-21(27)20(26)19(25)17(9-23)31-22/h2-8,10,17,19-23,25-27H,9H2,1H3/t17-,19-,20+,21-,22-/m1/s1" "InChIKey=MGJLSBDCWOSMHL-MIUGBVLSSA-N" "molecular formula=C22H22O9" "total exact mass=430.126382284" "SMILES=COC1=CC=C(C=C1)C2=COC3=C(C2=O)C=CC(=C3)OC4C(C(C(C(O4)CO)O)O)O" "InChI=InChI=1S/C22H22O9/c1-28-12-4-2-11(3-5-12)15-10-29-16-8-13(6-7-14(16)18(15)24)30-22-21(27)20(26)19(25)17(9-23)31-22/h2-8,10,17,19-23,25-27H,9H2,1H3" "InChIKey=MGJLSBDCWOSMHL-UHFFFAOYSA-N"
Num Peaks: 8
 223 7.407407; 
 224 3.003003; 
 251 2.602603; 
 252 100.000000; 
 253 11.511512; 
 254 1.601602; 
 267 40.240240; 
 268 5.005005; 


Name: Formononetin-7-O-glucoside
Synon: Ononin
SYNON: $:00in-source
DB#: MetaboBASE0489
InChIKey: MGJLSBDCWOSMHL-MIUGBVLSSA-N
Precursor_type: [M+FA-H]-
Spectrum_type: MS2
PrecursorMZ: 475.12
Instrument_type: LC-ESI-TOF
Instrument: impact HD
Ion_mode: N
Collision_energy: 30
InChIKey: MGJLSBDCWOSMHL-MIUGBVLSSA-N
Formula: C22H22O9
MW: 430
ExactMass: 430.126382284
Comments: "license=License CC-BY-NC-SA 4.0 International" "author=Plant Biology, The Noble Foundation, Ardmore, OK, US/Dennis Fine, Daniel Wherritt, and Lloyd Sumner" "instrument type=LC-ESI-TOF" "instrument=impact HD" "ionization=ESI" "ionization mode=negative" "ms level=MS2" "precursor m/z=475.12" "isolation width=5" "collision gas=Nitrogen" "collision energy=30" "peak width=0.012" "date=2013-11-22 22:41:14+01:00" "column=Waters Acquity BEH C18 1.7um x 2.1 x 150 mm" "retention time=489" "raw data file=C:\Data\Confirmed Standards\Confirmed stds MSMS 22Nov13\Ononin (vial 232)  MSMS.d" "precursor type=[M+FA-H]-" "mass accuracy=9.646581916100226" "mass error=-0.004583283999977539" "cas number=486-62-4" "SMILES=COc1ccc(cc1)c2coc3cc(ccc3c2=O)O[C@H]4[C@@H]([C@H]([C@@H]([C@H](O4)CO)O)O)O" "InChI=InChI=1S/C22H22O9/c1-28-12-4-2-11(3-5-12)15-10-29-16-8-13(6-7-14(16)18(15)24)30-22-21(27)20(26)19(25)17(9-23)31-22/h2-8,10,17,19-23,25-27H,9H2,1H3/t17-,19-,20+,21-,22-/m1/s1" "InChIKey=MGJLSBDCWOSMHL-MIUGBVLSSA-N" "molecular formula=C22H22O9" "total exact mass=430.126382284" "SMILES=COC1=CC=C(C=C1)C2=COC3=C(C2=O)C=CC(=C3)OC4C(C(C(C(O4)CO)O)O)O" "InChI=InChI=1S/C22H22O9/c1-28-12-4-2-11(3-5-12)15-10-29-16-8-13(6-7-14(16)18(15)24)30-22-21(27)20(26)19(25)17(9-23)31-22/h2-8,10,17,19-23,25-27H,9H2,1H3" "InChIKey=MGJLSBDCWOSMHL-UHFFFAOYSA-N"
Num Peaks: 8
 223 0.600601; 
 224 0.400400; 
 251 0.500501; 
 252 7.607608; 
 253 1.501502; 
 267 100.000000; 
 268 11.211211; 
 269 1.201201; 


Name: 6,7,3',4'-Tetrahydroxyflavanone
SYNON: $:00in-source
DB#: MetaboBASE0490
InChIKey: ZIKILYZOICUSQT-UHFFFAOYSA-N
Instrument_type: LC-ESI-TOF
Instrument: impact HD
Ion_mode: N
Collision_energy: 10
InChIKey: ZIKILYZOICUSQT-UHFFFAOYSA-N
Formula: C15H12O6
MW: 288
ExactMass: 288.06338810399996
Comments: "license=License CC-BY-NC-SA 4.0 International" "author=Plant Biology, The Noble Foundation, Ardmore, OK, US/Dennis Fine, Daniel Wherritt, and Lloyd Sumner" "instrument type=LC-ESI-TOF" "instrument=impact HD" "ionization=ESI" "ionization mode=negative" "collision gas=Nitrogen" "collision energy=10" "peak width=0.017" "date=2013-11-20 02:27:08+01:00" "column=Waters Acquity BEH C18 1.7um x 2.1 x 150 mm" "retention time=264" "raw data file=C:\Data\Confirmed Standards\Confirmed Stds 19Nov13\673'4'Tetrahyroxyflavone v256.d" "molecular formula=C15H12O6" "total exact mass=288.06338810399996" "SMILES=C1(=C(C=C2C(=C1)OC(CC2=O)C3=CC=C(C(=C3)O)O)O)O" "InChI=InChI=1S/C15H12O6/c16-9-2-1-7(3-11(9)18)14-5-10(17)8-4-12(19)13(20)6-15(8)21-14/h1-4,6,14,16,18-20H,5H2" "InChIKey=ZIKILYZOICUSQT-UHFFFAOYSA-N"
Num Peaks: 41
 111 2.402402; 
 135 3.403403; 
 151 8.108108; 
 161 1.101101; 
 164 1.001001; 
 197 1.201201; 
 199 2.002002; 
 215 1.401401; 
 223 6.706707; 
 224 1.201201; 
 241 16.116116; 
 242 2.202202; 
 257 1.601602; 
 267 12.012012; 
 268 1.901902; 
 285 28.728729; 
 286 4.304304; 
 287 100.000000; 
 288 12.812813; 
 289 1.701702; 
 299 4.104104; 
 301 5.805806; 
 303 5.405405; 
 309 1.201201; 
 317 2.102102; 
 319 1.801802; 
 571 1.801802; 
 573 3.403403; 
 574 1.101101; 
 575 7.507508; 
 576 2.102102; 
 583 2.902903; 
 585 5.605606; 
 586 1.501502; 
 587 3.203203; 
 597 1.001001; 
 599 1.501502; 
 601 1.901902; 
 603 2.502503; 
 605 1.601602; 
 628 1.001001; 


Name: 6,7,3',4'-Tetrahydroxyflavanone
SYNON: $:00in-source
DB#: MetaboBASE0491
InChIKey: ZIKILYZOICUSQT-UHFFFAOYSA-N
Precursor_type: [M-H]-
Spectrum_type: MS2
PrecursorMZ: 287.0565
Instrument_type: LC-ESI-TOF
Instrument: impact HD
Ion_mode: N
Collision_energy: 10
InChIKey: ZIKILYZOICUSQT-UHFFFAOYSA-N
Formula: C15H12O6
MW: 288
ExactMass: 288.06338810399996
Comments: "license=License CC-BY-NC-SA 4.0 International" "author=Plant Biology, The Noble Foundation, Ardmore, OK, US/Dennis Fine, Daniel Wherritt, and Lloyd Sumner" "instrument type=LC-ESI-TOF" "instrument=impact HD" "ionization=ESI" "ionization mode=negative" "ms level=MS2" "precursor m/z=287.0565" "isolation width=5" "collision gas=Nitrogen" "collision energy=10" "peak width=0.014" "date=2013-11-23 06:09:40+01:00" "column=Waters Acquity BEH C18 1.7um x 2.1 x 150 mm" "retention time=264" "raw data file=C:\Data\Confirmed Standards\Confirmed stds MSMS 22Nov13\673'4'Tetrahyroxyflavone  MSMS.d" "precursor type=[M-H]-" "mass accuracy=1.3512879870805656" "mass error=3.878960000633924E-4" "molecular formula=C15H12O6" "total exact mass=288.06338810399996" "SMILES=C1(=C(C=C2C(=C1)OC(CC2=O)C3=CC=C(C(=C3)O)O)O)O" "InChI=InChI=1S/C15H12O6/c16-9-2-1-7(3-11(9)18)14-5-10(17)8-4-12(19)13(20)6-15(8)21-14/h1-4,6,14,16,18-20H,5H2" "InChIKey=ZIKILYZOICUSQT-UHFFFAOYSA-N"
Num Peaks: 23
 111 1.601602; 
 135 2.802803; 
 151 4.604605; 
 152 0.600601; 
 161 0.600601; 
 177 0.700701; 
 199 1.101101; 
 215 0.700701; 
 223 3.903904; 
 224 1.101101; 
 241 7.007007; 
 242 1.301301; 
 257 0.600601; 
 267 6.006006; 
 268 0.600601; 
 269 0.500501; 
 285 6.206206; 
 285 0.400400; 
 286 1.701702; 
 287 100.000000; 
 288 11.211211; 
 289 2.002002; 
 290 0.400400; 


Name: 6,7,3',4'-Tetrahydroxyflavanone
SYNON: $:00in-source
DB#: MetaboBASE0492
InChIKey: ZIKILYZOICUSQT-UHFFFAOYSA-N
Precursor_type: [M-H]-
Spectrum_type: MS2
PrecursorMZ: 287.0574
Instrument_type: LC-ESI-TOF
Instrument: impact HD
Ion_mode: N
Collision_energy: 20
InChIKey: ZIKILYZOICUSQT-UHFFFAOYSA-N
Formula: C15H12O6
MW: 288
ExactMass: 288.06338810399996
Comments: "license=License CC-BY-NC-SA 4.0 International" "author=Plant Biology, The Noble Foundation, Ardmore, OK, US/Dennis Fine, Daniel Wherritt, and Lloyd Sumner" "instrument type=LC-ESI-TOF" "instrument=impact HD" "ionization=ESI" "ionization mode=negative" "ms level=MS2" "precursor m/z=287.0574" "isolation width=5" "collision gas=Nitrogen" "collision energy=20" "peak width=0.016" "date=2013-11-23 06:09:40+01:00" "column=Waters Acquity BEH C18 1.7um x 2.1 x 150 mm" "retention time=264" "raw data file=C:\Data\Confirmed Standards\Confirmed stds MSMS 22Nov13\673'4'Tetrahyroxyflavone  MSMS.d" "precursor type=[M-H]-" "mass accuracy=4.48654519969875" "mass error=0.0012878960000080042" "molecular formula=C15H12O6" "total exact mass=288.06338810399996" "SMILES=C1(=C(C=C2C(=C1)OC(CC2=O)C3=CC=C(C(=C3)O)O)O)O" "InChI=InChI=1S/C15H12O6/c16-9-2-1-7(3-11(9)18)14-5-10(17)8-4-12(19)13(20)6-15(8)21-14/h1-4,6,14,16,18-20H,5H2" "InChIKey=ZIKILYZOICUSQT-UHFFFAOYSA-N"
Num Peaks: 22
 107 4.404404; 
 111 12.612613; 
 123 8.608609; 
 133 3.203203; 
 134 2.402402; 
 135 99.899900; 
 136 8.008008; 
 151 100.000000; 
 152 4.704705; 
 161 5.005005; 
 165 3.903904; 
 169 3.103103; 
 199 4.804805; 
 215 3.903904; 
 223 11.611612; 
 224 5.605606; 
 225 2.502503; 
 241 4.704705; 
 245 2.702703; 
 267 3.103103; 
 269 2.402402; 
 287 10.810811; 


Name: 6,7,3',4'-Tetrahydroxyflavanone
SYNON: $:00in-source
DB#: MetaboBASE0493
InChIKey: ZIKILYZOICUSQT-UHFFFAOYSA-N
Instrument_type: LC-ESI-TOF
Instrument: impact HD
Ion_mode: N
InChIKey: ZIKILYZOICUSQT-UHFFFAOYSA-N
Formula: C15H12O6
MW: 288
ExactMass: 288.06338810399996
Comments: "license=License CC-BY-NC-SA 4.0 International" "author=Plant Biology, The Noble Foundation, Ardmore, OK, US/Dennis Fine, Daniel Wherritt, and Lloyd Sumner" "instrument type=LC-ESI-TOF" "instrument=impact HD" "ionization=ESI" "ionization mode=negative" "collision gas=Nitrogen" "peak width=0.015" "date=2013-11-23 06:09:40+01:00" "column=Waters Acquity BEH C18 1.7um x 2.1 x 150 mm" "retention time=264" "raw data file=C:\Data\Confirmed Standards\Confirmed stds MSMS 22Nov13\673'4'Tetrahyroxyflavone  MSMS.d" "molecular formula=C15H12O6" "total exact mass=288.06338810399996" "SMILES=C1(=C(C=C2C(=C1)OC(CC2=O)C3=CC=C(C(=C3)O)O)O)O" "InChI=InChI=1S/C15H12O6/c16-9-2-1-7(3-11(9)18)14-5-10(17)8-4-12(19)13(20)6-15(8)21-14/h1-4,6,14,16,18-20H,5H2" "InChIKey=ZIKILYZOICUSQT-UHFFFAOYSA-N"
Num Peaks: 24
 241 4.104104; 
 267 3.303303; 
 285 43.243243; 
 286 5.305305; 
 287 100.000000; 
 288 12.112112; 
 289 1.501502; 
 299 2.302302; 
 301 6.006006; 
 303 8.008008; 
 317 3.503504; 
 319 2.702703; 
 571 2.402402; 
 573 14.414414; 
 574 3.603604; 
 575 31.431431; 
 576 8.608609; 
 577 1.501502; 
 585 2.002002; 
 587 1.501502; 
 591 2.202202; 
 601 1.801802; 
 603 2.302302; 
 605 1.701702; 


Name: 6,7,3',4'-Tetrahydroxyflavanone
SYNON: $:00in-source
DB#: MetaboBASE0494
InChIKey: ZIKILYZOICUSQT-UHFFFAOYSA-N
Precursor_type: [M-H]-
Spectrum_type: MS2
PrecursorMZ: 287.08
Instrument_type: LC-ESI-TOF
Instrument: impact HD
Ion_mode: N
Collision_energy: 30
InChIKey: ZIKILYZOICUSQT-UHFFFAOYSA-N
Formula: C15H12O6
MW: 288
ExactMass: 288.06338810399996
Comments: "license=License CC-BY-NC-SA 4.0 International" "author=Plant Biology, The Noble Foundation, Ardmore, OK, US/Dennis Fine, Daniel Wherritt, and Lloyd Sumner" "instrument type=LC-ESI-TOF" "instrument=impact HD" "ionization=ESI" "ionization mode=negative" "ms level=MS2" "precursor m/z=287.08" "isolation width=5" "collision gas=Nitrogen" "collision energy=30" "peak width=0.014" "date=2013-11-23 06:09:40+01:00" "column=Waters Acquity BEH C18 1.7um x 2.1 x 150 mm" "retention time=264" "raw data file=C:\Data\Confirmed Standards\Confirmed stds MSMS 22Nov13\673'4'Tetrahyroxyflavone  MSMS.d" "precursor type=[M-H]-" "mass accuracy=83.20989271289983" "mass error=0.023887896000019282" "molecular formula=C15H12O6" "total exact mass=288.06338810399996" "SMILES=C1(=C(C=C2C(=C1)OC(CC2=O)C3=CC=C(C(=C3)O)O)O)O" "InChI=InChI=1S/C15H12O6/c16-9-2-1-7(3-11(9)18)14-5-10(17)8-4-12(19)13(20)6-15(8)21-14/h1-4,6,14,16,18-20H,5H2" "InChIKey=ZIKILYZOICUSQT-UHFFFAOYSA-N"
Num Peaks: 17
 107 11.811812; 
 109 2.102102; 
 111 4.604605; 
 123 10.610611; 
 124 3.003003; 
 125 2.602603; 
 134 3.103103; 
 135 100.000000; 
 136 8.508509; 
 151 31.231231; 
 161 3.003003; 
 165 3.803804; 
 169 2.802803; 
 174 2.102102; 
 198 2.002002; 
 199 2.002002; 
 223 5.905906; 


Name: 5,7-Dihydroxy-2'-methoxyflavone
SYNON: $:00in-source
DB#: MetaboBASE0495
InChIKey: SWYVZKGICYEZDR-UHFFFAOYSA-N
Spectrum_type: MS2
PrecursorMZ: 283.06
Instrument_type: LC-ESI-TOF
Instrument: impact HD
Ion_mode: N
Collision_energy: 50
InChIKey: SWYVZKGICYEZDR-UHFFFAOYSA-N
Formula: C16H12O5
MW: 284
ExactMass: 284.068473484
Comments: "license=License CC-BY-NC-SA 4.0 International" "author=Plant Biology, The Noble Foundation, Ardmore, OK, US/Dennis Fine, Daniel Wherritt, and Lloyd Sumner" "instrument type=LC-ESI-TOF" "instrument=impact HD" "ionization=ESI" "ionization mode=negative" "ms level=MS2" "precursor m/z=283.06" "isolation width=5" "collision gas=Nitrogen" "collision energy=50" "peak width=0.011" "date=2013-11-23 19:04:17+01:00" "column=Waters Acquity BEH C18 1.7um x 2.1 x 150 mm" "retention time=871.2" "raw data file=C:\Data\Confirmed Standards\Confirmed stds MSMS 22Nov13\57Dihydroxy2'methoxyfl MSMS.d" "Last Auto-Curation=1505111553527" "cas number=10458-35-2" "SMILES=COc1ccccc1c2cc(=O)c3c(cc(cc3o2)O)O" "InChI=InChI=1S/C16H12O5/c1-20-13-5-3-2-4-10(13)14-8-12(19)16-11(18)6-9(17)7-15(16)21-14/h2-8,17-18H,1H3" "InChIKey=SWYVZKGICYEZDR-UHFFFAOYSA-N" "molecular formula=C16H12O5" "total exact mass=284.068473484" "SMILES=[H]OC=1C([H])=C(O[H])C=2C(=O)C([H])=C(OC2C1[H])C=3C([H])=C([H])C([H])=C([H])C3OC([H])([H])[H]"
Num Peaks: 9
 122 49.349349; 
 133 99.199199; 
 149 42.542543; 
 157 64.764765; 
 167 33.733734; 
 211 100.000000; 
 223 34.334334; 
 239 86.086086; 
 267 87.987988; 


Name: 5,7-Dihydroxy-2'-methoxyflavone
SYNON: $:00in-source
DB#: MetaboBASE0496
InChIKey: SWYVZKGICYEZDR-UHFFFAOYSA-N
Instrument_type: LC-ESI-TOF
Instrument: impact HD
Ion_mode: N
Collision_energy: 10
InChIKey: SWYVZKGICYEZDR-UHFFFAOYSA-N
Formula: C16H12O5
MW: 284
ExactMass: 284.068473484
Comments: "license=License CC-BY-NC-SA 4.0 International" "author=Plant Biology, The Noble Foundation, Ardmore, OK, US/Dennis Fine, Daniel Wherritt, and Lloyd Sumner" "instrument type=LC-ESI-TOF" "instrument=impact HD" "ionization=ESI" "ionization mode=negative" "collision gas=Nitrogen" "collision energy=10" "peak width=0.014" "date=2013-11-20 16:51:11+01:00" "column=Waters Acquity BEH C18 1.7um x 2.1 x 150 mm" "retention time=875.4" "raw data file=C:\Data\Confirmed Standards\Confirmed Stds 19Nov13\57Dihydroxy2'methoxyflavone_2094.d" "Last Auto-Curation=1505110868688" "cas number=10458-35-2" "SMILES=COc1ccccc1c2cc(=O)c3c(cc(cc3o2)O)O" "InChI=InChI=1S/C16H12O5/c1-20-13-5-3-2-4-10(13)14-8-12(19)16-11(18)6-9(17)7-15(16)21-14/h2-8,17-18H,1H3" "InChIKey=SWYVZKGICYEZDR-UHFFFAOYSA-N" "molecular formula=C16H12O5" "total exact mass=284.068473484" "SMILES=[H]OC=1C([H])=C(O[H])C=2C(=O)C([H])=C(OC2C1[H])C=3C([H])=C([H])C([H])=C([H])C3OC([H])([H])[H]"
Num Peaks: 4
 268 3.003003; 
 283 100.000000; 
 284 17.417417; 
 285 1.801802; 


Name: 5,7-Dihydroxy-2'-methoxyflavone
SYNON: $:00in-source
DB#: MetaboBASE0497
InChIKey: SWYVZKGICYEZDR-UHFFFAOYSA-N
Instrument_type: LC-ESI-TOF
Instrument: impact HD
Ion_mode: N
InChIKey: SWYVZKGICYEZDR-UHFFFAOYSA-N
Formula: C16H12O5
MW: 284
ExactMass: 284.068473484
Comments: "license=License CC-BY-NC-SA 4.0 International" "author=Plant Biology, The Noble Foundation, Ardmore, OK, US/Dennis Fine, Daniel Wherritt, and Lloyd Sumner" "instrument type=LC-ESI-TOF" "instrument=impact HD" "ionization=ESI" "ionization mode=negative" "collision gas=Nitrogen" "peak width=0.014" "date=2013-11-23 19:04:17+01:00" "column=Waters Acquity BEH C18 1.7um x 2.1 x 150 mm" "retention time=871.2" "raw data file=C:\Data\Confirmed Standards\Confirmed stds MSMS 22Nov13\57Dihydroxy2'methoxyfl MSMS.d" "Last Auto-Curation=1505110110113" "cas number=10458-35-2" "SMILES=COc1ccccc1c2cc(=O)c3c(cc(cc3o2)O)O" "InChI=InChI=1S/C16H12O5/c1-20-13-5-3-2-4-10(13)14-8-12(19)16-11(18)6-9(17)7-15(16)21-14/h2-8,17-18H,1H3" "InChIKey=SWYVZKGICYEZDR-UHFFFAOYSA-N" "molecular formula=C16H12O5" "total exact mass=284.068473484" "SMILES=[H]OC=1C([H])=C(O[H])C=2C(=O)C([H])=C(OC2C1[H])C=3C([H])=C([H])C([H])=C([H])C3OC([H])([H])[H]"
Num Peaks: 19
 174 0.100100; 
 242 0.100100; 
 253 1.701702; 
 254 0.200200; 
 268 0.200200; 
 283 0.100100; 
 283 100.000000; 
 284 17.417417; 
 285 1.801802; 
 286 0.200200; 
 319 0.500501; 
 321 0.200200; 
 351 0.900901; 
 352 0.200200; 
 413 0.100100; 
 567 3.403403; 
 568 0.900901; 
 569 0.200200; 
 589 0.100100; 


Name: 5,7-Dihydroxy-2'-methoxyflavone
SYNON: $:00in-source
DB#: MetaboBASE0498
InChIKey: SWYVZKGICYEZDR-UHFFFAOYSA-N
Spectrum_type: MS2
PrecursorMZ: 283.06
Instrument_type: LC-ESI-TOF
Instrument: impact HD
Ion_mode: N
Collision_energy: 40
InChIKey: SWYVZKGICYEZDR-UHFFFAOYSA-N
Formula: C16H12O5
MW: 284
ExactMass: 284.068473484
Comments: "license=License CC-BY-NC-SA 4.0 International" "author=Plant Biology, The Noble Foundation, Ardmore, OK, US/Dennis Fine, Daniel Wherritt, and Lloyd Sumner" "instrument type=LC-ESI-TOF" "instrument=impact HD" "ionization=ESI" "ionization mode=negative" "ms level=MS2" "precursor m/z=283.06" "isolation width=5" "collision gas=Nitrogen" "collision energy=40" "peak width=0.017" "date=2013-11-23 19:04:17+01:00" "column=Waters Acquity BEH C18 1.7um x 2.1 x 150 mm" "retention time=871.2" "raw data file=C:\Data\Confirmed Standards\Confirmed stds MSMS 22Nov13\57Dihydroxy2'methoxyfl MSMS.d" "Last Auto-Curation=1505110868886" "cas number=10458-35-2" "SMILES=COc1ccccc1c2cc(=O)c3c(cc(cc3o2)O)O" "InChI=InChI=1S/C16H12O5/c1-20-13-5-3-2-4-10(13)14-8-12(19)16-11(18)6-9(17)7-15(16)21-14/h2-8,17-18H,1H3" "InChIKey=SWYVZKGICYEZDR-UHFFFAOYSA-N" "molecular formula=C16H12O5" "total exact mass=284.068473484" "SMILES=[H]OC=1C([H])=C(O[H])C=2C(=O)C([H])=C(OC2C1[H])C=3C([H])=C([H])C([H])=C([H])C3OC([H])([H])[H]"
Num Peaks: 16
 117 6.706707; 
 122 50.350350; 
 133 8.508509; 
 149 23.023023; 
 157 5.105105; 
 195 8.408408; 
 196 22.422422; 
 211 9.109109; 
 223 17.017017; 
 239 42.042042; 
 240 43.743744; 
 241 10.810811; 
 251 5.905906; 
 267 100.000000; 
 268 36.036036; 
 269 8.608609; 


Name: 5,7-Dihydroxy-2'-methoxyflavone
SYNON: $:00in-source
DB#: MetaboBASE0499
InChIKey: SWYVZKGICYEZDR-UHFFFAOYSA-N
Spectrum_type: MS2
PrecursorMZ: 283.0619
Instrument_type: LC-ESI-TOF
Instrument: impact HD
Ion_mode: N
Collision_energy: 20
InChIKey: SWYVZKGICYEZDR-UHFFFAOYSA-N
Formula: C16H12O5
MW: 284
ExactMass: 284.068473484
Comments: "license=License CC-BY-NC-SA 4.0 International" "author=Plant Biology, The Noble Foundation, Ardmore, OK, US/Dennis Fine, Daniel Wherritt, and Lloyd Sumner" "instrument type=LC-ESI-TOF" "instrument=impact HD" "ionization=ESI" "ionization mode=negative" "ms level=MS2" "precursor m/z=283.0619" "isolation width=5" "collision gas=Nitrogen" "collision energy=20" "peak width=0.011" "date=2013-11-23 19:04:17+01:00" "column=Waters Acquity BEH C18 1.7um x 2.1 x 150 mm" "retention time=871.2" "raw data file=C:\Data\Confirmed Standards\Confirmed stds MSMS 22Nov13\57Dihydroxy2'methoxyfl MSMS.d" "Last Auto-Curation=1505111456828" "cas number=10458-35-2" "SMILES=COc1ccccc1c2cc(=O)c3c(cc(cc3o2)O)O" "InChI=InChI=1S/C16H12O5/c1-20-13-5-3-2-4-10(13)14-8-12(19)16-11(18)6-9(17)7-15(16)21-14/h2-8,17-18H,1H3" "InChIKey=SWYVZKGICYEZDR-UHFFFAOYSA-N" "molecular formula=C16H12O5" "total exact mass=284.068473484" "SMILES=[H]OC=1C([H])=C(O[H])C=2C(=O)C([H])=C(OC2C1[H])C=3C([H])=C([H])C([H])=C([H])C3OC([H])([H])[H]"
Num Peaks: 20
 122 0.300300; 
 196 0.500501; 
 199 0.100100; 
 211 0.100100; 
 224 0.100100; 
 227 0.100100; 
 239 0.600601; 
 239 0.200200; 
 240 8.008008; 
 241 0.900901; 
 242 0.200200; 
 251 0.100100; 
 267 4.704705; 
 268 57.957958; 
 269 6.006006; 
 270 0.900901; 
 283 100.000000; 
 284 12.112112; 
 285 1.601602; 
 286 0.100100; 


Name: 5,7-Dihydroxy-2'-methoxyflavone
SYNON: $:00in-source
DB#: MetaboBASE0500
InChIKey: SWYVZKGICYEZDR-UHFFFAOYSA-N
Spectrum_type: MS2
PrecursorMZ: 283.0613
Instrument_type: LC-ESI-TOF
Instrument: impact HD
Ion_mode: N
Collision_energy: 30
InChIKey: SWYVZKGICYEZDR-UHFFFAOYSA-N
Formula: C16H12O5
MW: 284
ExactMass: 284.068473484
Comments: "license=License CC-BY-NC-SA 4.0 International" "author=Plant Biology, The Noble Foundation, Ardmore, OK, US/Dennis Fine, Daniel Wherritt, and Lloyd Sumner" "instrument type=LC-ESI-TOF" "instrument=impact HD" "ionization=ESI" "ionization mode=negative" "ms level=MS2" "precursor m/z=283.0613" "isolation width=5" "collision gas=Nitrogen" "collision energy=30" "peak width=0.014" "date=2013-11-23 19:04:17+01:00" "column=Waters Acquity BEH C18 1.7um x 2.1 x 150 mm" "retention time=871.2" "raw data file=C:\Data\Confirmed Standards\Confirmed stds MSMS 22Nov13\57Dihydroxy2'methoxyfl MSMS.d" "Last Auto-Curation=1505110110497" "cas number=10458-35-2" "SMILES=COc1ccccc1c2cc(=O)c3c(cc(cc3o2)O)O" "InChI=InChI=1S/C16H12O5/c1-20-13-5-3-2-4-10(13)14-8-12(19)16-11(18)6-9(17)7-15(16)21-14/h2-8,17-18H,1H3" "InChIKey=SWYVZKGICYEZDR-UHFFFAOYSA-N" "molecular formula=C16H12O5" "total exact mass=284.068473484" "SMILES=[H]OC=1C([H])=C(O[H])C=2C(=O)C([H])=C(OC2C1[H])C=3C([H])=C([H])C([H])=C([H])C3OC([H])([H])[H]"
Num Peaks: 34
 122 10.210210; 
 123 0.700701; 
 133 0.500501; 
 135 1.301301; 
 148 1.001001; 
 149 2.802803; 
 151 0.400400; 
 171 0.500501; 
 172 0.500501; 
 185 0.400400; 
 195 0.500501; 
 196 8.908909; 
 197 1.601602; 
 199 0.400400; 
 211 1.401401; 
 212 0.700701; 
 223 1.001001; 
 224 1.801802; 
 225 0.400400; 
 227 0.900901; 
 239 7.407407; 
 240 62.562563; 
 241 8.108108; 
 242 1.001001; 
 249 0.700701; 
 250 0.400400; 
 251 1.301301; 
 267 45.945946; 
 268 100.000000; 
 269 11.711712; 
 270 1.501502; 
 283 23.123123; 
 284 3.403403; 
 285 0.400400; 


Name: 7,4'-Dimethoxy-5-hydroxyflavanone
SYNON: $:00in-source
DB#: MetaboBASE0501
InChIKey: CKEXCBVNKRHAMX-UHFFFAOYSA-N
Spectrum_type: MS2
PrecursorMZ: 299.0921
Instrument_type: LC-ESI-TOF
Instrument: impact HD
Ion_mode: N
Collision_energy: 20
InChIKey: CKEXCBVNKRHAMX-UHFFFAOYSA-N
Formula: C17H16O5
MW: 300
ExactMass: 300.099773612
Comments: "license=License CC-BY-NC-SA 4.0 International" "author=Plant Biology, The Noble Foundation, Ardmore, OK, US/Dennis Fine, Daniel Wherritt, and Lloyd Sumner" "instrument type=LC-ESI-TOF" "instrument=impact HD" "ionization=ESI" "ionization mode=negative" "ms level=MS2" "precursor m/z=299.0921" "isolation width=5" "collision gas=Nitrogen" "collision energy=20" "peak width=0.014" "date=2013-11-23 10:14:17+01:00" "column=Waters Acquity BEH C18 1.7um x 2.1 x 150 mm" "retention time=1120.2" "raw data file=C:\Data\Confirmed Standards\Confirmed stds MSMS 22Nov13\74'Dimethoxy5hydroxyfla MSMS.d" "Last Auto-Curation=1505110110950" "cas number=29424-96-2" "SMILES=COc1ccc(cc1)C2CC(=O)c3c(cc(cc3O2)OC)O" "InChI=InChI=1S/C17H16O5/c1-20-11-5-3-10(4-6-11)15-9-14(19)17-13(18)7-12(21-2)8-16(17)22-15/h3-8,15,18H,9H2,1-2H3" "InChIKey=CKEXCBVNKRHAMX-UHFFFAOYSA-N" "molecular formula=C17H16O5" "total exact mass=300.099773612" "SMILES=[H]OC1=C([H])C(OC([H])([H])[H])=C([H])C=2OC([H])(C3=C([H])C([H])=C(OC([H])([H])[H])C([H])=C3[H])C([H])([H])C(=O)C12"
Num Peaks: 19
 165 12.512513; 
 166 1.801802; 
 191 2.302302; 
 241 4.104104; 
 255 2.402402; 
 256 4.604605; 
 257 1.801802; 
 266 1.601602; 
 267 1.201201; 
 269 8.008008; 
 270 1.401401; 
 271 1.901902; 
 281 2.502503; 
 283 9.409409; 
 284 28.228228; 
 285 4.904905; 
 299 100.000000; 
 300 12.812813; 
 301 2.502503; 


Name: 7,4'-Dimethoxy-5-hydroxyflavanone
SYNON: $:00in-source
DB#: MetaboBASE0502
InChIKey: CKEXCBVNKRHAMX-UHFFFAOYSA-N
Instrument_type: LC-ESI-TOF
Instrument: impact HD
Ion_mode: N
Collision_energy: 10
InChIKey: CKEXCBVNKRHAMX-UHFFFAOYSA-N
Formula: C17H16O5
MW: 300
ExactMass: 300.099773612
Comments: "license=License CC-BY-NC-SA 4.0 International" "author=Plant Biology, The Noble Foundation, Ardmore, OK, US/Dennis Fine, Daniel Wherritt, and Lloyd Sumner" "instrument type=LC-ESI-TOF" "instrument=impact HD" "ionization=ESI" "ionization mode=negative" "collision gas=Nitrogen" "collision energy=10" "peak width=0.016" "date=2013-11-21 08:28:19+01:00" "column=Waters Acquity BEH C18 1.7um x 2.1 x 150 mm" "retention time=1120.2" "raw data file=C:\Data\Confirmed Standards\Confirmed Stds 19Nov13\74'Dimethoxy5hydroxyflav 1 uL .d" "Last Auto-Curation=1505110869580" "cas number=29424-96-2" "SMILES=COc1ccc(cc1)C2CC(=O)c3c(cc(cc3O2)OC)O" "InChI=InChI=1S/C17H16O5/c1-20-11-5-3-10(4-6-11)15-9-14(19)17-13(18)7-12(21-2)8-16(17)22-15/h3-8,15,18H,9H2,1-2H3" "InChIKey=CKEXCBVNKRHAMX-UHFFFAOYSA-N" "molecular formula=C17H16O5" "total exact mass=300.099773612" "SMILES=[H]OC1=C([H])C(OC([H])([H])[H])=C([H])C=2OC([H])(C3=C([H])C([H])=C(OC([H])([H])[H])C([H])=C3[H])C([H])([H])C(=O)C12"
Num Peaks: 14
 284 2.502503; 
 299 100.000000; 
 300 15.215215; 
 301 1.801802; 
 367 2.902903; 
 605 1.501502; 
 621 42.942943; 
 622 13.513514; 
 623 2.502503; 
 689 1.101101; 
 937 1.501502; 
 943 5.005005; 
 944 2.702703; 
 1259 1.401401; 


Name: 7,4'-Dimethoxy-5-hydroxyflavanone
SYNON: $:00in-source
DB#: MetaboBASE0503
InChIKey: CKEXCBVNKRHAMX-UHFFFAOYSA-N
Spectrum_type: MS2
PrecursorMZ: 299.09
Instrument_type: LC-ESI-TOF
Instrument: impact HD
Ion_mode: N
Collision_energy: 40
InChIKey: CKEXCBVNKRHAMX-UHFFFAOYSA-N
Formula: C17H16O5
MW: 300
ExactMass: 300.099773612
Comments: "license=License CC-BY-NC-SA 4.0 International" "author=Plant Biology, The Noble Foundation, Ardmore, OK, US/Dennis Fine, Daniel Wherritt, and Lloyd Sumner" "instrument type=LC-ESI-TOF" "instrument=impact HD" "ionization=ESI" "ionization mode=negative" "ms level=MS2" "precursor m/z=299.09" "isolation width=5" "collision gas=Nitrogen" "collision energy=40" "peak width=0.015" "date=2013-11-23 10:14:17+01:00" "column=Waters Acquity BEH C18 1.7um x 2.1 x 150 mm" "retention time=1120.2" "raw data file=C:\Data\Confirmed Standards\Confirmed stds MSMS 22Nov13\74'Dimethoxy5hydroxyfla MSMS.d" "Last Auto-Curation=1505110869757" "cas number=29424-96-2" "SMILES=COc1ccc(cc1)C2CC(=O)c3c(cc(cc3O2)OC)O" "InChI=InChI=1S/C17H16O5/c1-20-11-5-3-10(4-6-11)15-9-14(19)17-13(18)7-12(21-2)8-16(17)22-15/h3-8,15,18H,9H2,1-2H3" "InChIKey=CKEXCBVNKRHAMX-UHFFFAOYSA-N" "molecular formula=C17H16O5" "total exact mass=300.099773612" "SMILES=[H]OC1=C([H])C(OC([H])([H])[H])=C([H])C=2OC([H])(C3=C([H])C([H])=C(OC([H])([H])[H])C([H])=C3[H])C([H])([H])C(=O)C12"
Num Peaks: 7
 119 100.000000; 
 121 21.321321; 
 149 27.527528; 
 165 40.040040; 
 241 51.251251; 
 268 41.341341; 
 283 21.421421; 


Name: 7,4'-Dimethoxy-5-hydroxyflavanone
SYNON: $:00in-source
DB#: MetaboBASE0504
InChIKey: CKEXCBVNKRHAMX-UHFFFAOYSA-N
Spectrum_type: MS2
PrecursorMZ: 299.0934
Instrument_type: LC-ESI-TOF
Instrument: impact HD
Ion_mode: N
Collision_energy: 30
InChIKey: CKEXCBVNKRHAMX-UHFFFAOYSA-N
Formula: C17H16O5
MW: 300
ExactMass: 300.09977361200004
Comments: "license=License CC-BY-NC-SA 4.0 International" "author=Plant Biology, The Noble Foundation, Ardmore, OK, US/Dennis Fine, Daniel Wherritt, and Lloyd Sumner" "instrument type=LC-ESI-TOF" "instrument=impact HD" "ionization=ESI" "ionization mode=negative" "ms level=MS2" "precursor m/z=299.0934" "isolation width=5" "collision gas=Nitrogen" "collision energy=30" "peak width=0.015" "date=2013-11-23 10:14:17+01:00" "column=Waters Acquity BEH C18 1.7um x 2.1 x 150 mm" "retention time=1120.2" "raw data file=C:\Data\Confirmed Standards\Confirmed stds MSMS 22Nov13\74'Dimethoxy5hydroxyfla MSMS.d" "Last Auto-Curation=1505110111453" "cas number=29424-96-2" "SMILES=COc1ccc(cc1)C2CC(=O)c3c(cc(cc3O2)OC)O" "InChI=InChI=1S/C17H16O5/c1-20-11-5-3-10(4-6-11)15-9-14(19)17-13(18)7-12(21-2)8-16(17)22-15/h3-8,15,18H,9H2,1-2H3" "InChIKey=CKEXCBVNKRHAMX-UHFFFAOYSA-N" "molecular formula=C17H16O5" "total exact mass=300.09977361200004" "SMILES=[H]OC1=C([H])C(OC([H])([H])[H])=C([H])C=2OC([H])(C3=C([H])C([H])=C(OC([H])([H])[H])C([H])=C3[H])C([H])([H])C(=O)C12"
Num Peaks: 17
 119 51.651652; 
 121 18.118118; 
 149 13.113113; 
 165 100.000000; 
 178 14.914915; 
 191 13.413413; 
 210 10.410410; 
 238 10.210210; 
 241 71.571572; 
 242 10.710711; 
 255 12.712713; 
 256 11.411411; 
 268 12.312312; 
 269 38.538539; 
 283 68.468468; 
 284 31.231231; 
 299 15.815816; 


Name: Corymbosin
SYNON: $:00in-source
DB#: MetaboBASE0505
InChIKey: FLCVGMVLNHYJAW-UHFFFAOYSA-N
Precursor_type: [M-H]-
Spectrum_type: MS2
PrecursorMZ: 357.0946
Instrument_type: LC-ESI-TOF
Instrument: impact HD
Ion_mode: N
Collision_energy: 20
InChIKey: FLCVGMVLNHYJAW-UHFFFAOYSA-N
Formula: C19H18O7
MW: 358
ExactMass: 358.105252916
Comments: "license=License CC-BY-NC-SA 4.0 International" "author=Plant Biology, The Noble Foundation, Ardmore, OK, US/Dennis Fine, Daniel Wherritt, and Lloyd Sumner" "instrument type=LC-ESI-TOF" "instrument=impact HD" "ionization=ESI" "ionization mode=negative" "ms level=MS2" "precursor m/z=357.0946" "isolation width=5" "collision gas=Nitrogen" "collision energy=20" "peak width=0.017" "date=2014-07-26 12:05:45+02:00" "column=Waters Acquity BEH C18 1.7um x 2.1 x 150 mm" "retention time=1108.2" "raw data file=G:\Sumner Lab Data Management Workspace Jun2013\Projects\NSF-JST Metabolomics Nov2011-Sep2014\UPLC-MS-MSMS\Confirmed standards 24_July_2014\Corymbosin vial 260_1-C,3_01_500.d" "precursor type=[M-H]-" "mass accuracy=9.4566425814875" "mass error=-0.0033769159999792464" "SMILES=COC1=CC(=C2C(=C1)OC(=CC2=O)C3=CC(=C(C(=C3)OC)OC)OC)O" "InChI=InChI=1S/C19H18O7/c1-22-11-7-12(20)18-13(21)9-14(26-15(18)8-11)10-5-16(23-2)19(25-4)17(6-10)24-3/h5-9,20H,1-4H3" "InChIKey=FLCVGMVLNHYJAW-UHFFFAOYSA-N" "molecular formula=C19H18O7" "total exact mass=358.105252916" "SMILES=COC1=CC(=C2C(=C1)OC(=CC2=O)C3=CC(=C(C(=C3)OC)OC)OC)O"
Num Peaks: 12
 284 1.601602; 
 298 1.601602; 
 299 4.104104; 
 313 3.803804; 
 314 1.701702; 
 327 58.958959; 
 328 10.610611; 
 341 4.604605; 
 342 75.375375; 
 343 14.214214; 
 357 100.000000; 
 358 15.715716; 


Name: Corymbosin
SYNON: $:00in-source
DB#: MetaboBASE0506
InChIKey: FLCVGMVLNHYJAW-UHFFFAOYSA-N
Precursor_type: [M-H]-
Spectrum_type: MS2
PrecursorMZ: 357.0952
Instrument_type: LC-ESI-TOF
Instrument: impact HD
Ion_mode: N
Collision_energy: 10
InChIKey: FLCVGMVLNHYJAW-UHFFFAOYSA-N
Formula: C19H18O7
MW: 358
ExactMass: 358.105252916
Comments: "license=License CC-BY-NC-SA 4.0 International" "author=Plant Biology, The Noble Foundation, Ardmore, OK, US/Dennis Fine, Daniel Wherritt, and Lloyd Sumner" "instrument type=LC-ESI-TOF" "instrument=impact HD" "ionization=ESI" "ionization mode=negative" "ms level=MS2" "precursor m/z=357.0952" "isolation width=5" "collision gas=Nitrogen" "collision energy=10" "peak width=0.017" "date=2014-07-26 12:05:45+02:00" "column=Waters Acquity BEH C18 1.7um x 2.1 x 150 mm" "retention time=1108.2" "raw data file=G:\Sumner Lab Data Management Workspace Jun2013\Projects\NSF-JST Metabolomics Nov2011-Sep2014\UPLC-MS-MSMS\Confirmed standards 24_July_2014\Corymbosin vial 260_1-C,3_01_500.d" "precursor type=[M-H]-" "mass accuracy=7.77640248319264" "mass error=-0.002776916000016172" "SMILES=COC1=CC(=C2C(=C1)OC(=CC2=O)C3=CC(=C(C(=C3)OC)OC)OC)O" "InChI=InChI=1S/C19H18O7/c1-22-11-7-12(20)18-13(21)9-14(26-15(18)8-11)10-5-16(23-2)19(25-4)17(6-10)24-3/h5-9,20H,1-4H3" "InChIKey=FLCVGMVLNHYJAW-UHFFFAOYSA-N" "molecular formula=C19H18O7" "total exact mass=358.105252916" "SMILES=COC1=CC(=C2C(=C1)OC(=CC2=O)C3=CC(=C(C(=C3)OC)OC)OC)O"
Num Peaks: 3
 342 3.903904; 
 357 100.000000; 
 358 19.119119; 


Name: Corymbosin
SYNON: $:00in-source
DB#: MetaboBASE0507
InChIKey: FLCVGMVLNHYJAW-UHFFFAOYSA-N
Instrument_type: LC-ESI-TOF
Instrument: impact HD
Ion_mode: N
Collision_energy: 10
InChIKey: FLCVGMVLNHYJAW-UHFFFAOYSA-N
Formula: C19H18O7
MW: 358
ExactMass: 358.105252916
Comments: "license=License CC-BY-NC-SA 4.0 International" "author=Plant Biology, The Noble Foundation, Ardmore, OK, US/Dennis Fine, Daniel Wherritt, and Lloyd Sumner" "instrument type=LC-ESI-TOF" "instrument=impact HD" "ionization=ESI" "ionization mode=negative" "collision gas=Nitrogen" "collision energy=10" "peak width=0.018" "date=2013-11-21 07:47:34+01:00" "column=Waters Acquity BEH C18 1.7um x 2.1 x 150 mm" "retention time=1108.2" "raw data file=C:\Data\Confirmed Standards\Confirmed Stds 19Nov13\Corymbosin (vial 260) 3 uL.d" "SMILES=COC1=CC(=C2C(=C1)OC(=CC2=O)C3=CC(=C(C(=C3)OC)OC)OC)O" "InChI=InChI=1S/C19H18O7/c1-22-11-7-12(20)18-13(21)9-14(26-15(18)8-11)10-5-16(23-2)19(25-4)17(6-10)24-3/h5-9,20H,1-4H3" "InChIKey=FLCVGMVLNHYJAW-UHFFFAOYSA-N" "molecular formula=C19H18O7" "total exact mass=358.105252916" "SMILES=COC1=CC(=C2C(=C1)OC(=CC2=O)C3=CC(=C(C(=C3)OC)OC)OC)O"
Num Peaks: 38
 128 2.102102; 
 342 1.401401; 
 357 100.000000; 
 358 16.916917; 
 359 2.802803; 
 403 1.301301; 
 425 32.532533; 
 426 6.606607; 
 427 1.201201; 
 487 2.302302; 
 548 1.501502; 
 715 1.601602; 
 721 2.002002; 
 737 69.469469; 
 738 23.723724; 
 739 5.705706; 
 740 1.201201; 
 761 1.301301; 
 799 1.701702; 
 805 3.903904; 
 806 1.701702; 
 1073 1.701702; 
 1074 1.101101; 
 1095 2.102102; 
 1096 1.301301; 
 1111 1.901902; 
 1112 1.101101; 
 1117 8.208208; 
 1118 4.604605; 
 1119 1.701702; 
 1304 1.101101; 
 1305 1.201201; 
 1307 1.201201; 
 1469 2.302302; 
 1470 1.901902; 
 1494 1.101101; 
 1497 2.102102; 
 1498 1.901902; 


Name: Corymbosin
SYNON: $:00in-source
DB#: MetaboBASE0508
InChIKey: FLCVGMVLNHYJAW-UHFFFAOYSA-N
Precursor_type: [M-H]-
Spectrum_type: MS2
PrecursorMZ: 357
Instrument_type: LC-ESI-TOF
Instrument: impact HD
Ion_mode: N
Collision_energy: 50
InChIKey: FLCVGMVLNHYJAW-UHFFFAOYSA-N
Formula: C19H18O7
MW: 358
ExactMass: 358.105252916
Comments: "license=License CC-BY-NC-SA 4.0 International" "author=Plant Biology, The Noble Foundation, Ardmore, OK, US/Dennis Fine, Daniel Wherritt, and Lloyd Sumner" "instrument type=LC-ESI-TOF" "instrument=impact HD" "ionization=ESI" "ionization mode=negative" "ms level=MS2" "precursor m/z=357" "isolation width=5" "collision gas=Nitrogen" "collision energy=50" "peak width=0.018" "date=2014-07-26 12:05:45+02:00" "column=Waters Acquity BEH C18 1.7um x 2.1 x 150 mm" "retention time=1108.2" "raw data file=G:\Sumner Lab Data Management Workspace Jun2013\Projects\NSF-JST Metabolomics Nov2011-Sep2014\UPLC-MS-MSMS\Confirmed standards 24_July_2014\Corymbosin vial 260_1-C,3_01_500.d" "precursor type=[M-H]-" "mass accuracy=274.445142857124" "mass error=-0.09797691599999325" "SMILES=COC1=CC(=C2C(=C1)OC(=CC2=O)C3=CC(=C(C(=C3)OC)OC)OC)O" "InChI=InChI=1S/C19H18O7/c1-22-11-7-12(20)18-13(21)9-14(26-15(18)8-11)10-5-16(23-2)19(25-4)17(6-10)24-3/h5-9,20H,1-4H3" "InChIKey=FLCVGMVLNHYJAW-UHFFFAOYSA-N" "molecular formula=C19H18O7" "total exact mass=358.105252916" "SMILES=COC1=CC(=C2C(=C1)OC(=CC2=O)C3=CC(=C(C(=C3)OC)OC)OC)O"
Num Peaks: 34
 121 6.906907; 
 165 14.214214; 
 169 13.113113; 
 185 6.306306; 
 197 22.322322; 
 201 10.110110; 
 213 21.221221; 
 214 5.705706; 
 225 36.236236; 
 226 6.706707; 
 227 10.810811; 
 228 32.732733; 
 229 5.705706; 
 239 11.111111; 
 240 19.719720; 
 240 69.769770; 
 241 7.207207; 
 242 9.309309; 
 244 8.208208; 
 253 14.314314; 
 255 14.514515; 
 256 100.000000; 
 257 18.218218; 
 268 62.962963; 
 270 8.708709; 
 282 6.506507; 
 283 10.010010; 
 284 70.570571; 
 285 6.506507; 
 288 7.407407; 
 296 8.408408; 
 298 11.411411; 
 299 31.231231; 
 327 11.011011; 


Name: Corymbosin
SYNON: $:00in-source
DB#: MetaboBASE0509
InChIKey: FLCVGMVLNHYJAW-UHFFFAOYSA-N
Precursor_type: [M-H]-
Spectrum_type: MS2
PrecursorMZ: 357
Instrument_type: LC-ESI-TOF
Instrument: impact HD
Ion_mode: N
Collision_energy: 40
InChIKey: FLCVGMVLNHYJAW-UHFFFAOYSA-N
Formula: C19H18O7
MW: 358
ExactMass: 358.105252916
Comments: "license=License CC-BY-NC-SA 4.0 International" "author=Plant Biology, The Noble Foundation, Ardmore, OK, US/Dennis Fine, Daniel Wherritt, and Lloyd Sumner" "instrument type=LC-ESI-TOF" "instrument=impact HD" "ionization=ESI" "ionization mode=negative" "ms level=MS2" "precursor m/z=357" "isolation width=5" "collision gas=Nitrogen" "collision energy=40" "peak width=0.017" "date=2014-07-26 12:05:45+02:00" "column=Waters Acquity BEH C18 1.7um x 2.1 x 150 mm" "retention time=1108.2" "raw data file=G:\Sumner Lab Data Management Workspace Jun2013\Projects\NSF-JST Metabolomics Nov2011-Sep2014\UPLC-MS-MSMS\Confirmed standards 24_July_2014\Corymbosin vial 260_1-C,3_01_500.d" "precursor type=[M-H]-" "mass accuracy=274.445142857124" "mass error=-0.09797691599999325" "SMILES=COC1=CC(=C2C(=C1)OC(=CC2=O)C3=CC(=C(C(=C3)OC)OC)OC)O" "InChI=InChI=1S/C19H18O7/c1-22-11-7-12(20)18-13(21)9-14(26-15(18)8-11)10-5-16(23-2)19(25-4)17(6-10)24-3/h5-9,20H,1-4H3" "InChIKey=FLCVGMVLNHYJAW-UHFFFAOYSA-N" "molecular formula=C19H18O7" "total exact mass=358.105252916" "SMILES=COC1=CC(=C2C(=C1)OC(=CC2=O)C3=CC(=C(C(=C3)OC)OC)OC)O"
Num Peaks: 34
 165 10.910911; 
 197 7.707708; 
 225 8.608609; 
 228 4.504505; 
 239 4.604605; 
 240 11.211211; 
 241 22.922923; 
 241 4.104104; 
 244 8.308308; 
 252 6.906907; 
 255 5.105105; 
 256 40.940941; 
 257 5.405405; 
 268 3.703704; 
 268 30.930931; 
 269 3.903904; 
 269 3.703704; 
 270 5.205205; 
 271 4.504505; 
 283 11.211211; 
 284 81.381381; 
 285 10.810811; 
 288 4.204204; 
 296 5.305305; 
 298 10.210210; 
 299 100.000000; 
 300 14.014014; 
 312 10.110110; 
 313 3.303303; 
 326 4.704705; 
 327 58.058058; 
 328 11.111111; 
 1395 3.403403; 
 1396 3.403403; 


Name: Corymbosin
SYNON: $:00in-source
DB#: MetaboBASE0510
InChIKey: FLCVGMVLNHYJAW-UHFFFAOYSA-N
Precursor_type: [M-H]-
Spectrum_type: MS2
PrecursorMZ: 357.0917
Instrument_type: LC-ESI-TOF
Instrument: impact HD
Ion_mode: N
Collision_energy: 30
InChIKey: FLCVGMVLNHYJAW-UHFFFAOYSA-N
Formula: C19H18O7
MW: 358
ExactMass: 358.105252916
Comments: "license=License CC-BY-NC-SA 4.0 International" "author=Plant Biology, The Noble Foundation, Ardmore, OK, US/Dennis Fine, Daniel Wherritt, and Lloyd Sumner" "instrument type=LC-ESI-TOF" "instrument=impact HD" "ionization=ESI" "ionization mode=negative" "ms level=MS2" "precursor m/z=357.0917" "isolation width=5" "collision gas=Nitrogen" "collision energy=30" "peak width=0.017" "date=2014-07-26 12:05:45+02:00" "column=Waters Acquity BEH C18 1.7um x 2.1 x 150 mm" "retention time=1108.2" "raw data file=G:\Sumner Lab Data Management Workspace Jun2013\Projects\NSF-JST Metabolomics Nov2011-Sep2014\UPLC-MS-MSMS\Confirmed standards 24_July_2014\Corymbosin vial 260_1-C,3_01_500.d" "precursor type=[M-H]-" "mass accuracy=17.577882655884334" "mass error=-0.006276915999990251" "SMILES=COC1=CC(=C2C(=C1)OC(=CC2=O)C3=CC(=C(C(=C3)OC)OC)OC)O" "InChI=InChI=1S/C19H18O7/c1-22-11-7-12(20)18-13(21)9-14(26-15(18)8-11)10-5-16(23-2)19(25-4)17(6-10)24-3/h5-9,20H,1-4H3" "InChIKey=FLCVGMVLNHYJAW-UHFFFAOYSA-N" "molecular formula=C19H18O7" "total exact mass=358.105252916" "SMILES=COC1=CC(=C2C(=C1)OC(=CC2=O)C3=CC(=C(C(=C3)OC)OC)OC)O"
Num Peaks: 22
 165 2.302302; 
 240 2.902903; 
 241 2.302302; 
 256 3.803804; 
 268 1.401401; 
 268 2.202202; 
 270 1.501502; 
 284 14.014014; 
 285 1.401401; 
 297 3.303303; 
 298 2.802803; 
 299 31.431431; 
 300 6.106106; 
 312 3.903904; 
 313 3.203203; 
 314 1.701702; 
 327 100.000000; 
 328 18.718719; 
 341 6.306306; 
 342 16.816817; 
 343 3.803804; 
 357 3.303303; 


Name: Eriodictyol-7-neohesperidoside
SYNON: $:00in-source
DB#: MetaboBASE0511
InChIKey: OBKKEZLIABHSGY-DOYQYKRZSA-N
Precursor_type: [M-H]-
Spectrum_type: MS2
PrecursorMZ: 595.17
Instrument_type: LC-ESI-TOF
Instrument: impact HD
Ion_mode: N
Collision_energy: 50
InChIKey: OBKKEZLIABHSGY-DOYQYKRZSA-N
Formula: C27H32O15
MW: 596
ExactMass: 596.174120324
Comments: "license=License CC-BY-NC-SA 4.0 International" "author=Plant Biology, The Noble Foundation, Ardmore, OK, US/Dennis Fine, Daniel Wherritt, and Lloyd Sumner" "instrument type=LC-ESI-TOF" "instrument=impact HD" "ionization=ESI" "ionization mode=negative" "ms level=MS2" "precursor m/z=595.17" "isolation width=5" "collision gas=Nitrogen" "collision energy=50" "peak width=0.016" "date=2013-11-23 22:27:58+01:00" "column=Waters Acquity BEH C18 1.7um x 2.1 x 150 mm" "retention time=330.6" "raw data file=C:\Data\Confirmed Standards\Confirmed stds MSMS 22Nov13\Eriodictyol7neohesperido MSMS.d" "precursor type=[M-H]-" "mass accuracy=5.30214224508253" "mass error=0.0031556760000057693" "cas number=13241-32-2" "SMILES=C[C@H]1[C@@H]([C@H]([C@H]([C@@H](O1)O[C@@H]2[C@H]([C@@H]([C@H](O[C@H]2Oc3cc(c4c(c3)O[C@@H](CC4=O)c5ccc(c(c5)O)O)O)CO)O)O)O)O)O" "InChI=InChI=1S/C27H32O15/c1-9-20(33)22(35)24(37)26(38-9)42-25-23(36)21(34)18(8-28)41-27(25)39-11-5-14(31)19-15(32)7-16(40-17(19)6-11)10-2-3-12(29)13(30)4-10/h2-6,9,16,18,20-31,33-37H,7-8H2,1H3/t9-,16-,18+,20-,21+,22+,23-,24+,25+,26-,27+/m0/s1" "InChIKey=OBKKEZLIABHSGY-DOYQYKRZSA-N" "molecular formula=C27H32O15" "total exact mass=596.174120324" "SMILES=CC1C(C(C(C(O1)OC2C(C(C(OC2OC3=CC(=C4C(=O)CC(OC4=C3)C5=CC(=C(C=C5)O)O)O)CO)O)O)O)O)O" "InChI=InChI=1S/C27H32O15/c1-9-20(33)22(35)24(37)26(38-9)42-25-23(36)21(34)18(8-28)41-27(25)39-11-5-14(31)19-15(32)7-16(40-17(19)6-11)10-2-3-12(29)13(30)4-10/h2-6,9,16,18,20-31,33-37H,7-8H2,1H3" "InChIKey=OBKKEZLIABHSGY-UHFFFAOYSA-N"
Num Peaks: 11
 107 2.902903; 
 125 3.103103; 
 135 44.644645; 
 136 3.503504; 
 151 100.000000; 
 152 5.605606; 
 175 2.702703; 
 193 2.902903; 
 235 4.104104; 
 287 6.006006; 
 459 8.508509; 


Name: Eriodictyol-7-neohesperidoside
SYNON: $:00in-source
DB#: MetaboBASE0512
InChIKey: OBKKEZLIABHSGY-DOYQYKRZSA-N
Instrument_type: LC-ESI-TOF
Instrument: impact HD
Ion_mode: N
Collision_energy: 10
InChIKey: OBKKEZLIABHSGY-DOYQYKRZSA-N
Formula: C27H32O15
MW: 596
ExactMass: 596.174120324
Comments: "license=License CC-BY-NC-SA 4.0 International" "author=Plant Biology, The Noble Foundation, Ardmore, OK, US/Dennis Fine, Daniel Wherritt, and Lloyd Sumner" "instrument type=LC-ESI-TOF" "instrument=impact HD" "ionization=ESI" "ionization mode=negative" "collision gas=Nitrogen" "collision energy=10" "peak width=0.015" "date=2013-11-21 12:32:59+01:00" "column=Waters Acquity BEH C18 1.7um x 2.1 x 150 mm" "retention time=330.6" "raw data file=C:\Data\Confirmed Standards\Confirmed Stds 19Nov13\Eriodictyol7neohesperidos dil.d" "cas number=13241-32-2" "SMILES=C[C@H]1[C@@H]([C@H]([C@H]([C@@H](O1)O[C@@H]2[C@H]([C@@H]([C@H](O[C@H]2Oc3cc(c4c(c3)O[C@@H](CC4=O)c5ccc(c(c5)O)O)O)CO)O)O)O)O)O" "InChI=InChI=1S/C27H32O15/c1-9-20(33)22(35)24(37)26(38-9)42-25-23(36)21(34)18(8-28)41-27(25)39-11-5-14(31)19-15(32)7-16(40-17(19)6-11)10-2-3-12(29)13(30)4-10/h2-6,9,16,18,20-31,33-37H,7-8H2,1H3/t9-,16-,18+,20-,21+,22+,23-,24+,25+,26-,27+/m0/s1" "InChIKey=OBKKEZLIABHSGY-DOYQYKRZSA-N" "molecular formula=C27H32O15" "total exact mass=596.174120324" "SMILES=CC1C(C(C(C(O1)OC2C(C(C(OC2OC3=CC(=C4C(=O)CC(OC4=C3)C5=CC(=C(C=C5)O)O)O)CO)O)O)O)O)O" "InChI=InChI=1S/C27H32O15/c1-9-20(33)22(35)24(37)26(38-9)42-25-23(36)21(34)18(8-28)41-27(25)39-11-5-14(31)19-15(32)7-16(40-17(19)6-11)10-2-3-12(29)13(30)4-10/h2-6,9,16,18,20-31,33-37H,7-8H2,1H3" "InChIKey=OBKKEZLIABHSGY-UHFFFAOYSA-N"
Num Peaks: 12
 593 16.916917; 
 594 4.204204; 
 595 100.000000; 
 596 26.326326; 
 597 5.505506; 
 661 1.001001; 
 663 2.002002; 
 1189 2.902903; 
 1190 1.601602; 
 1191 7.707708; 
 1192 3.803804; 
 1193 1.301301; 


Name: Eriodictyol-7-neohesperidoside
SYNON: $:00in-source
DB#: MetaboBASE0513
InChIKey: OBKKEZLIABHSGY-DOYQYKRZSA-N
Precursor_type: [M-H]-
Spectrum_type: MS2
PrecursorMZ: 595.1684
Instrument_type: LC-ESI-TOF
Instrument: impact HD
Ion_mode: N
Collision_energy: 20
InChIKey: OBKKEZLIABHSGY-DOYQYKRZSA-N
Formula: C27H32O15
MW: 596
ExactMass: 596.174120324
Comments: "license=License CC-BY-NC-SA 4.0 International" "author=Plant Biology, The Noble Foundation, Ardmore, OK, US/Dennis Fine, Daniel Wherritt, and Lloyd Sumner" "instrument type=LC-ESI-TOF" "instrument=impact HD" "ionization=ESI" "ionization mode=negative" "ms level=MS2" "precursor m/z=595.1684" "isolation width=5" "collision gas=Nitrogen" "collision energy=20" "peak width=0.0087" "date=2013-11-23 22:27:58+01:00" "column=Waters Acquity BEH C18 1.7um x 2.1 x 150 mm" "retention time=330.6" "raw data file=C:\Data\Confirmed Standards\Confirmed stds MSMS 22Nov13\Eriodictyol7neohesperido MSMS.d" "precursor type=[M-H]-" "mass accuracy=2.6138417296118908" "mass error=0.0015556760000663417" "cas number=13241-32-2" "SMILES=C[C@H]1[C@@H]([C@H]([C@H]([C@@H](O1)O[C@@H]2[C@H]([C@@H]([C@H](O[C@H]2Oc3cc(c4c(c3)O[C@@H](CC4=O)c5ccc(c(c5)O)O)O)CO)O)O)O)O)O" "InChI=InChI=1S/C27H32O15/c1-9-20(33)22(35)24(37)26(38-9)42-25-23(36)21(34)18(8-28)41-27(25)39-11-5-14(31)19-15(32)7-16(40-17(19)6-11)10-2-3-12(29)13(30)4-10/h2-6,9,16,18,20-31,33-37H,7-8H2,1H3/t9-,16-,18+,20-,21+,22+,23-,24+,25+,26-,27+/m0/s1" "InChIKey=OBKKEZLIABHSGY-DOYQYKRZSA-N" "molecular formula=C27H32O15" "total exact mass=596.174120324" "SMILES=CC1C(C(C(C(O1)OC2C(C(C(OC2OC3=CC(=C4C(=O)CC(OC4=C3)C5=CC(=C(C=C5)O)O)O)CO)O)O)O)O)O" "InChI=InChI=1S/C27H32O15/c1-9-20(33)22(35)24(37)26(38-9)42-25-23(36)21(34)18(8-28)41-27(25)39-11-5-14(31)19-15(32)7-16(40-17(19)6-11)10-2-3-12(29)13(30)4-10/h2-6,9,16,18,20-31,33-37H,7-8H2,1H3" "InChIKey=OBKKEZLIABHSGY-UHFFFAOYSA-N"
Num Peaks: 9
 287 0.300300; 
 459 1.901902; 
 460 0.500501; 
 593 1.001001; 
 594 0.400400; 
 595 100.000000; 
 596 24.324324; 
 597 4.104104; 
 598 0.200200; 


Name: Eriodictyol-7-neohesperidoside
SYNON: $:00in-source
DB#: MetaboBASE0514
InChIKey: OBKKEZLIABHSGY-DOYQYKRZSA-N
Precursor_type: [M-H]-
Spectrum_type: MS2
PrecursorMZ: 595.1687
Instrument_type: LC-ESI-TOF
Instrument: impact HD
Ion_mode: N
Collision_energy: 10
InChIKey: OBKKEZLIABHSGY-DOYQYKRZSA-N
Formula: C27H32O15
MW: 596
ExactMass: 596.174120324
Comments: "license=License CC-BY-NC-SA 4.0 International" "author=Plant Biology, The Noble Foundation, Ardmore, OK, US/Dennis Fine, Daniel Wherritt, and Lloyd Sumner" "instrument type=LC-ESI-TOF" "instrument=impact HD" "ionization=ESI" "ionization mode=negative" "ms level=MS2" "precursor m/z=595.1687" "isolation width=5" "collision gas=Nitrogen" "collision energy=10" "peak width=0.009" "date=2013-11-23 22:27:58+01:00" "column=Waters Acquity BEH C18 1.7um x 2.1 x 150 mm" "retention time=330.6" "raw data file=C:\Data\Confirmed Standards\Confirmed stds MSMS 22Nov13\Eriodictyol7neohesperido MSMS.d" "precursor type=[M-H]-" "mass accuracy=3.1178991771426077" "mass error=0.0018556759999910355" "cas number=13241-32-2" "SMILES=C[C@H]1[C@@H]([C@H]([C@H]([C@@H](O1)O[C@@H]2[C@H]([C@@H]([C@H](O[C@H]2Oc3cc(c4c(c3)O[C@@H](CC4=O)c5ccc(c(c5)O)O)O)CO)O)O)O)O)O" "InChI=InChI=1S/C27H32O15/c1-9-20(33)22(35)24(37)26(38-9)42-25-23(36)21(34)18(8-28)41-27(25)39-11-5-14(31)19-15(32)7-16(40-17(19)6-11)10-2-3-12(29)13(30)4-10/h2-6,9,16,18,20-31,33-37H,7-8H2,1H3/t9-,16-,18+,20-,21+,22+,23-,24+,25+,26-,27+/m0/s1" "InChIKey=OBKKEZLIABHSGY-DOYQYKRZSA-N" "molecular formula=C27H32O15" "total exact mass=596.174120324" "SMILES=CC1C(C(C(C(O1)OC2C(C(C(OC2OC3=CC(=C4C(=O)CC(OC4=C3)C5=CC(=C(C=C5)O)O)O)CO)O)O)O)O)O" "InChI=InChI=1S/C27H32O15/c1-9-20(33)22(35)24(37)26(38-9)42-25-23(36)21(34)18(8-28)41-27(25)39-11-5-14(31)19-15(32)7-16(40-17(19)6-11)10-2-3-12(29)13(30)4-10/h2-6,9,16,18,20-31,33-37H,7-8H2,1H3" "InChIKey=OBKKEZLIABHSGY-UHFFFAOYSA-N"
Num Peaks: 10
 459 0.100100; 
 593 1.001001; 
 594 0.400400; 
 594 0.100100; 
 595 0.100100; 
 595 0.200200; 
 595 100.000000; 
 596 25.425425; 
 597 4.304304; 
 598 0.400400; 


Name: Eriodictyol-7-neohesperidoside
SYNON: $:00in-source
DB#: MetaboBASE0515
InChIKey: OBKKEZLIABHSGY-DOYQYKRZSA-N
Precursor_type: [M-H]-
Spectrum_type: MS2
PrecursorMZ: 595.1686
Instrument_type: LC-ESI-TOF
Instrument: impact HD
Ion_mode: N
Collision_energy: 30
InChIKey: OBKKEZLIABHSGY-DOYQYKRZSA-N
Formula: C27H32O15
MW: 596
ExactMass: 596.174120324
Comments: "license=License CC-BY-NC-SA 4.0 International" "author=Plant Biology, The Noble Foundation, Ardmore, OK, US/Dennis Fine, Daniel Wherritt, and Lloyd Sumner" "instrument type=LC-ESI-TOF" "instrument=impact HD" "ionization=ESI" "ionization mode=negative" "ms level=MS2" "precursor m/z=595.1686" "isolation width=5" "collision gas=Nitrogen" "collision energy=30" "peak width=0.011" "date=2013-11-23 22:27:58+01:00" "column=Waters Acquity BEH C18 1.7um x 2.1 x 150 mm" "retention time=330.6" "raw data file=C:\Data\Confirmed Standards\Confirmed stds MSMS 22Nov13\Eriodictyol7neohesperido MSMS.d" "precursor type=[M-H]-" "mass accuracy=2.949880084426728" "mass error=0.0017556760000161376" "cas number=13241-32-2" "SMILES=C[C@H]1[C@@H]([C@H]([C@H]([C@@H](O1)O[C@@H]2[C@H]([C@@H]([C@H](O[C@H]2Oc3cc(c4c(c3)O[C@@H](CC4=O)c5ccc(c(c5)O)O)O)CO)O)O)O)O)O" "InChI=InChI=1S/C27H32O15/c1-9-20(33)22(35)24(37)26(38-9)42-25-23(36)21(34)18(8-28)41-27(25)39-11-5-14(31)19-15(32)7-16(40-17(19)6-11)10-2-3-12(29)13(30)4-10/h2-6,9,16,18,20-31,33-37H,7-8H2,1H3/t9-,16-,18+,20-,21+,22+,23-,24+,25+,26-,27+/m0/s1" "InChIKey=OBKKEZLIABHSGY-DOYQYKRZSA-N" "molecular formula=C27H32O15" "total exact mass=596.174120324" "SMILES=CC1C(C(C(C(O1)OC2C(C(C(OC2OC3=CC(=C4C(=O)CC(OC4=C3)C5=CC(=C(C=C5)O)O)O)CO)O)O)O)O)O" "InChI=InChI=1S/C27H32O15/c1-9-20(33)22(35)24(37)26(38-9)42-25-23(36)21(34)18(8-28)41-27(25)39-11-5-14(31)19-15(32)7-16(40-17(19)6-11)10-2-3-12(29)13(30)4-10/h2-6,9,16,18,20-31,33-37H,7-8H2,1H3" "InChIKey=OBKKEZLIABHSGY-UHFFFAOYSA-N"
Num Peaks: 39
 135 1.201201; 
 151 2.302302; 
 161 0.300300; 
 193 0.200200; 
 223 0.300300; 
 235 2.002002; 
 236 0.400400; 
 253 0.500501; 
 271 0.200200; 
 285 0.300300; 
 286 0.200200; 
 287 5.005005; 
 288 0.600601; 
 295 0.200200; 
 297 0.200200; 
 329 0.500501; 
 339 1.101101; 
 340 0.300300; 
 357 0.200200; 
 389 0.200200; 
 429 0.200200; 
 433 0.200200; 
 441 0.500501; 
 449 0.300300; 
 459 52.552553; 
 460 9.309309; 
 461 1.201201; 
 462 0.200200; 
 475 0.300300; 
 476 0.200200; 
 477 0.200200; 
 577 0.400400; 
 578 0.200200; 
 593 1.001001; 
 594 0.500501; 
 595 100.000000; 
 596 21.921922; 
 597 3.903904; 
 598 0.300300; 


Name: Eriodictyol-7-neohesperidoside
SYNON: $:00in-source
DB#: MetaboBASE0516
InChIKey: OBKKEZLIABHSGY-DOYQYKRZSA-N
Instrument_type: LC-ESI-TOF
Instrument: impact HD
Ion_mode: N
InChIKey: OBKKEZLIABHSGY-DOYQYKRZSA-N
Formula: C27H32O15
MW: 596
ExactMass: 596.174120324
Comments: "license=License CC-BY-NC-SA 4.0 International" "author=Plant Biology, The Noble Foundation, Ardmore, OK, US/Dennis Fine, Daniel Wherritt, and Lloyd Sumner" "instrument type=LC-ESI-TOF" "instrument=impact HD" "ionization=ESI" "ionization mode=negative" "collision gas=Nitrogen" "peak width=0.013" "date=2013-11-23 22:27:58+01:00" "column=Waters Acquity BEH C18 1.7um x 2.1 x 150 mm" "retention time=330.6" "raw data file=C:\Data\Confirmed Standards\Confirmed stds MSMS 22Nov13\Eriodictyol7neohesperido MSMS.d" "cas number=13241-32-2" "SMILES=C[C@H]1[C@@H]([C@H]([C@H]([C@@H](O1)O[C@@H]2[C@H]([C@@H]([C@H](O[C@H]2Oc3cc(c4c(c3)O[C@@H](CC4=O)c5ccc(c(c5)O)O)O)CO)O)O)O)O)O" "InChI=InChI=1S/C27H32O15/c1-9-20(33)22(35)24(37)26(38-9)42-25-23(36)21(34)18(8-28)41-27(25)39-11-5-14(31)19-15(32)7-16(40-17(19)6-11)10-2-3-12(29)13(30)4-10/h2-6,9,16,18,20-31,33-37H,7-8H2,1H3/t9-,16-,18+,20-,21+,22+,23-,24+,25+,26-,27+/m0/s1" "InChIKey=OBKKEZLIABHSGY-DOYQYKRZSA-N" "molecular formula=C27H32O15" "total exact mass=596.174120324" "SMILES=CC1C(C(C(C(O1)OC2C(C(C(OC2OC3=CC(=C4C(=O)CC(OC4=C3)C5=CC(=C(C=C5)O)O)O)CO)O)O)O)O)O" "InChI=InChI=1S/C27H32O15/c1-9-20(33)22(35)24(37)26(38-9)42-25-23(36)21(34)18(8-28)41-27(25)39-11-5-14(31)19-15(32)7-16(40-17(19)6-11)10-2-3-12(29)13(30)4-10/h2-6,9,16,18,20-31,33-37H,7-8H2,1H3" "InChIKey=OBKKEZLIABHSGY-UHFFFAOYSA-N"
Num Peaks: 18
 593 13.213213; 
 594 3.103103; 
 595 100.000000; 
 596 24.124124; 
 597 5.005005; 
 598 0.700701; 
 639 5.505506; 
 640 1.601602; 
 661 1.001001; 
 663 2.202202; 
 1189 3.903904; 
 1190 3.403403; 
 1190 1.201201; 
 1191 8.808809; 
 1191 1.601602; 
 1192 4.604605; 
 1193 1.401401; 
 1489 0.700701; 


Name: Eriodictyol-7-neohesperidoside
SYNON: $:00in-source
DB#: MetaboBASE0517
InChIKey: OBKKEZLIABHSGY-DOYQYKRZSA-N
Precursor_type: [M-H]-
Spectrum_type: MS2
PrecursorMZ: 595.1677
Instrument_type: LC-ESI-TOF
Instrument: impact HD
Ion_mode: N
Collision_energy: 40
InChIKey: OBKKEZLIABHSGY-DOYQYKRZSA-N
Formula: C27H32O15
MW: 596
ExactMass: 596.174120324
Comments: "license=License CC-BY-NC-SA 4.0 International" "author=Plant Biology, The Noble Foundation, Ardmore, OK, US/Dennis Fine, Daniel Wherritt, and Lloyd Sumner" "instrument type=LC-ESI-TOF" "instrument=impact HD" "ionization=ESI" "ionization mode=negative" "ms level=MS2" "precursor m/z=595.1677" "isolation width=5" "collision gas=Nitrogen" "collision energy=40" "peak width=0.014" "date=2013-11-23 22:27:58+01:00" "column=Waters Acquity BEH C18 1.7um x 2.1 x 150 mm" "retention time=330.6" "raw data file=C:\Data\Confirmed Standards\Confirmed stds MSMS 22Nov13\Eriodictyol7neohesperido MSMS.d" "precursor type=[M-H]-" "mass accuracy=1.4377057088526182" "mass error=8.556760000146824E-4" "cas number=13241-32-2" "SMILES=C[C@H]1[C@@H]([C@H]([C@H]([C@@H](O1)O[C@@H]2[C@H]([C@@H]([C@H](O[C@H]2Oc3cc(c4c(c3)O[C@@H](CC4=O)c5ccc(c(c5)O)O)O)CO)O)O)O)O)O" "InChI=InChI=1S/C27H32O15/c1-9-20(33)22(35)24(37)26(38-9)42-25-23(36)21(34)18(8-28)41-27(25)39-11-5-14(31)19-15(32)7-16(40-17(19)6-11)10-2-3-12(29)13(30)4-10/h2-6,9,16,18,20-31,33-37H,7-8H2,1H3/t9-,16-,18+,20-,21+,22+,23-,24+,25+,26-,27+/m0/s1" "InChIKey=OBKKEZLIABHSGY-DOYQYKRZSA-N" "molecular formula=C27H32O15" "total exact mass=596.174120324" "SMILES=CC1C(C(C(C(O1)OC2C(C(C(OC2OC3=CC(=C4C(=O)CC(OC4=C3)C5=CC(=C(C=C5)O)O)O)CO)O)O)O)O)O" "InChI=InChI=1S/C27H32O15/c1-9-20(33)22(35)24(37)26(38-9)42-25-23(36)21(34)18(8-28)41-27(25)39-11-5-14(31)19-15(32)7-16(40-17(19)6-11)10-2-3-12(29)13(30)4-10/h2-6,9,16,18,20-31,33-37H,7-8H2,1H3" "InChIKey=OBKKEZLIABHSGY-UHFFFAOYSA-N"
Num Peaks: 12
 135 20.820821; 
 151 58.958959; 
 152 3.803804; 
 235 16.216216; 
 287 18.918919; 
 288 4.404404; 
 339 9.509510; 
 459 100.000000; 
 460 15.615616; 
 461 3.303303; 
 595 26.026026; 
 596 5.405405; 


Name: Farrerol
SYNON: $:00in-source
DB#: MetaboBASE0518
InChIKey: DYHOLQACRGJEHX-UHFFFAOYSA-N
Instrument_type: LC-ESI-TOF
Instrument: impact HD
Ion_mode: N
Collision_energy: 10
InChIKey: DYHOLQACRGJEHX-UHFFFAOYSA-N
Formula: C17H16O5
MW: 300
ExactMass: 300.09977361200004
Comments: "license=License CC-BY-NC-SA 4.0 International" "author=Plant Biology, The Noble Foundation, Ardmore, OK, US/Dennis Fine, Daniel Wherritt, and Lloyd Sumner" "instrument type=LC-ESI-TOF" "instrument=impact HD" "ionization=ESI" "ionization mode=negative" "collision gas=Nitrogen" "collision energy=10" "peak width=0.017" "date=2013-11-21 11:52:14+01:00" "column=Waters Acquity BEH C18 1.7um x 2.1 x 150 mm" "retention time=795.6" "raw data file=C:\Data\Confirmed Standards\Confirmed Stds 19Nov13\Farrerol (vial 282) dil.d" "cas number=24211-30-1" "SMILES=Cc1c(c(c2c(c1O)C(=O)CC(O2)c3ccc(cc3)O)C)O" "InChI=InChI=1S/C17H16O5/c1-8-15(20)9(2)17-14(16(8)21)12(19)7-13(22-17)10-3-5-11(18)6-4-10/h3-6,13,18,20-21H,7H2,1-2H3" "InChIKey=DYHOLQACRGJEHX-UHFFFAOYSA-N" "molecular formula=C17H16O5" "total exact mass=300.09977361200004" "SMILES=CC1=C(C2=C(C(=C1O)C)OC(CC2=O)C3=CC=C(C=C3)O)O"
Num Peaks: 3
 299 100.000000; 
 300 18.218218; 
 301 1.901902; 


Name: Farrerol
SYNON: $:00in-source
DB#: MetaboBASE0519
InChIKey: DYHOLQACRGJEHX-UHFFFAOYSA-N
Precursor_type: [M-H]-
Spectrum_type: MS2
PrecursorMZ: 299.0929
Instrument_type: LC-ESI-TOF
Instrument: impact HD
Ion_mode: N
Collision_energy: 10
InChIKey: DYHOLQACRGJEHX-UHFFFAOYSA-N
Formula: C17H16O5
MW: 300
ExactMass: 300.099773612
Comments: "license=License CC-BY-NC-SA 4.0 International" "author=Plant Biology, The Noble Foundation, Ardmore, OK, US/Dennis Fine, Daniel Wherritt, and Lloyd Sumner" "instrument type=LC-ESI-TOF" "instrument=impact HD" "ionization=ESI" "ionization mode=negative" "ms level=MS2" "precursor m/z=299.0929" "isolation width=5" "collision gas=Nitrogen" "collision energy=10" "peak width=0.01" "date=2013-11-23 20:25:46+01:00" "column=Waters Acquity BEH C18 1.7um x 2.1 x 150 mm" "retention time=795.6" "raw data file=C:\Data\Confirmed Standards\Confirmed stds MSMS 22Nov13\Farrerol (vial 282) MSMS.d" "precursor type=[M-H]-" "mass accuracy=1.3453612573140314" "mass error=4.023879999976998E-4" "cas number=24211-30-1" "SMILES=Cc1c(c(c2c(c1O)C(=O)CC(O2)c3ccc(cc3)O)C)O" "InChI=InChI=1S/C17H16O5/c1-8-15(20)9(2)17-14(16(8)21)12(19)7-13(22-17)10-3-5-11(18)6-4-10/h3-6,13,18,20-21H,7H2,1-2H3" "InChIKey=DYHOLQACRGJEHX-UHFFFAOYSA-N" "molecular formula=C17H16O5" "total exact mass=300.099773612" "SMILES=CC1=C(C2=C(C(=C1O)C)OC(CC2=O)C3=CC=C(C=C3)O)O"
Num Peaks: 5
 119 0.100100; 
 179 0.400400; 
 299 100.000000; 
 300 12.712713; 
 301 1.301301; 


Name: Farrerol
SYNON: $:00in-source
DB#: MetaboBASE0520
InChIKey: DYHOLQACRGJEHX-UHFFFAOYSA-N
Precursor_type: [M-H]-
Spectrum_type: MS2
PrecursorMZ: 299.0926
Instrument_type: LC-ESI-TOF
Instrument: impact HD
Ion_mode: N
Collision_energy: 20
InChIKey: DYHOLQACRGJEHX-UHFFFAOYSA-N
Formula: C17H16O5
MW: 300
ExactMass: 300.099773612
Comments: "license=License CC-BY-NC-SA 4.0 International" "author=Plant Biology, The Noble Foundation, Ardmore, OK, US/Dennis Fine, Daniel Wherritt, and Lloyd Sumner" "instrument type=LC-ESI-TOF" "instrument=impact HD" "ionization=ESI" "ionization mode=negative" "ms level=MS2" "precursor m/z=299.0926" "isolation width=5" "collision gas=Nitrogen" "collision energy=20" "peak width=0.016" "date=2013-11-23 20:25:46+01:00" "column=Waters Acquity BEH C18 1.7um x 2.1 x 150 mm" "retention time=795.6" "raw data file=C:\Data\Confirmed Standards\Confirmed stds MSMS 22Nov13\Farrerol (vial 282) MSMS.d" "precursor type=[M-H]-" "mass accuracy=0.34232876378807947" "mass error=1.0238800001616255E-4" "cas number=24211-30-1" "SMILES=Cc1c(c(c2c(c1O)C(=O)CC(O2)c3ccc(cc3)O)C)O" "InChI=InChI=1S/C17H16O5/c1-8-15(20)9(2)17-14(16(8)21)12(19)7-13(22-17)10-3-5-11(18)6-4-10/h3-6,13,18,20-21H,7H2,1-2H3" "InChIKey=DYHOLQACRGJEHX-UHFFFAOYSA-N" "molecular formula=C17H16O5" "total exact mass=300.099773612" "SMILES=CC1=C(C2=C(C(=C1O)C)OC(CC2=O)C3=CC=C(C=C3)O)O"
Num Peaks: 21
 111 0.600601; 
 119 15.515516; 
 120 1.001001; 
 135 6.506507; 
 136 0.500501; 
 145 0.700701; 
 151 0.900901; 
 153 0.600601; 
 179 44.244244; 
 180 2.902903; 
 181 0.200200; 
 193 2.102102; 
 197 0.500501; 
 205 2.402402; 
 206 0.300300; 
 255 0.400400; 
 257 0.800801; 
 281 0.400400; 
 299 100.000000; 
 300 11.211211; 
 301 1.301301; 


Name: Farrerol
SYNON: $:00in-source
DB#: MetaboBASE0521
InChIKey: DYHOLQACRGJEHX-UHFFFAOYSA-N
Instrument_type: LC-ESI-TOF
Instrument: impact HD
Ion_mode: N
InChIKey: DYHOLQACRGJEHX-UHFFFAOYSA-N
Formula: C17H16O5
MW: 300
ExactMass: 300.099773612
Comments: "license=License CC-BY-NC-SA 4.0 International" "author=Plant Biology, The Noble Foundation, Ardmore, OK, US/Dennis Fine, Daniel Wherritt, and Lloyd Sumner" "instrument type=LC-ESI-TOF" "instrument=impact HD" "ionization=ESI" "ionization mode=negative" "collision gas=Nitrogen" "peak width=0.016" "date=2013-11-23 20:25:46+01:00" "column=Waters Acquity BEH C18 1.7um x 2.1 x 150 mm" "retention time=795.6" "raw data file=C:\Data\Confirmed Standards\Confirmed stds MSMS 22Nov13\Farrerol (vial 282) MSMS.d" "cas number=24211-30-1" "SMILES=Cc1c(c(c2c(c1O)C(=O)CC(O2)c3ccc(cc3)O)C)O" "InChI=InChI=1S/C17H16O5/c1-8-15(20)9(2)17-14(16(8)21)12(19)7-13(22-17)10-3-5-11(18)6-4-10/h3-6,13,18,20-21H,7H2,1-2H3" "InChIKey=DYHOLQACRGJEHX-UHFFFAOYSA-N" "molecular formula=C17H16O5" "total exact mass=300.099773612" "SMILES=CC1=C(C2=C(C(=C1O)C)OC(CC2=O)C3=CC=C(C=C3)O)O"
Num Peaks: 13
 297 0.300300; 
 299 100.000000; 
 300 20.720721; 
 301 2.002002; 
 302 0.200200; 
 367 0.800801; 
 368 0.100100; 
 599 3.903904; 
 600 1.301301; 
 601 0.300300; 
 621 0.800801; 
 622 0.200200; 
 683 0.100100; 


Name: Farrerol
SYNON: $:00in-source
DB#: MetaboBASE0522
InChIKey: DYHOLQACRGJEHX-UHFFFAOYSA-N
Precursor_type: [M-H]-
Spectrum_type: MS2
PrecursorMZ: 299.09
Instrument_type: LC-ESI-TOF
Instrument: impact HD
Ion_mode: N
Collision_energy: 40
InChIKey: DYHOLQACRGJEHX-UHFFFAOYSA-N
Formula: C17H16O5
MW: 300
ExactMass: 300.099773612
Comments: "license=License CC-BY-NC-SA 4.0 International" "author=Plant Biology, The Noble Foundation, Ardmore, OK, US/Dennis Fine, Daniel Wherritt, and Lloyd Sumner" "instrument type=LC-ESI-TOF" "instrument=impact HD" "ionization=ESI" "ionization mode=negative" "ms level=MS2" "precursor m/z=299.09" "isolation width=5" "collision gas=Nitrogen" "collision energy=40" "peak width=0.018" "date=2013-11-23 20:25:46+01:00" "column=Waters Acquity BEH C18 1.7um x 2.1 x 150 mm" "retention time=795.6" "raw data file=C:\Data\Confirmed Standards\Confirmed stds MSMS 22Nov13\Farrerol (vial 282) MSMS.d" "precursor type=[M-H]-" "mass accuracy=8.350703801575797" "mass error=-0.002497612000013305" "cas number=24211-30-1" "SMILES=Cc1c(c(c2c(c1O)C(=O)CC(O2)c3ccc(cc3)O)C)O" "InChI=InChI=1S/C17H16O5/c1-8-15(20)9(2)17-14(16(8)21)12(19)7-13(22-17)10-3-5-11(18)6-4-10/h3-6,13,18,20-21H,7H2,1-2H3" "InChIKey=DYHOLQACRGJEHX-UHFFFAOYSA-N" "molecular formula=C17H16O5" "total exact mass=300.099773612" "SMILES=CC1=C(C2=C(C(=C1O)C)OC(CC2=O)C3=CC=C(C=C3)O)O"
Num Peaks: 13
 111 6.506507; 
 117 2.802803; 
 119 100.000000; 
 120 5.705706; 
 123 5.405405; 
 135 16.416416; 
 136 1.501502; 
 145 1.901902; 
 151 5.605606; 
 165 3.303303; 
 179 6.006006; 
 193 2.102102; 
 229 1.601602; 


Name: Farrerol
SYNON: $:00in-source
DB#: MetaboBASE0523
InChIKey: DYHOLQACRGJEHX-UHFFFAOYSA-N
Precursor_type: [M-H]-
Spectrum_type: MS2
PrecursorMZ: 299.0928
Instrument_type: LC-ESI-TOF
Instrument: impact HD
Ion_mode: N
Collision_energy: 30
InChIKey: DYHOLQACRGJEHX-UHFFFAOYSA-N
Formula: C17H16O5
MW: 300
ExactMass: 300.099773612
Comments: "license=License CC-BY-NC-SA 4.0 International" "author=Plant Biology, The Noble Foundation, Ardmore, OK, US/Dennis Fine, Daniel Wherritt, and Lloyd Sumner" "instrument type=LC-ESI-TOF" "instrument=impact HD" "ionization=ESI" "ionization mode=negative" "ms level=MS2" "precursor m/z=299.0928" "isolation width=5" "collision gas=Nitrogen" "collision energy=30" "peak width=0.015" "date=2013-11-23 20:25:46+01:00" "column=Waters Acquity BEH C18 1.7um x 2.1 x 150 mm" "retention time=795.6" "raw data file=C:\Data\Confirmed Standards\Confirmed stds MSMS 22Nov13\Farrerol (vial 282) MSMS.d" "precursor type=[M-H]-" "mass accuracy=1.0110173164409235" "mass error=3.0238800002280186E-4" "cas number=24211-30-1" "SMILES=Cc1c(c(c2c(c1O)C(=O)CC(O2)c3ccc(cc3)O)C)O" "InChI=InChI=1S/C17H16O5/c1-8-15(20)9(2)17-14(16(8)21)12(19)7-13(22-17)10-3-5-11(18)6-4-10/h3-6,13,18,20-21H,7H2,1-2H3" "InChIKey=DYHOLQACRGJEHX-UHFFFAOYSA-N" "molecular formula=C17H16O5" "total exact mass=300.099773612" "SMILES=CC1=C(C2=C(C(=C1O)C)OC(CC2=O)C3=CC=C(C=C3)O)O"
Num Peaks: 19
 111 6.406406; 
 119 100.000000; 
 120 6.406406; 
 121 0.900901; 
 123 1.801802; 
 135 35.235235; 
 136 2.402402; 
 145 2.402402; 
 151 7.107107; 
 161 1.001001; 
 164 0.800801; 
 165 2.402402; 
 179 48.648649; 
 180 3.103103; 
 193 7.907908; 
 205 3.103103; 
 229 1.101101; 
 257 1.901902; 
 299 5.305305; 


Name: Zapotinin
SYNON: $:00in-source
DB#: MetaboBASE0524
InChIKey: BFXYIQRRGIMMSR-UHFFFAOYSA-N
Instrument_type: LC-ESI-TOF
Instrument: impact HD
Ion_mode: N
Collision_energy: 10
InChIKey: BFXYIQRRGIMMSR-UHFFFAOYSA-N
Formula: C18H16O6
MW: 328
ExactMass: 328.09468823199995
Comments: "license=License CC-BY-NC-SA 4.0 International" "author=Plant Biology, The Noble Foundation, Ardmore, OK, US/Dennis Fine, Daniel Wherritt, and Lloyd Sumner" "instrument type=LC-ESI-TOF" "instrument=impact HD" "ionization=ESI" "ionization mode=negative" "collision gas=Nitrogen" "collision energy=10" "peak width=0.016" "date=2013-11-21 10:30:41+01:00" "column=Waters Acquity BEH C18 1.7um x 2.1 x 150 mm" "retention time=1012.8" "raw data file=C:\Data\Confirmed Standards\Confirmed Stds 19Nov13\Zapotinin (v275) 3 uL.d" "SMILES=COc1cccc(c1c2cc(=O)c3c(o2)ccc(c3O)OC)OC" "InChI=InChI=1S/C18H16O6/c1-21-11-5-4-6-12(22-2)17(11)15-9-10(19)16-13(24-15)7-8-14(23-3)18(16)20/h4-9,20H,1-3H3" "InChIKey=BFXYIQRRGIMMSR-UHFFFAOYSA-N" "molecular formula=C18H16O6" "total exact mass=328.09468823199995" "SMILES=COC1=C(C(=CC=C1)OC)C2=CC(=O)C3=C(O2)C=CC(=C3O)OC"
Num Peaks: 49
 112 3.203203; 
 116 2.502503; 
 128 4.404404; 
 255 1.101101; 
 292 1.201201; 
 304 1.101101; 
 312 32.832833; 
 313 5.805806; 
 314 1.501502; 
 327 100.000000; 
 328 16.716717; 
 329 2.802803; 
 342 1.701702; 
 385 1.001001; 
 395 28.728729; 
 396 5.605606; 
 397 1.101101; 
 457 4.104104; 
 463 1.201201; 
 557 1.101101; 
 653 2.602603; 
 661 6.306306; 
 662 2.602603; 
 677 97.997998; 
 678 32.932933; 
 679 7.707708; 
 680 1.901902; 
 739 3.203203; 
 740 1.401401; 
 745 7.207207; 
 746 3.103103; 
 747 1.101101; 
 807 1.301301; 
 1021 5.605606; 
 1022 3.103103; 
 1023 1.301301; 
 1027 13.213213; 
 1028 7.407407; 
 1029 2.402402; 
 1089 2.702703; 
 1090 1.501502; 
 1095 1.901902; 
 1096 1.301301; 
 1371 2.702703; 
 1372 1.901902; 
 1377 2.802803; 
 1378 2.102102; 
 1379 1.201201; 
 1445 2.302302; 


Name: 3',4'-Dihydroxyflavone
SYNON: $:00in-source
DB#: MetaboBASE0525
InChIKey: SRNPMQHYWVKBAV-UHFFFAOYSA-N
Precursor_type: [M-H]-
Spectrum_type: MS2
PrecursorMZ: 253.05
Instrument_type: LC-ESI-TOF
Instrument: impact HD
Ion_mode: N
Collision_energy: 50
InChIKey: SRNPMQHYWVKBAV-UHFFFAOYSA-N
Formula: C15H10O4
MW: 254
ExactMass: 254.0579088
Comments: "license=License CC-BY-NC-SA 4.0 International" "author=Plant Biology, The Noble Foundation, Ardmore, OK, US/Dennis Fine, Daniel Wherritt, and Lloyd Sumner" "instrument type=LC-ESI-TOF" "instrument=impact HD" "ionization=ESI" "ionization mode=negative" "ms level=MS2" "precursor m/z=253.05" "isolation width=5" "collision gas=Nitrogen" "collision energy=50" "peak width=0.016" "date=2013-11-23 10:55:03+01:00" "column=Waters Acquity BEH C18 1.7um x 2.1 x 150 mm" "retention time=553.2" "raw data file=C:\Data\Confirmed Standards\Confirmed stds MSMS 22Nov13\3'4-Dihydroxyflavone  MSMS.d" "precursor type=[M-H]-" "mass accuracy=2.500691562953242" "mass error=-6.32800000005318E-4" "cas number=4143-64-0" "SMILES=c1ccc2c(c1)c(=O)cc(o2)c3ccc(c(c3)O)O" "InChI=InChI=1S/C15H10O4/c16-11-6-5-9(7-13(11)18)15-8-12(17)10-3-1-2-4-14(10)19-15/h1-8,16,18H" "InChIKey=SRNPMQHYWVKBAV-UHFFFAOYSA-N" "molecular formula=C15H10O4" "total exact mass=254.0579088" "SMILES=C1=CC=C2C(=C1)C(=O)C=C(O2)C3=CC(=C(C=C3)O)O"
Num Peaks: 5
 104 4.104104; 
 115 12.812813; 
 132 45.045045; 
 133 100.000000; 
 134 8.608609; 


Name: 3',4'-Dihydroxyflavone
SYNON: $:00in-source
DB#: MetaboBASE0526
InChIKey: SRNPMQHYWVKBAV-UHFFFAOYSA-N
Precursor_type: [M-H]-
Spectrum_type: MS2
PrecursorMZ: 253.05
Instrument_type: LC-ESI-TOF
Instrument: impact HD
Ion_mode: N
Collision_energy: 40
InChIKey: SRNPMQHYWVKBAV-UHFFFAOYSA-N
Formula: C15H10O4
MW: 254
ExactMass: 254.0579088
Comments: "license=License CC-BY-NC-SA 4.0 International" "author=Plant Biology, The Noble Foundation, Ardmore, OK, US/Dennis Fine, Daniel Wherritt, and Lloyd Sumner" "instrument type=LC-ESI-TOF" "instrument=impact HD" "ionization=ESI" "ionization mode=negative" "ms level=MS2" "precursor m/z=253.05" "isolation width=5" "collision gas=Nitrogen" "collision energy=40" "peak width=0.015" "date=2013-11-23 10:55:03+01:00" "column=Waters Acquity BEH C18 1.7um x 2.1 x 150 mm" "retention time=553.2" "raw data file=C:\Data\Confirmed Standards\Confirmed stds MSMS 22Nov13\3'4-Dihydroxyflavone  MSMS.d" "precursor type=[M-H]-" "mass accuracy=2.500691562953242" "mass error=-6.32800000005318E-4" "cas number=4143-64-0" "SMILES=c1ccc2c(c1)c(=O)cc(o2)c3ccc(c(c3)O)O" "InChI=InChI=1S/C15H10O4/c16-11-6-5-9(7-13(11)18)15-8-12(17)10-3-1-2-4-14(10)19-15/h1-8,16,18H" "InChIKey=SRNPMQHYWVKBAV-UHFFFAOYSA-N" "molecular formula=C15H10O4" "total exact mass=254.0579088" "SMILES=C1=CC=C2C(=C1)C(=O)C=C(O2)C3=CC(=C(C=C3)O)O"
Num Peaks: 7
 115 2.702703; 
 117 4.904905; 
 132 15.315315; 
 133 100.000000; 
 134 6.906907; 
 135 1.301301; 
 225 1.001001; 


Name: 3',4'-Dihydroxyflavone
SYNON: $:00in-source
DB#: MetaboBASE0527
InChIKey: SRNPMQHYWVKBAV-UHFFFAOYSA-N
Instrument_type: LC-ESI-TOF
Instrument: impact HD
Ion_mode: N
Collision_energy: 10
InChIKey: SRNPMQHYWVKBAV-UHFFFAOYSA-N
Formula: C15H10O4
MW: 254
ExactMass: 254.0579088
Comments: "license=License CC-BY-NC-SA 4.0 International" "author=Plant Biology, The Noble Foundation, Ardmore, OK, US/Dennis Fine, Daniel Wherritt, and Lloyd Sumner" "instrument type=LC-ESI-TOF" "instrument=impact HD" "ionization=ESI" "ionization mode=negative" "collision gas=Nitrogen" "collision energy=10" "peak width=0.012" "date=2013-11-21 09:09:03+01:00" "column=Waters Acquity BEH C18 1.7um x 2.1 x 150 mm" "retention time=553.2" "raw data file=C:\Data\Confirmed Standards\Confirmed Stds 19Nov13\3'4-Dihydroxyflavone dil.d" "cas number=4143-64-0" "SMILES=c1ccc2c(c1)c(=O)cc(o2)c3ccc(c(c3)O)O" "InChI=InChI=1S/C15H10O4/c16-11-6-5-9(7-13(11)18)15-8-12(17)10-3-1-2-4-14(10)19-15/h1-8,16,18H" "InChIKey=SRNPMQHYWVKBAV-UHFFFAOYSA-N" "molecular formula=C15H10O4" "total exact mass=254.0579088" "SMILES=C1=CC=C2C(=C1)C(=O)C=C(O2)C3=CC(=C(C=C3)O)O"
Num Peaks: 4
 253 100.000000; 
 254 12.812813; 
 255 1.201201; 
 529 1.501502; 


Name: 3',4'-Dihydroxyflavone
SYNON: $:00in-source
DB#: MetaboBASE0528
InChIKey: SRNPMQHYWVKBAV-UHFFFAOYSA-N
Precursor_type: [M-H]-
Spectrum_type: MS2
PrecursorMZ: 253.0509
Instrument_type: LC-ESI-TOF
Instrument: impact HD
Ion_mode: N
Collision_energy: 30
InChIKey: SRNPMQHYWVKBAV-UHFFFAOYSA-N
Formula: C15H10O4
MW: 254
ExactMass: 254.0579088
Comments: "license=License CC-BY-NC-SA 4.0 International" "author=Plant Biology, The Noble Foundation, Ardmore, OK, US/Dennis Fine, Daniel Wherritt, and Lloyd Sumner" "instrument type=LC-ESI-TOF" "instrument=impact HD" "ionization=ESI" "ionization mode=negative" "ms level=MS2" "precursor m/z=253.0509" "isolation width=5" "collision gas=Nitrogen" "collision energy=30" "peak width=0.016" "date=2013-11-23 10:55:03+01:00" "column=Waters Acquity BEH C18 1.7um x 2.1 x 150 mm" "retention time=553.2" "raw data file=C:\Data\Confirmed Standards\Confirmed stds MSMS 22Nov13\3'4-Dihydroxyflavone  MSMS.d" "precursor type=[M-H]-" "mass accuracy=1.0559140473167146" "mass error=2.671999999961372E-4" "cas number=4143-64-0" "SMILES=c1ccc2c(c1)c(=O)cc(o2)c3ccc(c(c3)O)O" "InChI=InChI=1S/C15H10O4/c16-11-6-5-9(7-13(11)18)15-8-12(17)10-3-1-2-4-14(10)19-15/h1-8,16,18H" "InChIKey=SRNPMQHYWVKBAV-UHFFFAOYSA-N" "molecular formula=C15H10O4" "total exact mass=254.0579088" "SMILES=C1=CC=C2C(=C1)C(=O)C=C(O2)C3=CC(=C(C=C3)O)O"
Num Peaks: 11
 117 3.603604; 
 118 0.700701; 
 132 4.604605; 
 133 100.000000; 
 134 5.905906; 
 169 0.700701; 
 209 1.401401; 
 211 1.001001; 
 225 2.802803; 
 253 7.007007; 
 254 1.301301; 


Name: 3',4'-Dihydroxyflavone
SYNON: $:00in-source
DB#: MetaboBASE0529
InChIKey: SRNPMQHYWVKBAV-UHFFFAOYSA-N
Precursor_type: [M-H]-
Spectrum_type: MS2
PrecursorMZ: 253.0509
Instrument_type: LC-ESI-TOF
Instrument: impact HD
Ion_mode: N
Collision_energy: 20
InChIKey: SRNPMQHYWVKBAV-UHFFFAOYSA-N
Formula: C15H10O4
MW: 254
ExactMass: 254.0579088
Comments: "license=License CC-BY-NC-SA 4.0 International" "author=Plant Biology, The Noble Foundation, Ardmore, OK, US/Dennis Fine, Daniel Wherritt, and Lloyd Sumner" "instrument type=LC-ESI-TOF" "instrument=impact HD" "ionization=ESI" "ionization mode=negative" "ms level=MS2" "precursor m/z=253.0509" "isolation width=5" "collision gas=Nitrogen" "collision energy=20" "peak width=0.012" "date=2013-11-23 10:55:03+01:00" "column=Waters Acquity BEH C18 1.7um x 2.1 x 150 mm" "retention time=553.2" "raw data file=C:\Data\Confirmed Standards\Confirmed stds MSMS 22Nov13\3'4-Dihydroxyflavone  MSMS.d" "precursor type=[M-H]-" "mass accuracy=1.0559140473167146" "mass error=2.671999999961372E-4" "cas number=4143-64-0" "SMILES=c1ccc2c(c1)c(=O)cc(o2)c3ccc(c(c3)O)O" "InChI=InChI=1S/C15H10O4/c16-11-6-5-9(7-13(11)18)15-8-12(17)10-3-1-2-4-14(10)19-15/h1-8,16,18H" "InChIKey=SRNPMQHYWVKBAV-UHFFFAOYSA-N" "molecular formula=C15H10O4" "total exact mass=254.0579088" "SMILES=C1=CC=C2C(=C1)C(=O)C=C(O2)C3=CC(=C(C=C3)O)O"
Num Peaks: 10
 132 0.300300; 
 133 14.314314; 
 134 1.001001; 
 209 0.500501; 
 225 2.702703; 
 235 0.400400; 
 252 0.300300; 
 253 100.000000; 
 254 10.110110; 
 255 1.101101; 


Name: 5-Hydroxy-3',4'-dimethoxyflavanone
SYNON: $:00in-source
DB#: MetaboBASE0530
InChIKey: GREZGBHTSQIMAQ-UHFFFAOYSA-N
Spectrum_type: MS2
PrecursorMZ: 299.0909
Instrument_type: LC-ESI-TOF
Instrument: impact HD
Ion_mode: N
Collision_energy: 20
InChIKey: GREZGBHTSQIMAQ-UHFFFAOYSA-N
Formula: C17H16O5
MW: 300
ExactMass: 300.09977361200004
Comments: "license=License CC-BY-NC-SA 4.0 International" "author=Plant Biology, The Noble Foundation, Ardmore, OK, US/Dennis Fine, Daniel Wherritt, and Lloyd Sumner" "instrument type=LC-ESI-TOF" "instrument=impact HD" "ionization=ESI" "ionization mode=negative" "ms level=MS2" "precursor m/z=299.0909" "isolation width=5" "collision gas=Nitrogen" "collision energy=20" "peak width=0.0085" "date=2013-11-23 16:21:08+01:00" "column=Waters Acquity BEH C18 1.7um x 2.1 x 150 mm" "retention time=974.4" "raw data file=C:\Data\Confirmed Standards\Confirmed stds MSMS 22Nov13\5Hydroxy3'4'dimethoxyfla MSMS.d" "Last Auto-Curation=1505110877995" "molecular formula=C17H16O5" "total exact mass=300.09977361200004" "SMILES=[H]OC1=C([H])C([H])=C([H])C=2OC([H])(C3=C([H])C([H])=C(OC([H])([H])[H])C(OC([H])([H])[H])=C3[H])C([H])([H])C(=O)C12" "InChI=InChI=1S/C17H16O5/c1-20-13-7-6-10(8-16(13)21-2)15-9-12(19)17-11(18)4-3-5-14(17)22-15/h3-8,15,18H,9H2,1-2H3" "InChIKey=GREZGBHTSQIMAQ-UHFFFAOYSA-N"
Num Peaks: 6
 161 11.811812; 
 225 57.257257; 
 269 25.425425; 
 283 22.322322; 
 284 60.560561; 
 299 100.000000; 


Name: 5-Hydroxy-3',4'-dimethoxyflavanone
SYNON: $:00in-source
DB#: MetaboBASE0531
InChIKey: GREZGBHTSQIMAQ-UHFFFAOYSA-N
Spectrum_type: MS2
PrecursorMZ: 299.09
Instrument_type: LC-ESI-TOF
Instrument: impact HD
Ion_mode: N
Collision_energy: 30
InChIKey: GREZGBHTSQIMAQ-UHFFFAOYSA-N
Formula: C17H16O5
MW: 300
ExactMass: 300.099773612
Comments: "license=License CC-BY-NC-SA 4.0 International" "author=Plant Biology, The Noble Foundation, Ardmore, OK, US/Dennis Fine, Daniel Wherritt, and Lloyd Sumner" "instrument type=LC-ESI-TOF" "instrument=impact HD" "ionization=ESI" "ionization mode=negative" "ms level=MS2" "precursor m/z=299.09" "isolation width=5" "collision gas=Nitrogen" "collision energy=30" "peak width=0.01" "date=2013-11-23 16:21:08+01:00" "column=Waters Acquity BEH C18 1.7um x 2.1 x 150 mm" "retention time=974.4" "raw data file=C:\Data\Confirmed Standards\Confirmed stds MSMS 22Nov13\5Hydroxy3'4'dimethoxyfla MSMS.d" "Last Auto-Curation=1505110118316" "molecular formula=C17H16O5" "total exact mass=300.099773612" "SMILES=[H]OC1=C([H])C([H])=C([H])C=2OC([H])(C3=C([H])C([H])=C(OC([H])([H])[H])C(OC([H])([H])[H])=C3[H])C([H])([H])C(=O)C12" "InChI=InChI=1S/C17H16O5/c1-20-13-7-6-10(8-16(13)21-2)15-9-12(19)17-11(18)4-3-5-14(17)22-15/h3-8,15,18H,9H2,1-2H3" "InChIKey=GREZGBHTSQIMAQ-UHFFFAOYSA-N"
Num Peaks: 6
 135 82.682683; 
 225 90.690691; 
 241 100.000000; 
 269 75.175175; 
 283 75.775776; 
 284 41.941942; 


Name: 5-Hydroxy-3',4'-dimethoxyflavanone
SYNON: $:00in-source
DB#: MetaboBASE0532
InChIKey: GREZGBHTSQIMAQ-UHFFFAOYSA-N
Instrument_type: LC-ESI-TOF
Instrument: impact HD
Ion_mode: N
Collision_energy: 10
InChIKey: GREZGBHTSQIMAQ-UHFFFAOYSA-N
Formula: C17H16O5
MW: 300
ExactMass: 300.099773612
Comments: "license=License CC-BY-NC-SA 4.0 International" "author=Plant Biology, The Noble Foundation, Ardmore, OK, US/Dennis Fine, Daniel Wherritt, and Lloyd Sumner" "instrument type=LC-ESI-TOF" "instrument=impact HD" "ionization=ESI" "ionization mode=negative" "collision gas=Nitrogen" "collision energy=10" "peak width=0.017" "date=2013-11-21 09:49:54+01:00" "column=Waters Acquity BEH C18 1.7um x 2.1 x 150 mm" "retention time=974.4" "raw data file=C:\Data\Confirmed Standards\Confirmed Stds 19Nov13\5Hydroxy3'4'dimethoxyfla 3 uL.d" "Last Auto-Curation=1505110878117" "molecular formula=C17H16O5" "total exact mass=300.099773612" "SMILES=[H]OC1=C([H])C([H])=C([H])C=2OC([H])(C3=C([H])C([H])=C(OC([H])([H])[H])C(OC([H])([H])[H])=C3[H])C([H])([H])C(=O)C12" "InChI=InChI=1S/C17H16O5/c1-20-13-7-6-10(8-16(13)21-2)15-9-12(19)17-11(18)4-3-5-14(17)22-15/h3-8,15,18H,9H2,1-2H3" "InChIKey=GREZGBHTSQIMAQ-UHFFFAOYSA-N"
Num Peaks: 24
 128 1.101101; 
 269 1.401401; 
 283 1.201201; 
 284 4.404404; 
 299 100.000000; 
 300 15.215215; 
 301 1.601602; 
 367 10.010010; 
 368 1.701702; 
 429 1.001001; 
 605 8.908909; 
 606 2.802803; 
 621 56.456456; 
 622 17.817818; 
 623 3.803804; 
 683 1.901902; 
 689 3.703704; 
 690 1.401401; 
 937 4.604605; 
 938 2.502503; 
 943 5.905906; 
 944 3.203203; 
 1259 2.202202; 
 1260 1.601602; 


Name: 5,6-Dihydroxy-3',4'-dimethoxyflavanone
SYNON: $:00in-source
DB#: MetaboBASE0533
InChIKey: IXPQVGYEEBKAPR-UHFFFAOYSA-N
Instrument_type: LC-ESI-TOF
Instrument: impact HD
Ion_mode: N
Collision_energy: 10
InChIKey: IXPQVGYEEBKAPR-UHFFFAOYSA-N
Formula: C17H16O6
MW: 316
ExactMass: 316.09468823199995
Comments: "license=License CC-BY-NC-SA 4.0 International" "author=Plant Biology, The Noble Foundation, Ardmore, OK, US/Dennis Fine, Daniel Wherritt, and Lloyd Sumner" "instrument type=LC-ESI-TOF" "instrument=impact HD" "ionization=ESI" "ionization mode=negative" "collision gas=Nitrogen" "collision energy=10" "peak width=0.017" "date=2013-11-21 00:19:17+01:00" "column=Waters Acquity BEH C18 1.7um x 2.1 x 150 mm" "retention time=700.8" "raw data file=C:\Data\Confirmed Standards\Confirmed Stds 19Nov13\56Dihydroxy3'4'dimethoxyflavan.d" "Last Auto-Curation=1505110878410" "molecular formula=C17H16O6" "total exact mass=316.09468823199995" "SMILES=[H]OC1=C([H])C([H])=C2OC([H])(C3=C([H])C([H])=C(OC([H])([H])[H])C(OC([H])([H])[H])=C3[H])C([H])([H])C(=O)C2=C1O[H]" "InChI=InChI=1S/C17H16O6/c1-21-12-5-3-9(7-15(12)22-2)14-8-11(19)16-13(23-14)6-4-10(18)17(16)20/h3-7,14,18,20H,8H2,1-2H3" "InChIKey=IXPQVGYEEBKAPR-UHFFFAOYSA-N"
Num Peaks: 24
 271 1.701702; 
 273 1.601602; 
 297 2.502503; 
 300 1.601602; 
 313 4.204204; 
 314 1.301301; 
 315 100.000000; 
 316 15.115115; 
 317 2.102102; 
 331 1.301301; 
 383 1.501502; 
 556 2.202202; 
 637 3.603604; 
 638 1.201201; 
 653 39.739740; 
 654 13.813814; 
 655 2.702703; 
 721 1.701702; 
 985 3.303303; 
 986 1.801802; 
 989 1.501502; 
 990 1.101101; 
 991 1.101101; 
 1022 1.001001; 


Name: 5,6-Dihydroxy-3',4'-dimethoxyflavanone
SYNON: $:00in-source
DB#: MetaboBASE0534
InChIKey: IXPQVGYEEBKAPR-UHFFFAOYSA-N
Spectrum_type: MS2
PrecursorMZ: 315.0846
Instrument_type: LC-ESI-TOF
Instrument: impact HD
Ion_mode: N
Collision_energy: 10
InChIKey: IXPQVGYEEBKAPR-UHFFFAOYSA-N
Formula: C17H16O6
MW: 316
ExactMass: 316.09468823199995
Comments: "license=License CC-BY-NC-SA 4.0 International" "author=Plant Biology, The Noble Foundation, Ardmore, OK, US/Dennis Fine, Daniel Wherritt, and Lloyd Sumner" "instrument type=LC-ESI-TOF" "instrument=impact HD" "ionization=ESI" "ionization mode=negative" "ms level=MS2" "precursor m/z=315.0846" "isolation width=5" "collision gas=Nitrogen" "collision energy=10" "peak width=0.0094" "date=2013-11-24 03:13:17+01:00" "column=Waters Acquity BEH C18 1.7um x 2.1 x 150 mm" "retention time=700.8" "raw data file=C:\Data\Confirmed Standards\Confirmed stds MSMS 22Nov13\56Dihydroxy3'4'dimethoxy MSMS.d" "Last Auto-Curation=1505110118783" "molecular formula=C17H16O6" "total exact mass=316.09468823199995" "SMILES=[H]OC1=C([H])C([H])=C2OC([H])(C3=C([H])C([H])=C(OC([H])([H])[H])C(OC([H])([H])[H])=C3[H])C([H])([H])C(=O)C2=C1O[H]" "InChI=InChI=1S/C17H16O6/c1-21-12-5-3-9(7-15(12)22-2)14-8-11(19)16-13(23-14)6-4-10(18)17(16)20/h3-7,14,18,20H,8H2,1-2H3" "InChIKey=IXPQVGYEEBKAPR-UHFFFAOYSA-N"
Num Peaks: 6
 151 14.014014; 
 283 16.816817; 
 313 22.422422; 
 315 100.000000; 
 316 21.721722; 
 317 10.710711; 


Name: 5,6-Dihydroxy-3',4'-dimethoxyflavanone
SYNON: $:00in-source
DB#: MetaboBASE0535
InChIKey: IXPQVGYEEBKAPR-UHFFFAOYSA-N
Spectrum_type: MS2
PrecursorMZ: 315.0869
Instrument_type: LC-ESI-TOF
Instrument: impact HD
Ion_mode: N
Collision_energy: 20
InChIKey: IXPQVGYEEBKAPR-UHFFFAOYSA-N
Formula: C17H16O6
MW: 316
ExactMass: 316.09468823199995
Comments: "license=License CC-BY-NC-SA 4.0 International" "author=Plant Biology, The Noble Foundation, Ardmore, OK, US/Dennis Fine, Daniel Wherritt, and Lloyd Sumner" "instrument type=LC-ESI-TOF" "instrument=impact HD" "ionization=ESI" "ionization mode=negative" "ms level=MS2" "precursor m/z=315.0869" "isolation width=5" "collision gas=Nitrogen" "collision energy=20" "peak width=0.011" "date=2013-11-24 03:13:17+01:00" "column=Waters Acquity BEH C18 1.7um x 2.1 x 150 mm" "retention time=700.8" "raw data file=C:\Data\Confirmed Standards\Confirmed stds MSMS 22Nov13\56Dihydroxy3'4'dimethoxy MSMS.d" "Last Auto-Curation=1505110878630" "molecular formula=C17H16O6" "total exact mass=316.09468823199995" "SMILES=[H]OC1=C([H])C([H])=C2OC([H])(C3=C([H])C([H])=C(OC([H])([H])[H])C(OC([H])([H])[H])=C3[H])C([H])([H])C(=O)C2=C1O[H]" "InChI=InChI=1S/C17H16O6/c1-21-12-5-3-9(7-15(12)22-2)14-8-11(19)16-13(23-14)6-4-10(18)17(16)20/h3-7,14,18,20H,8H2,1-2H3" "InChIKey=IXPQVGYEEBKAPR-UHFFFAOYSA-N"
Num Peaks: 11
 150 28.928929; 
 230 43.243243; 
 256 37.037037; 
 272 31.831832; 
 273 30.730731; 
 274 39.939940; 
 297 25.625626; 
 300 37.237237; 
 313 28.628629; 
 315 100.000000; 
 316 43.243243; 


Name: 5,6-Dihydroxy-3',4'-dimethoxyflavanone
SYNON: $:00in-source
DB#: MetaboBASE0536
InChIKey: IXPQVGYEEBKAPR-UHFFFAOYSA-N
Instrument_type: LC-ESI-TOF
Instrument: impact HD
Ion_mode: N
InChIKey: IXPQVGYEEBKAPR-UHFFFAOYSA-N
Formula: C17H16O6
MW: 316
ExactMass: 316.09468823199995
Comments: "license=License CC-BY-NC-SA 4.0 International" "author=Plant Biology, The Noble Foundation, Ardmore, OK, US/Dennis Fine, Daniel Wherritt, and Lloyd Sumner" "instrument type=LC-ESI-TOF" "instrument=impact HD" "ionization=ESI" "ionization mode=negative" "collision gas=Nitrogen" "peak width=0.014" "date=2013-11-24 03:13:17+01:00" "column=Waters Acquity BEH C18 1.7um x 2.1 x 150 mm" "retention time=700.8" "raw data file=C:\Data\Confirmed Standards\Confirmed stds MSMS 22Nov13\56Dihydroxy3'4'dimethoxy MSMS.d" "Last Auto-Curation=1505110119033" "molecular formula=C17H16O6" "total exact mass=316.09468823199995" "SMILES=[H]OC1=C([H])C([H])=C2OC([H])(C3=C([H])C([H])=C(OC([H])([H])[H])C(OC([H])([H])[H])=C3[H])C([H])([H])C(=O)C2=C1O[H]" "InChI=InChI=1S/C17H16O6/c1-21-12-5-3-9(7-15(12)22-2)14-8-11(19)16-13(23-14)6-4-10(18)17(16)20/h3-7,14,18,20H,8H2,1-2H3" "InChIKey=IXPQVGYEEBKAPR-UHFFFAOYSA-N"
Num Peaks: 9
 116 12.612613; 
 273 9.009009; 
 300 8.308308; 
 313 7.807808; 
 315 100.000000; 
 316 16.416416; 
 383 9.509510; 
 653 36.536537; 
 654 12.912913; 


Name: 5,7-Dihydroxy-3',4'-dimethoxyflavanone
SYNON: $:00in-source
DB#: MetaboBASE0537
InChIKey: HRFSSDXPHTZMLA-UHFFFAOYSA-N
Instrument_type: LC-ESI-TOF
Instrument: impact HD
Ion_mode: N
Collision_energy: 10
InChIKey: HRFSSDXPHTZMLA-UHFFFAOYSA-N
Formula: C17H16O6
MW: 316
ExactMass: 316.09468823199995
Comments: "license=License CC-BY-NC-SA 4.0 International" "author=Plant Biology, The Noble Foundation, Ardmore, OK, US/Dennis Fine, Daniel Wherritt, and Lloyd Sumner" "instrument type=LC-ESI-TOF" "instrument=impact HD" "ionization=ESI" "ionization mode=negative" "collision gas=Nitrogen" "collision energy=10" "peak width=0.012" "date=2013-11-22 02:46:03+01:00" "column=Waters Acquity BEH C18 1.7um x 2.1 x 150 mm" "retention time=745.2" "raw data file=C:\Data\Confirmed Standards\Confirmed Stds 21Nov13\57Dihydroxy3'4'dimethoxyfl dil.d" "Last Auto-Curation=1505111267533" "molecular formula=C17H16O6" "total exact mass=316.09468823199995" "SMILES=[H]OC=1C([H])=C(O[H])C2=C(OC([H])(C3=C([H])C([H])=C(OC([H])([H])[H])C(OC([H])([H])[H])=C3[H])C([H])([H])C2=O)C1[H]" "InChI=InChI=1S/C17H16O6/c1-21-13-4-3-9(5-15(13)22-2)14-8-12(20)17-11(19)6-10(18)7-16(17)23-14/h3-7,14,18-19H,8H2,1-2H3" "InChIKey=HRFSSDXPHTZMLA-UHFFFAOYSA-N"
Num Peaks: 3
 315 100.000000; 
 316 15.515516; 
 317 1.801802; 


Name: 5,7-Dihydroxy-3',4'-dimethoxyflavanone
SYNON: $:00in-source
DB#: MetaboBASE0538
InChIKey: HRFSSDXPHTZMLA-UHFFFAOYSA-N
Spectrum_type: MS2
PrecursorMZ: 315.0869
Instrument_type: LC-ESI-TOF
Instrument: impact HD
Ion_mode: N
Collision_energy: 30
InChIKey: HRFSSDXPHTZMLA-UHFFFAOYSA-N
Formula: C17H16O6
MW: 316
ExactMass: 316.09468823199995
Comments: "license=License CC-BY-NC-SA 4.0 International" "author=Plant Biology, The Noble Foundation, Ardmore, OK, US/Dennis Fine, Daniel Wherritt, and Lloyd Sumner" "instrument type=LC-ESI-TOF" "instrument=impact HD" "ionization=ESI" "ionization mode=negative" "ms level=MS2" "precursor m/z=315.0869" "isolation width=5" "collision gas=Nitrogen" "collision energy=30" "peak width=0.015" "date=2013-11-24 03:54:01+01:00" "column=Waters Acquity BEH C18 1.7um x 2.1 x 150 mm" "retention time=742.2" "raw data file=C:\Data\Confirmed Standards\Confirmed stds MSMS 22Nov13\57Dihydroxy3'4'dimethoxyf MSMS.d" "Last Auto-Curation=1505111267658" "molecular formula=C17H16O6" "total exact mass=316.09468823199995" "SMILES=[H]OC=1C([H])=C(O[H])C2=C(OC([H])(C3=C([H])C([H])=C(OC([H])([H])[H])C(OC([H])([H])[H])=C3[H])C([H])([H])C2=O)C1[H]" "InChI=InChI=1S/C17H16O6/c1-21-13-4-3-9(5-15(13)22-2)14-8-12(20)17-11(19)6-10(18)7-16(17)23-14/h3-7,14,18-19H,8H2,1-2H3" "InChIKey=HRFSSDXPHTZMLA-UHFFFAOYSA-N"
Num Peaks: 44
 107 3.603604; 
 108 10.210210; 
 123 5.905906; 
 124 14.114114; 
 125 4.304304; 
 136 28.028028; 
 151 12.012012; 
 152 17.817818; 
 164 100.000000; 
 165 7.907908; 
 177 3.303303; 
 195 27.227227; 
 197 3.403403; 
 199 4.504505; 
 205 2.302302; 
 213 2.402402; 
 215 2.202202; 
 217 2.202202; 
 227 2.402402; 
 229 3.903904; 
 229 2.102102; 
 230 3.703704; 
 231 2.402402; 
 241 6.206206; 
 243 3.303303; 
 245 3.103103; 
 247 2.102102; 
 253 2.202202; 
 255 2.302302; 
 257 10.210210; 
 258 7.907908; 
 259 2.602603; 
 271 14.014014; 
 272 2.502503; 
 273 20.520521; 
 274 3.303303; 
 281 3.903904; 
 285 50.750751; 
 286 4.704705; 
 299 27.027027; 
 300 24.924925; 
 301 4.104104; 
 315 51.151151; 
 316 7.207207; 


Name: 5,7-Dihydroxy-3',4'-dimethoxyflavanone
SYNON: $:00in-source
DB#: MetaboBASE0539
InChIKey: HRFSSDXPHTZMLA-UHFFFAOYSA-N
Spectrum_type: MS2
PrecursorMZ: 315.09
Instrument_type: LC-ESI-TOF
Instrument: impact HD
Ion_mode: N
Collision_energy: 40
InChIKey: HRFSSDXPHTZMLA-UHFFFAOYSA-N
Formula: C17H16O6
MW: 316
ExactMass: 316.09468823199995
Comments: "license=License CC-BY-NC-SA 4.0 International" "author=Plant Biology, The Noble Foundation, Ardmore, OK, US/Dennis Fine, Daniel Wherritt, and Lloyd Sumner" "instrument type=LC-ESI-TOF" "instrument=impact HD" "ionization=ESI" "ionization mode=negative" "ms level=MS2" "precursor m/z=315.09" "isolation width=5" "collision gas=Nitrogen" "collision energy=40" "peak width=0.014" "date=2013-11-24 03:54:01+01:00" "column=Waters Acquity BEH C18 1.7um x 2.1 x 150 mm" "retention time=742.2" "raw data file=C:\Data\Confirmed Standards\Confirmed stds MSMS 22Nov13\57Dihydroxy3'4'dimethoxyf MSMS.d" "Last Auto-Curation=1505110119360" "molecular formula=C17H16O6" "total exact mass=316.09468823199995" "SMILES=[H]OC=1C([H])=C(O[H])C2=C(OC([H])(C3=C([H])C([H])=C(OC([H])([H])[H])C(OC([H])([H])[H])=C3[H])C([H])([H])C2=O)C1[H]" "InChI=InChI=1S/C17H16O6/c1-21-13-4-3-9(5-15(13)22-2)14-8-12(20)17-11(19)6-10(18)7-16(17)23-14/h3-7,14,18-19H,8H2,1-2H3" "InChIKey=HRFSSDXPHTZMLA-UHFFFAOYSA-N"
Num Peaks: 37
 107 21.721722; 
 108 100.000000; 
 119 12.512513; 
 123 22.722723; 
 124 30.530531; 
 125 11.111111; 
 133 9.009009; 
 135 13.513514; 
 136 83.983984; 
 147 10.210210; 
 151 35.835836; 
 152 9.209209; 
 155 7.207207; 
 164 75.475475; 
 165 7.607608; 
 174 7.507508; 
 175 13.613614; 
 185 8.008008; 
 189 12.812813; 
 196 25.725726; 
 199 17.217217; 
 200 9.509510; 
 213 8.608609; 
 215 7.807808; 
 216 6.506507; 
 217 10.710711; 
 227 17.217217; 
 229 9.209209; 
 230 6.606607; 
 241 14.514515; 
 243 12.312312; 
 255 8.608609; 
 257 34.134134; 
 258 10.810811; 
 271 18.418418; 
 285 31.631632; 
 299 19.119119; 


Name: 5,7-Dihydroxy-3',4'-dimethoxyflavanone
SYNON: $:00in-source
DB#: MetaboBASE0540
InChIKey: HRFSSDXPHTZMLA-UHFFFAOYSA-N
Instrument_type: LC-ESI-TOF
Instrument: impact HD
Ion_mode: N
InChIKey: HRFSSDXPHTZMLA-UHFFFAOYSA-N
Formula: C17H16O6
MW: 316
ExactMass: 316.09468823199995
Comments: "license=License CC-BY-NC-SA 4.0 International" "author=Plant Biology, The Noble Foundation, Ardmore, OK, US/Dennis Fine, Daniel Wherritt, and Lloyd Sumner" "instrument type=LC-ESI-TOF" "instrument=impact HD" "ionization=ESI" "ionization mode=negative" "collision gas=Nitrogen" "peak width=0.015" "date=2013-11-24 03:54:01+01:00" "column=Waters Acquity BEH C18 1.7um x 2.1 x 150 mm" "retention time=742.2" "raw data file=C:\Data\Confirmed Standards\Confirmed stds MSMS 22Nov13\57Dihydroxy3'4'dimethoxyf MSMS.d" "Last Auto-Curation=1505111601700" "molecular formula=C17H16O6" "total exact mass=316.09468823199995" "SMILES=[H]OC=1C([H])=C(O[H])C2=C(OC([H])(C3=C([H])C([H])=C(OC([H])([H])[H])C(OC([H])([H])[H])=C3[H])C([H])([H])C2=O)C1[H]" "InChI=InChI=1S/C17H16O6/c1-21-13-4-3-9(5-15(13)22-2)14-8-12(20)17-11(19)6-10(18)7-16(17)23-14/h3-7,14,18-19H,8H2,1-2H3" "InChIKey=HRFSSDXPHTZMLA-UHFFFAOYSA-N"
Num Peaks: 24
 112 0.300300; 
 116 0.200200; 
 235 0.100100; 
 242 0.300300; 
 248 0.300300; 
 304 0.100100; 
 310 0.200200; 
 315 100.000000; 
 316 14.714715; 
 317 1.701702; 
 318 0.100100; 
 351 0.200200; 
 353 0.100100; 
 378 0.100100; 
 383 1.401401; 
 384 0.300300; 
 445 0.200200; 
 451 0.200200; 
 506 0.200200; 
 631 4.904905; 
 632 1.701702; 
 633 0.400400; 
 666 0.100100; 
 715 0.100100; 


Name: Aspalathin
SYNON: $:00in-source
DB#: MetaboBASE0541
InChIKey: VCPUQYKWJRESOC-VJXVFPJBSA-N
Precursor_type: [M-H]-
Spectrum_type: MS2
PrecursorMZ: 451.1264
Instrument_type: LC-ESI-TOF
Instrument: impact HD
Ion_mode: N
Collision_energy: 20
InChIKey: VCPUQYKWJRESOC-VJXVFPJBSA-N
Formula: C21H24O11
MW: 452
ExactMass: 452.131861588
Comments: "license=License CC-BY-NC-SA 4.0 International" "author=Plant Biology, The Noble Foundation, Ardmore, OK, US/Dennis Fine, Daniel Wherritt, and Lloyd Sumner" "instrument type=LC-ESI-TOF" "instrument=impact HD" "ionization=ESI" "ionization mode=negative" "ms level=MS2" "precursor m/z=451.1264" "isolation width=5" "collision gas=Nitrogen" "collision energy=20" "peak width=0.015" "date=2013-11-23 18:23:32+01:00" "column=Waters Acquity BEH C18 1.7um x 2.1 x 150 mm" "retention time=279.6" "raw data file=C:\Data\Confirmed Standards\Confirmed stds MSMS 22Nov13\Aspalathin (vial 277) MSMS.d" "precursor type=[M-H]-" "mass accuracy=4.021959255737288" "mass error=0.001814411999987442" "cas number=6027-43-6" "SMILES=O=C(c1c(O)c(c(O)cc1O)[C@@H]2O[C@@H]([C@@H](O)[C@H](O)[C@H]2O)CO)CCc3ccc(O)c(O)c3" "InChI=InChI=1S/C21H24O11/c22-7-14-17(28)19(30)20(31)21(32-14)16-13(27)6-12(26)15(18(16)29)10(24)4-2-8-1-3-9(23)11(25)5-8/h1,3,5-6,14,17,19-23,25-31H,2,4,7H2/t14-,17-,19+,20-,21+/m1/s1" "InChIKey=VCPUQYKWJRESOC-VJXVFPJBSA-N" "molecular formula=C21H24O11" "total exact mass=452.131861588" "SMILES=C1=CC(=C(C=C1CCC(=O)C2=C(C(=C(C=C2O)O)C3C(C(C(C(O3)CO)O)O)O)O)O)O" "InChI=InChI=1S/C21H24O11/c22-7-14-17(28)19(30)20(31)21(32-14)16-13(27)6-12(26)15(18(16)29)10(24)4-2-8-1-3-9(23)11(25)5-8/h1,3,5-6,14,17,19-23,25-31H,2,4,7H2" "InChIKey=VCPUQYKWJRESOC-UHFFFAOYSA-N"
Num Peaks: 22
 167 0.800801; 
 193 1.401401; 
 209 0.700701; 
 223 0.900901; 
 239 0.600601; 
 289 1.101101; 
 313 0.500501; 
 329 17.017017; 
 330 3.403403; 
 331 100.000000; 
 332 12.512513; 
 333 1.601602; 
 343 0.600601; 
 359 4.004004; 
 360 1.001001; 
 361 16.616617; 
 362 2.602603; 
 373 0.800801; 
 433 1.601602; 
 449 0.900901; 
 451 4.004004; 
 452 0.900901; 


Name: Aspalathin
SYNON: $:00in-source
DB#: MetaboBASE0542
InChIKey: VCPUQYKWJRESOC-VJXVFPJBSA-N
Precursor_type: [M-H]-
Spectrum_type: MS2
PrecursorMZ: 451.1219
Instrument_type: LC-ESI-TOF
Instrument: impact HD
Ion_mode: N
Collision_energy: 30
InChIKey: VCPUQYKWJRESOC-VJXVFPJBSA-N
Formula: C21H24O11
MW: 452
ExactMass: 452.131861588
Comments: "license=License CC-BY-NC-SA 4.0 International" "author=Plant Biology, The Noble Foundation, Ardmore, OK, US/Dennis Fine, Daniel Wherritt, and Lloyd Sumner" "instrument type=LC-ESI-TOF" "instrument=impact HD" "ionization=ESI" "ionization mode=negative" "ms level=MS2" "precursor m/z=451.1219" "isolation width=5" "collision gas=Nitrogen" "collision energy=30" "peak width=0.016" "date=2013-11-23 18:23:32+01:00" "column=Waters Acquity BEH C18 1.7um x 2.1 x 150 mm" "retention time=279.6" "raw data file=C:\Data\Confirmed Standards\Confirmed stds MSMS 22Nov13\Aspalathin (vial 277) MSMS.d" "precursor type=[M-H]-" "mass accuracy=5.9531315150513295" "mass error=-0.002685588000019834" "cas number=6027-43-6" "SMILES=O=C(c1c(O)c(c(O)cc1O)[C@@H]2O[C@@H]([C@@H](O)[C@H](O)[C@H]2O)CO)CCc3ccc(O)c(O)c3" "InChI=InChI=1S/C21H24O11/c22-7-14-17(28)19(30)20(31)21(32-14)16-13(27)6-12(26)15(18(16)29)10(24)4-2-8-1-3-9(23)11(25)5-8/h1,3,5-6,14,17,19-23,25-31H,2,4,7H2/t14-,17-,19+,20-,21+/m1/s1" "InChIKey=VCPUQYKWJRESOC-VJXVFPJBSA-N" "molecular formula=C21H24O11" "total exact mass=452.131861588" "SMILES=C1=CC(=C(C=C1CCC(=O)C2=C(C(=C(C=C2O)O)C3C(C(C(C(O3)CO)O)O)O)O)O)O" "InChI=InChI=1S/C21H24O11/c22-7-14-17(28)19(30)20(31)21(32-14)16-13(27)6-12(26)15(18(16)29)10(24)4-2-8-1-3-9(23)11(25)5-8/h1,3,5-6,14,17,19-23,25-31H,2,4,7H2" "InChIKey=VCPUQYKWJRESOC-UHFFFAOYSA-N"
Num Peaks: 26
 125 5.405405; 
 135 8.908909; 
 151 2.302302; 
 165 1.701702; 
 167 20.720721; 
 179 1.701702; 
 193 16.416416; 
 194 1.901902; 
 197 3.203203; 
 209 25.825826; 
 210 3.003003; 
 221 3.903904; 
 223 7.307307; 
 239 13.513514; 
 289 6.106106; 
 301 1.601602; 
 313 3.003003; 
 329 8.008008; 
 330 2.302302; 
 331 100.000000; 
 332 13.213213; 
 333 1.701702; 
 343 1.501502; 
 359 3.003003; 
 361 21.421421; 
 362 4.104104; 


Name: Aspalathin
SYNON: $:00in-source
DB#: MetaboBASE0543
InChIKey: VCPUQYKWJRESOC-VJXVFPJBSA-N
Instrument_type: LC-ESI-TOF
Instrument: impact HD
Ion_mode: N
Collision_energy: 10
InChIKey: VCPUQYKWJRESOC-VJXVFPJBSA-N
Formula: C21H24O11
MW: 452
ExactMass: 452.131861588
Comments: "license=License CC-BY-NC-SA 4.0 International" "author=Plant Biology, The Noble Foundation, Ardmore, OK, US/Dennis Fine, Daniel Wherritt, and Lloyd Sumner" "instrument type=LC-ESI-TOF" "instrument=impact HD" "ionization=ESI" "ionization mode=negative" "collision gas=Nitrogen" "collision energy=10" "peak width=0.015" "date=2013-11-20 16:01:25+01:00" "column=Waters Acquity BEH C18 1.7um x 2.1 x 150 mm" "retention time=279.6" "raw data file=C:\Data\Confirmed Standards\Confirmed Stds 19Nov13\Aspalathin (vial 277).d" "cas number=6027-43-6" "SMILES=O=C(c1c(O)c(c(O)cc1O)[C@@H]2O[C@@H]([C@@H](O)[C@H](O)[C@H]2O)CO)CCc3ccc(O)c(O)c3" "InChI=InChI=1S/C21H24O11/c22-7-14-17(28)19(30)20(31)21(32-14)16-13(27)6-12(26)15(18(16)29)10(24)4-2-8-1-3-9(23)11(25)5-8/h1,3,5-6,14,17,19-23,25-31H,2,4,7H2/t14-,17-,19+,20-,21+/m1/s1" "InChIKey=VCPUQYKWJRESOC-VJXVFPJBSA-N" "molecular formula=C21H24O11" "total exact mass=452.131861588" "SMILES=C1=CC(=C(C=C1CCC(=O)C2=C(C(=C(C=C2O)O)C3C(C(C(C(O3)CO)O)O)O)O)O)O" "InChI=InChI=1S/C21H24O11/c22-7-14-17(28)19(30)20(31)21(32-14)16-13(27)6-12(26)15(18(16)29)10(24)4-2-8-1-3-9(23)11(25)5-8/h1,3,5-6,14,17,19-23,25-31H,2,4,7H2" "InChIKey=VCPUQYKWJRESOC-UHFFFAOYSA-N"
Num Peaks: 23
 329 36.536537; 
 330 5.205205; 
 331 71.571572; 
 332 11.111111; 
 333 1.501502; 
 359 5.505506; 
 360 1.001001; 
 361 7.707708; 
 362 1.301301; 
 433 1.801802; 
 449 57.557558; 
 450 11.611612; 
 451 100.000000; 
 452 19.619620; 
 453 3.203203; 
 901 8.608609; 
 902 3.403403; 
 903 21.321321; 
 904 8.808809; 
 905 2.202202; 
 925 1.001001; 
 1353 1.401401; 
 1355 1.301301; 


Name: Aspalathin
SYNON: $:00in-source
DB#: MetaboBASE0544
InChIKey: VCPUQYKWJRESOC-VJXVFPJBSA-N
Instrument_type: LC-ESI-TOF
Instrument: impact HD
Ion_mode: N
InChIKey: VCPUQYKWJRESOC-VJXVFPJBSA-N
Formula: C21H24O11
MW: 452
ExactMass: 452.131861588
Comments: "license=License CC-BY-NC-SA 4.0 International" "author=Plant Biology, The Noble Foundation, Ardmore, OK, US/Dennis Fine, Daniel Wherritt, and Lloyd Sumner" "instrument type=LC-ESI-TOF" "instrument=impact HD" "ionization=ESI" "ionization mode=negative" "collision gas=Nitrogen" "peak width=0.012" "date=2013-11-23 18:23:32+01:00" "column=Waters Acquity BEH C18 1.7um x 2.1 x 150 mm" "retention time=279.6" "raw data file=C:\Data\Confirmed Standards\Confirmed stds MSMS 22Nov13\Aspalathin (vial 277) MSMS.d" "cas number=6027-43-6" "SMILES=O=C(c1c(O)c(c(O)cc1O)[C@@H]2O[C@@H]([C@@H](O)[C@H](O)[C@H]2O)CO)CCc3ccc(O)c(O)c3" "InChI=InChI=1S/C21H24O11/c22-7-14-17(28)19(30)20(31)21(32-14)16-13(27)6-12(26)15(18(16)29)10(24)4-2-8-1-3-9(23)11(25)5-8/h1,3,5-6,14,17,19-23,25-31H,2,4,7H2/t14-,17-,19+,20-,21+/m1/s1" "InChIKey=VCPUQYKWJRESOC-VJXVFPJBSA-N" "molecular formula=C21H24O11" "total exact mass=452.131861588" "SMILES=C1=CC(=C(C=C1CCC(=O)C2=C(C(=C(C=C2O)O)C3C(C(C(C(O3)CO)O)O)O)O)O)O" "InChI=InChI=1S/C21H24O11/c22-7-14-17(28)19(30)20(31)21(32-14)16-13(27)6-12(26)15(18(16)29)10(24)4-2-8-1-3-9(23)11(25)5-8/h1,3,5-6,14,17,19-23,25-31H,2,4,7H2" "InChIKey=VCPUQYKWJRESOC-UHFFFAOYSA-N"
Num Peaks: 22
 329 2.302302; 
 331 2.702703; 
 449 40.340340; 
 450 6.806807; 
 451 100.000000; 
 452 17.117117; 
 453 2.502503; 
 467 0.700701; 
 899 2.902903; 
 900 1.101101; 
 901 21.421421; 
 902 9.109109; 
 903 26.726727; 
 904 9.009009; 
 905 2.502503; 
 1352 0.600601; 
 1353 2.502503; 
 1353 0.700701; 
 1354 2.302302; 
 1354 1.101101; 
 1355 2.302302; 
 1356 1.301301; 


Name: Aspalathin
SYNON: $:00in-source
DB#: MetaboBASE0545
InChIKey: VCPUQYKWJRESOC-VJXVFPJBSA-N
Precursor_type: [M-H]-
Spectrum_type: MS2
PrecursorMZ: 451.1268
Instrument_type: LC-ESI-TOF
Instrument: impact HD
Ion_mode: N
Collision_energy: 10
InChIKey: VCPUQYKWJRESOC-VJXVFPJBSA-N
Formula: C21H24O11
MW: 452
ExactMass: 452.131861588
Comments: "license=License CC-BY-NC-SA 4.0 International" "author=Plant Biology, The Noble Foundation, Ardmore, OK, US/Dennis Fine, Daniel Wherritt, and Lloyd Sumner" "instrument type=LC-ESI-TOF" "instrument=impact HD" "ionization=ESI" "ionization mode=negative" "ms level=MS2" "precursor m/z=451.1268" "isolation width=5" "collision gas=Nitrogen" "collision energy=10" "peak width=0.013" "date=2013-11-23 18:23:32+01:00" "column=Waters Acquity BEH C18 1.7um x 2.1 x 150 mm" "retention time=279.6" "raw data file=C:\Data\Confirmed Standards\Confirmed stds MSMS 22Nov13\Aspalathin (vial 277) MSMS.d" "precursor type=[M-H]-" "mass accuracy=4.908624360159318" "mass error=0.0022144120000007206" "cas number=6027-43-6" "SMILES=O=C(c1c(O)c(c(O)cc1O)[C@@H]2O[C@@H]([C@@H](O)[C@H](O)[C@H]2O)CO)CCc3ccc(O)c(O)c3" "InChI=InChI=1S/C21H24O11/c22-7-14-17(28)19(30)20(31)21(32-14)16-13(27)6-12(26)15(18(16)29)10(24)4-2-8-1-3-9(23)11(25)5-8/h1,3,5-6,14,17,19-23,25-31H,2,4,7H2/t14-,17-,19+,20-,21+/m1/s1" "InChIKey=VCPUQYKWJRESOC-VJXVFPJBSA-N" "molecular formula=C21H24O11" "total exact mass=452.131861588" "SMILES=C1=CC(=C(C=C1CCC(=O)C2=C(C(=C(C=C2O)O)C3C(C(C(C(O3)CO)O)O)O)O)O)O" "InChI=InChI=1S/C21H24O11/c22-7-14-17(28)19(30)20(31)21(32-14)16-13(27)6-12(26)15(18(16)29)10(24)4-2-8-1-3-9(23)11(25)5-8/h1,3,5-6,14,17,19-23,25-31H,2,4,7H2" "InChIKey=VCPUQYKWJRESOC-UHFFFAOYSA-N"
Num Peaks: 14
 329 14.514515; 
 330 3.003003; 
 331 40.040040; 
 332 6.606607; 
 333 0.700701; 
 359 1.601602; 
 361 3.003003; 
 362 0.600601; 
 433 0.600601; 
 449 16.916917; 
 450 4.304304; 
 451 100.000000; 
 452 13.613614; 
 453 2.202202; 


Name: Aspalathin
SYNON: $:00in-source
DB#: MetaboBASE0546
InChIKey: VCPUQYKWJRESOC-VJXVFPJBSA-N
Precursor_type: [M-H]-
Spectrum_type: MS2
PrecursorMZ: 451.13
Instrument_type: LC-ESI-TOF
Instrument: impact HD
Ion_mode: N
Collision_energy: 40
InChIKey: VCPUQYKWJRESOC-VJXVFPJBSA-N
Formula: C21H24O11
MW: 452
ExactMass: 452.131861588
Comments: "license=License CC-BY-NC-SA 4.0 International" "author=Plant Biology, The Noble Foundation, Ardmore, OK, US/Dennis Fine, Daniel Wherritt, and Lloyd Sumner" "instrument type=LC-ESI-TOF" "instrument=impact HD" "ionization=ESI" "ionization mode=negative" "ms level=MS2" "precursor m/z=451.13" "isolation width=5" "collision gas=Nitrogen" "collision energy=40" "peak width=0.016" "date=2013-11-23 18:23:32+01:00" "column=Waters Acquity BEH C18 1.7um x 2.1 x 150 mm" "retention time=279.6" "raw data file=C:\Data\Confirmed Standards\Confirmed stds MSMS 22Nov13\Aspalathin (vial 277) MSMS.d" "precursor type=[M-H]-" "mass accuracy=12.001888590856877" "mass error=0.005414411999993263" "cas number=6027-43-6" "SMILES=O=C(c1c(O)c(c(O)cc1O)[C@@H]2O[C@@H]([C@@H](O)[C@H](O)[C@H]2O)CO)CCc3ccc(O)c(O)c3" "InChI=InChI=1S/C21H24O11/c22-7-14-17(28)19(30)20(31)21(32-14)16-13(27)6-12(26)15(18(16)29)10(24)4-2-8-1-3-9(23)11(25)5-8/h1,3,5-6,14,17,19-23,25-31H,2,4,7H2/t14-,17-,19+,20-,21+/m1/s1" "InChIKey=VCPUQYKWJRESOC-VJXVFPJBSA-N" "molecular formula=C21H24O11" "total exact mass=452.131861588" "SMILES=C1=CC(=C(C=C1CCC(=O)C2=C(C(=C(C=C2O)O)C3C(C(C(C(O3)CO)O)O)O)O)O)O" "InChI=InChI=1S/C21H24O11/c22-7-14-17(28)19(30)20(31)21(32-14)16-13(27)6-12(26)15(18(16)29)10(24)4-2-8-1-3-9(23)11(25)5-8/h1,3,5-6,14,17,19-23,25-31H,2,4,7H2" "InChIKey=VCPUQYKWJRESOC-UHFFFAOYSA-N"
Num Peaks: 21
 109 9.309309; 
 121 5.005005; 
 123 13.113113; 
 125 43.443443; 
 135 52.052052; 
 137 5.605606; 
 137 9.009009; 
 151 7.507508; 
 165 6.606607; 
 165 7.207207; 
 167 100.000000; 
 168 6.506507; 
 179 12.112112; 
 193 17.517518; 
 197 7.407407; 
 209 71.671672; 
 210 6.606607; 
 221 7.007007; 
 223 7.507508; 
 239 16.916917; 
 331 13.413413; 


Name: Aspalathin
SYNON: $:00in-source
DB#: MetaboBASE0547
InChIKey: VCPUQYKWJRESOC-VJXVFPJBSA-N
Precursor_type: [M-H]-
Spectrum_type: MS2
PrecursorMZ: 451.13
Instrument_type: LC-ESI-TOF
Instrument: impact HD
Ion_mode: N
Collision_energy: 50
InChIKey: VCPUQYKWJRESOC-VJXVFPJBSA-N
Formula: C21H24O11
MW: 452
ExactMass: 452.131861588
Comments: "license=License CC-BY-NC-SA 4.0 International" "author=Plant Biology, The Noble Foundation, Ardmore, OK, US/Dennis Fine, Daniel Wherritt, and Lloyd Sumner" "instrument type=LC-ESI-TOF" "instrument=impact HD" "ionization=ESI" "ionization mode=negative" "ms level=MS2" "precursor m/z=451.13" "isolation width=5" "collision gas=Nitrogen" "collision energy=50" "peak width=0.018" "date=2013-11-23 18:23:32+01:00" "column=Waters Acquity BEH C18 1.7um x 2.1 x 150 mm" "retention time=279.6" "raw data file=C:\Data\Confirmed Standards\Confirmed stds MSMS 22Nov13\Aspalathin (vial 277) MSMS.d" "precursor type=[M-H]-" "mass accuracy=12.001888590856877" "mass error=0.005414411999993263" "cas number=6027-43-6" "SMILES=O=C(c1c(O)c(c(O)cc1O)[C@@H]2O[C@@H]([C@@H](O)[C@H](O)[C@H]2O)CO)CCc3ccc(O)c(O)c3" "InChI=InChI=1S/C21H24O11/c22-7-14-17(28)19(30)20(31)21(32-14)16-13(27)6-12(26)15(18(16)29)10(24)4-2-8-1-3-9(23)11(25)5-8/h1,3,5-6,14,17,19-23,25-31H,2,4,7H2/t14-,17-,19+,20-,21+/m1/s1" "InChIKey=VCPUQYKWJRESOC-VJXVFPJBSA-N" "molecular formula=C21H24O11" "total exact mass=452.131861588" "SMILES=C1=CC(=C(C=C1CCC(=O)C2=C(C(=C(C=C2O)O)C3C(C(C(C(O3)CO)O)O)O)O)O)O" "InChI=InChI=1S/C21H24O11/c22-7-14-17(28)19(30)20(31)21(32-14)16-13(27)6-12(26)15(18(16)29)10(24)4-2-8-1-3-9(23)11(25)5-8/h1,3,5-6,14,17,19-23,25-31H,2,4,7H2" "InChIKey=VCPUQYKWJRESOC-UHFFFAOYSA-N"
Num Peaks: 14
 109 19.519520; 
 121 10.610611; 
 123 36.236236; 
 125 58.358358; 
 135 88.588589; 
 136 7.107107; 
 137 13.713714; 
 137 21.621622; 
 151 8.608609; 
 165 8.408408; 
 167 100.000000; 
 179 18.118118; 
 193 7.807808; 
 209 25.225225; 


Name: Tectochrysin
Synon: 5-hydroxy-7-methoxyflavone
SYNON: $:00in-source
DB#: MetaboBASE0548
InChIKey: IRZVHDLBAYNPCT-UHFFFAOYSA-N
Precursor_type: [M-H]-
Spectrum_type: MS2
PrecursorMZ: 267.0659
Instrument_type: LC-ESI-TOF
Instrument: impact HD
Ion_mode: N
Collision_energy: 10
InChIKey: IRZVHDLBAYNPCT-UHFFFAOYSA-N
Formula: C16H12O4
MW: 268
ExactMass: 268.073558864
Comments: "license=License CC-BY-NC-SA 4.0 International" "author=Plant Biology, The Noble Foundation, Ardmore, OK, US/Dennis Fine, Daniel Wherritt, and Lloyd Sumner" "instrument type=LC-ESI-TOF" "instrument=impact HD" "ionization=ESI" "ionization mode=negative" "ms level=MS2" "precursor m/z=267.0659" "isolation width=5" "collision gas=Nitrogen" "collision energy=10" "peak width=0.017" "date=2013-11-24 00:30:19+01:00" "column=Waters Acquity BEH C18 1.7um x 2.1 x 150 mm" "retention time=1133.4" "raw data file=C:\Data\Confirmed Standards\Confirmed stds MSMS 22Nov13\Tectochrysin (vial 290) MSMS.d" "precursor type=[M-H]-" "mass accuracy=1.433593731047375" "mass error=-3.828640000165251E-4" "cas number=520-28-5" "SMILES=COc1cc(c2c(=O)cc(oc2c1)c3ccccc3)O" "InChI=InChI=1S/C16H12O4/c1-19-11-7-12(17)16-13(18)9-14(20-15(16)8-11)10-5-3-2-4-6-10/h2-9,17H,1H3" "InChIKey=IRZVHDLBAYNPCT-UHFFFAOYSA-N" "molecular formula=C16H12O4" "total exact mass=268.073558864" "SMILES=COC1=CC(=C2C(=C1)OC(=CC2=O)C3=CC=CC=C3)O"
Num Peaks: 4
 252 5.305305; 
 267 100.000000; 
 268 10.810811; 
 269 7.207207; 


Name: Tectochrysin
Synon: 5-hydroxy-7-methoxyflavone
SYNON: $:00in-source
DB#: MetaboBASE0549
InChIKey: IRZVHDLBAYNPCT-UHFFFAOYSA-N
Precursor_type: [M-H]-
Spectrum_type: MS2
PrecursorMZ: 267
Instrument_type: LC-ESI-TOF
Instrument: impact HD
Ion_mode: N
Collision_energy: 30
InChIKey: IRZVHDLBAYNPCT-UHFFFAOYSA-N
Formula: C16H12O4
MW: 268
ExactMass: 268.073558864
Comments: "license=License CC-BY-NC-SA 4.0 International" "author=Plant Biology, The Noble Foundation, Ardmore, OK, US/Dennis Fine, Daniel Wherritt, and Lloyd Sumner" "instrument type=LC-ESI-TOF" "instrument=impact HD" "ionization=ESI" "ionization mode=negative" "ms level=MS2" "precursor m/z=267" "isolation width=5" "collision gas=Nitrogen" "collision energy=30" "peak width=0.011" "date=2013-11-24 00:30:19+01:00" "column=Waters Acquity BEH C18 1.7um x 2.1 x 150 mm" "retention time=1133.4" "raw data file=C:\Data\Confirmed Standards\Confirmed stds MSMS 22Nov13\Tectochrysin (vial 290) MSMS.d" "precursor type=[M-H]-" "mass accuracy=248.25042696635094" "mass error=-0.0662828640000157" "cas number=520-28-5" "SMILES=COc1cc(c2c(=O)cc(oc2c1)c3ccccc3)O" "InChI=InChI=1S/C16H12O4/c1-19-11-7-12(17)16-13(18)9-14(20-15(16)8-11)10-5-3-2-4-6-10/h2-9,17H,1H3" "InChIKey=IRZVHDLBAYNPCT-UHFFFAOYSA-N" "molecular formula=C16H12O4" "total exact mass=268.073558864" "SMILES=COC1=CC(=C2C(=C1)OC(=CC2=O)C3=CC=CC=C3)O"
Num Peaks: 7
 122 9.609610; 
 180 20.320320; 
 223 21.321321; 
 224 100.000000; 
 225 21.221221; 
 252 19.519520; 
 252 14.414414; 


Name: Tectochrysin
Synon: 5-hydroxy-7-methoxyflavone
SYNON: $:00in-source
DB#: MetaboBASE0550
InChIKey: IRZVHDLBAYNPCT-UHFFFAOYSA-N
Precursor_type: [M-H]-
Spectrum_type: MS2
PrecursorMZ: 267.0638
Instrument_type: LC-ESI-TOF
Instrument: impact HD
Ion_mode: N
Collision_energy: 20
InChIKey: IRZVHDLBAYNPCT-UHFFFAOYSA-N
Formula: C16H12O4
MW: 268
ExactMass: 268.073558864
Comments: "license=License CC-BY-NC-SA 4.0 International" "author=Plant Biology, The Noble Foundation, Ardmore, OK, US/Dennis Fine, Daniel Wherritt, and Lloyd Sumner" "instrument type=LC-ESI-TOF" "instrument=impact HD" "ionization=ESI" "ionization mode=negative" "ms level=MS2" "precursor m/z=267.0638" "isolation width=5" "collision gas=Nitrogen" "collision energy=20" "peak width=0.014" "date=2013-11-24 00:30:19+01:00" "column=Waters Acquity BEH C18 1.7um x 2.1 x 150 mm" "retention time=1133.4" "raw data file=C:\Data\Confirmed Standards\Confirmed stds MSMS 22Nov13\Tectochrysin (vial 290) MSMS.d" "precursor type=[M-H]-" "mass accuracy=9.296894599721014" "mass error=-0.0024828640000009727" "cas number=520-28-5" "SMILES=COc1cc(c2c(=O)cc(oc2c1)c3ccccc3)O" "InChI=InChI=1S/C16H12O4/c1-19-11-7-12(17)16-13(18)9-14(20-15(16)8-11)10-5-3-2-4-6-10/h2-9,17H,1H3" "InChIKey=IRZVHDLBAYNPCT-UHFFFAOYSA-N" "molecular formula=C16H12O4" "total exact mass=268.073558864" "SMILES=COC1=CC(=C2C(=C1)OC(=CC2=O)C3=CC=CC=C3)O"
Num Peaks: 9
 165 10.210210; 
 223 7.007007; 
 224 69.069069; 
 225 5.005005; 
 226 7.807808; 
 252 55.155155; 
 253 9.309309; 
 267 100.000000; 
 268 16.216216; 


Name: Tectochrysin
Synon: 5-hydroxy-7-methoxyflavone
SYNON: $:00in-source
DB#: MetaboBASE0551
InChIKey: IRZVHDLBAYNPCT-UHFFFAOYSA-N
Instrument_type: LC-ESI-TOF
Instrument: impact HD
Ion_mode: N
InChIKey: IRZVHDLBAYNPCT-UHFFFAOYSA-N
Formula: C16H12O4
MW: 268
ExactMass: 268.073558864
Comments: "license=License CC-BY-NC-SA 4.0 International" "author=Plant Biology, The Noble Foundation, Ardmore, OK, US/Dennis Fine, Daniel Wherritt, and Lloyd Sumner" "instrument type=LC-ESI-TOF" "instrument=impact HD" "ionization=ESI" "ionization mode=negative" "collision gas=Nitrogen" "peak width=0.015" "date=2013-11-24 00:30:19+01:00" "column=Waters Acquity BEH C18 1.7um x 2.1 x 150 mm" "retention time=1133.4" "raw data file=C:\Data\Confirmed Standards\Confirmed stds MSMS 22Nov13\Tectochrysin (vial 290) MSMS.d" "cas number=520-28-5" "SMILES=COc1cc(c2c(=O)cc(oc2c1)c3ccccc3)O" "InChI=InChI=1S/C16H12O4/c1-19-11-7-12(17)16-13(18)9-14(20-15(16)8-11)10-5-3-2-4-6-10/h2-9,17H,1H3" "InChIKey=IRZVHDLBAYNPCT-UHFFFAOYSA-N" "molecular formula=C16H12O4" "total exact mass=268.073558864" "SMILES=COC1=CC(=C2C(=C1)OC(=CC2=O)C3=CC=CC=C3)O"
Num Peaks: 14
 112 4.204204; 
 242 4.304304; 
 248 5.105105; 
 267 52.552553; 
 268 7.607608; 
 335 13.113113; 
 541 3.603604; 
 557 100.000000; 
 558 28.628629; 
 559 5.005005; 
 680 5.005005; 
 841 4.404404; 
 847 12.912913; 
 848 6.506507; 


Name: Tectochrysin
Synon: 5-hydroxy-7-methoxyflavone
SYNON: $:00in-source
DB#: MetaboBASE0552
InChIKey: IRZVHDLBAYNPCT-UHFFFAOYSA-N
Instrument_type: LC-ESI-TOF
Instrument: impact HD
Ion_mode: N
Collision_energy: 10
InChIKey: IRZVHDLBAYNPCT-UHFFFAOYSA-N
Formula: C16H12O4
MW: 268
ExactMass: 268.073558864
Comments: "license=License CC-BY-NC-SA 4.0 International" "author=Plant Biology, The Noble Foundation, Ardmore, OK, US/Dennis Fine, Daniel Wherritt, and Lloyd Sumner" "instrument type=LC-ESI-TOF" "instrument=impact HD" "ionization=ESI" "ionization mode=negative" "collision gas=Nitrogen" "collision energy=10" "peak width=0.017" "date=2013-11-22 00:03:03+01:00" "column=Waters Acquity BEH C18 1.7um x 2.1 x 150 mm" "retention time=1133.4" "raw data file=C:\Data\Confirmed Standards\Confirmed Stds 21Nov13\Tectochrysin (vial 290).d" "cas number=520-28-5" "SMILES=COc1cc(c2c(=O)cc(oc2c1)c3ccccc3)O" "InChI=InChI=1S/C16H12O4/c1-19-11-7-12(17)16-13(18)9-14(20-15(16)8-11)10-5-3-2-4-6-10/h2-9,17H,1H3" "InChIKey=IRZVHDLBAYNPCT-UHFFFAOYSA-N" "molecular formula=C16H12O4" "total exact mass=268.073558864" "SMILES=COC1=CC(=C2C(=C1)OC(=CC2=O)C3=CC=CC=C3)O"
Num Peaks: 20
 224 2.702703; 
 252 5.105105; 
 267 100.000000; 
 268 13.813814; 
 269 1.601602; 
 335 6.306306; 
 336 1.101101; 
 389 1.301301; 
 541 3.103103; 
 542 1.101101; 
 556 3.003003; 
 557 49.049049; 
 558 14.314314; 
 559 2.702703; 
 625 1.801802; 
 841 1.901902; 
 847 7.507508; 
 848 3.603604; 
 1131 1.601602; 
 1132 1.101101; 


Name: Isosakuranetin
SYNON: $:00in-source
DB#: MetaboBASE0553
InChIKey: HMUJXQRRKBLVOO-AWEZNQCLSA-N
Precursor_type: [M-H]-
Spectrum_type: MS2
PrecursorMZ: 285.0776
Instrument_type: LC-ESI-TOF
Instrument: impact HD
Ion_mode: N
Collision_energy: 20
InChIKey: HMUJXQRRKBLVOO-AWEZNQCLSA-N
Formula: C16H14O5
MW: 286
ExactMass: 286.084123548
Comments: "license=License CC-BY-NC-SA 4.0 International" "author=Plant Biology, The Noble Foundation, Ardmore, OK, US/Dennis Fine, Daniel Wherritt, and Lloyd Sumner" "instrument type=LC-ESI-TOF" "instrument=impact HD" "ionization=ESI" "ionization mode=negative" "ms level=MS2" "precursor m/z=285.0776" "isolation width=5" "collision gas=Nitrogen" "collision energy=20" "peak width=0.015" "date=2013-11-24 01:11:01+01:00" "column=Waters Acquity BEH C18 1.7um x 2.1 x 150 mm" "retention time=838.2" "raw data file=C:\Data\Confirmed Standards\Confirmed stds MSMS 22Nov13\Isosakuranetin (vial 291) MSMS.d" "precursor type=[M-H]-" "mass accuracy=2.6394637811908925" "mass error=7.524520000288248E-4" "cas number=480-43-3" "SMILES=COc1ccc(cc1)[C@@H]2CC(=O)c3c(cc(cc3O2)O)O" "InChI=InChI=1S/C16H14O5/c1-20-11-4-2-9(3-5-11)14-8-13(19)16-12(18)6-10(17)7-15(16)21-14/h2-7,14,17-18H,8H2,1H3/t14-/m0/s1" "InChIKey=HMUJXQRRKBLVOO-AWEZNQCLSA-N" "molecular formula=C16H14O5" "total exact mass=286.084123548" "SMILES=COC1=CC=C(C=C1)C2CC(=O)C3=C(C=C(C=C3O2)O)O" "InChI=InChI=1S/C16H14O5/c1-20-11-4-2-9(3-5-11)14-8-13(19)16-12(18)6-10(17)7-15(16)21-14/h2-7,14,17-18H,8H2,1H3" "InChIKey=HMUJXQRRKBLVOO-UHFFFAOYSA-N"
Num Peaks: 27
 108 0.100100; 
 136 0.400400; 
 151 1.401401; 
 164 4.704705; 
 165 0.300300; 
 175 0.300300; 
 177 0.100100; 
 196 1.401401; 
 197 0.100100; 
 199 0.200200; 
 201 0.100100; 
 217 0.300300; 
 225 0.100100; 
 226 0.300300; 
 227 0.100100; 
 228 0.200200; 
 241 0.700701; 
 242 0.100100; 
 243 5.705706; 
 244 0.600601; 
 257 0.200200; 
 269 0.100100; 
 270 4.104104; 
 271 0.600601; 
 285 100.000000; 
 286 10.710711; 
 287 1.001001; 


Name: Isosakuranetin
SYNON: $:00in-source
DB#: MetaboBASE0554
InChIKey: HMUJXQRRKBLVOO-AWEZNQCLSA-N
Instrument_type: LC-ESI-TOF
Instrument: impact HD
Ion_mode: N
InChIKey: HMUJXQRRKBLVOO-AWEZNQCLSA-N
Formula: C16H14O5
MW: 286
ExactMass: 286.084123548
Comments: "license=License CC-BY-NC-SA 4.0 International" "author=Plant Biology, The Noble Foundation, Ardmore, OK, US/Dennis Fine, Daniel Wherritt, and Lloyd Sumner" "instrument type=LC-ESI-TOF" "instrument=impact HD" "ionization=ESI" "ionization mode=negative" "collision gas=Nitrogen" "peak width=0.016" "date=2013-11-24 01:11:01+01:00" "column=Waters Acquity BEH C18 1.7um x 2.1 x 150 mm" "retention time=838.2" "raw data file=C:\Data\Confirmed Standards\Confirmed stds MSMS 22Nov13\Isosakuranetin (vial 291) MSMS.d" "cas number=480-43-3" "SMILES=COc1ccc(cc1)[C@@H]2CC(=O)c3c(cc(cc3O2)O)O" "InChI=InChI=1S/C16H14O5/c1-20-11-4-2-9(3-5-11)14-8-13(19)16-12(18)6-10(17)7-15(16)21-14/h2-7,14,17-18H,8H2,1H3/t14-/m0/s1" "InChIKey=HMUJXQRRKBLVOO-AWEZNQCLSA-N" "molecular formula=C16H14O5" "total exact mass=286.084123548" "SMILES=COC1=CC=C(C=C1)C2CC(=O)C3=C(C=C(C=C3O2)O)O" "InChI=InChI=1S/C16H14O5/c1-20-11-4-2-9(3-5-11)14-8-13(19)16-12(18)6-10(17)7-15(16)21-14/h2-7,14,17-18H,8H2,1H3" "InChIKey=HMUJXQRRKBLVOO-UHFFFAOYSA-N"
Num Peaks: 12
 285 0.100100; 
 285 100.000000; 
 286 19.719720; 
 287 1.801802; 
 288 0.200200; 
 321 0.200200; 
 353 0.600601; 
 354 0.100100; 
 571 4.204204; 
 572 1.301301; 
 573 0.200200; 
 593 0.200200; 


Name: Isosakuranetin
SYNON: $:00in-source
DB#: MetaboBASE0555
InChIKey: HMUJXQRRKBLVOO-AWEZNQCLSA-N
Precursor_type: [M-H]-
Spectrum_type: MS2
PrecursorMZ: 285.0775
Instrument_type: LC-ESI-TOF
Instrument: impact HD
Ion_mode: N
Collision_energy: 30
InChIKey: HMUJXQRRKBLVOO-AWEZNQCLSA-N
Formula: C16H14O5
MW: 286
ExactMass: 286.084123548
Comments: "license=License CC-BY-NC-SA 4.0 International" "author=Plant Biology, The Noble Foundation, Ardmore, OK, US/Dennis Fine, Daniel Wherritt, and Lloyd Sumner" "instrument type=LC-ESI-TOF" "instrument=impact HD" "ionization=ESI" "ionization mode=negative" "ms level=MS2" "precursor m/z=285.0775" "isolation width=5" "collision gas=Nitrogen" "collision energy=30" "peak width=0.016" "date=2013-11-24 01:11:01+01:00" "column=Waters Acquity BEH C18 1.7um x 2.1 x 150 mm" "retention time=838.2" "raw data file=C:\Data\Confirmed Standards\Confirmed stds MSMS 22Nov13\Isosakuranetin (vial 291) MSMS.d" "precursor type=[M-H]-" "mass accuracy=2.2886829020076416" "mass error=6.524519999970835E-4" "cas number=480-43-3" "SMILES=COc1ccc(cc1)[C@@H]2CC(=O)c3c(cc(cc3O2)O)O" "InChI=InChI=1S/C16H14O5/c1-20-11-4-2-9(3-5-11)14-8-13(19)16-12(18)6-10(17)7-15(16)21-14/h2-7,14,17-18H,8H2,1H3/t14-/m0/s1" "InChIKey=HMUJXQRRKBLVOO-AWEZNQCLSA-N" "molecular formula=C16H14O5" "total exact mass=286.084123548" "SMILES=COC1=CC=C(C=C1)C2CC(=O)C3=C(C=C(C=C3O2)O)O" "InChI=InChI=1S/C16H14O5/c1-20-11-4-2-9(3-5-11)14-8-13(19)16-12(18)6-10(17)7-15(16)21-14/h2-7,14,17-18H,8H2,1H3" "InChIKey=HMUJXQRRKBLVOO-UHFFFAOYSA-N"
Num Peaks: 73
 107 6.306306; 
 108 11.711712; 
 109 1.101101; 
 119 0.600601; 
 120 0.800801; 
 122 0.800801; 
 123 3.603604; 
 124 2.702703; 
 125 0.900901; 
 132 0.800801; 
 133 0.500501; 
 134 0.600601; 
 136 35.735736; 
 137 2.802803; 
 145 0.700701; 
 149 0.500501; 
 151 38.838839; 
 152 2.702703; 
 153 0.900901; 
 156 0.800801; 
 158 0.600601; 
 159 1.701702; 
 160 1.401401; 
 161 0.500501; 
 164 100.000000; 
 165 7.707708; 
 166 0.700701; 
 169 0.500501; 
 171 0.600601; 
 172 0.500501; 
 175 8.608609; 
 176 0.600601; 
 177 2.702703; 
 178 0.700701; 
 183 0.900901; 
 184 1.301301; 
 186 3.703704; 
 187 2.402402; 
 196 30.230230; 
 197 1.701702; 
 197 0.500501; 
 198 0.700701; 
 198 2.602603; 
 199 3.103103; 
 200 1.901902; 
 200 0.700701; 
 201 4.904905; 
 202 1.601602; 
 215 2.802803; 
 216 0.500501; 
 217 2.902903; 
 223 0.600601; 
 225 2.002002; 
 226 3.903904; 
 227 4.604605; 
 227 0.500501; 
 228 6.406406; 
 229 1.001001; 
 241 0.800801; 
 241 3.703704; 
 242 2.002002; 
 242 0.500501; 
 243 32.832833; 
 244 3.203203; 
 245 0.500501; 
 252 0.500501; 
 257 1.901902; 
 269 1.901902; 
 270 11.411411; 
 271 1.801802; 
 285 47.747748; 
 286 8.208208; 
 287 1.001001; 


Name: Isosakuranetin
SYNON: $:00in-source
DB#: MetaboBASE0556
InChIKey: HMUJXQRRKBLVOO-AWEZNQCLSA-N
Precursor_type: [M-H]-
Spectrum_type: MS2
PrecursorMZ: 285.0779
Instrument_type: LC-ESI-TOF
Instrument: impact HD
Ion_mode: N
Collision_energy: 10
InChIKey: HMUJXQRRKBLVOO-AWEZNQCLSA-N
Formula: C16H14O5
MW: 286
ExactMass: 286.084123548
Comments: "license=License CC-BY-NC-SA 4.0 International" "author=Plant Biology, The Noble Foundation, Ardmore, OK, US/Dennis Fine, Daniel Wherritt, and Lloyd Sumner" "instrument type=LC-ESI-TOF" "instrument=impact HD" "ionization=ESI" "ionization mode=negative" "ms level=MS2" "precursor m/z=285.0779" "isolation width=5" "collision gas=Nitrogen" "collision energy=10" "peak width=0.011" "date=2013-11-24 01:11:01+01:00" "column=Waters Acquity BEH C18 1.7um x 2.1 x 150 mm" "retention time=838.2" "raw data file=C:\Data\Confirmed Standards\Confirmed stds MSMS 22Nov13\Isosakuranetin (vial 291) MSMS.d" "precursor type=[M-H]-" "mass accuracy=3.6918049417733263" "mass error=0.001052452000010362" "cas number=480-43-3" "SMILES=COc1ccc(cc1)[C@@H]2CC(=O)c3c(cc(cc3O2)O)O" "InChI=InChI=1S/C16H14O5/c1-20-11-4-2-9(3-5-11)14-8-13(19)16-12(18)6-10(17)7-15(16)21-14/h2-7,14,17-18H,8H2,1H3/t14-/m0/s1" "InChIKey=HMUJXQRRKBLVOO-AWEZNQCLSA-N" "molecular formula=C16H14O5" "total exact mass=286.084123548" "SMILES=COC1=CC=C(C=C1)C2CC(=O)C3=C(C=C(C=C3O2)O)O" "InChI=InChI=1S/C16H14O5/c1-20-11-4-2-9(3-5-11)14-8-13(19)16-12(18)6-10(17)7-15(16)21-14/h2-7,14,17-18H,8H2,1H3" "InChIKey=HMUJXQRRKBLVOO-UHFFFAOYSA-N"
Num Peaks: 6
 243 0.200200; 
 270 0.100100; 
 285 0.100100; 
 285 100.000000; 
 286 12.712713; 
 287 1.301301; 


Name: Isosakuranetin
SYNON: $:00in-source
DB#: MetaboBASE0557
InChIKey: HMUJXQRRKBLVOO-AWEZNQCLSA-N
Instrument_type: LC-ESI-TOF
Instrument: impact HD
Ion_mode: N
Collision_energy: 10
InChIKey: HMUJXQRRKBLVOO-AWEZNQCLSA-N
Formula: C16H14O5
MW: 286
ExactMass: 286.084123548
Comments: "license=License CC-BY-NC-SA 4.0 International" "author=Plant Biology, The Noble Foundation, Ardmore, OK, US/Dennis Fine, Daniel Wherritt, and Lloyd Sumner" "instrument type=LC-ESI-TOF" "instrument=impact HD" "ionization=ESI" "ionization mode=negative" "collision gas=Nitrogen" "collision energy=10" "peak width=0.017" "date=2013-11-22 00:43:47+01:00" "column=Waters Acquity BEH C18 1.7um x 2.1 x 150 mm" "retention time=841.8" "raw data file=C:\Data\Confirmed Standards\Confirmed Stds 21Nov13\Isosakuranetin (vial 291) dil.d" "cas number=480-43-3" "SMILES=COc1ccc(cc1)[C@@H]2CC(=O)c3c(cc(cc3O2)O)O" "InChI=InChI=1S/C16H14O5/c1-20-11-4-2-9(3-5-11)14-8-13(19)16-12(18)6-10(17)7-15(16)21-14/h2-7,14,17-18H,8H2,1H3/t14-/m0/s1" "InChIKey=HMUJXQRRKBLVOO-AWEZNQCLSA-N" "molecular formula=C16H14O5" "total exact mass=286.084123548" "SMILES=COC1=CC=C(C=C1)C2CC(=O)C3=C(C=C(C=C3O2)O)O" "InChI=InChI=1S/C16H14O5/c1-20-11-4-2-9(3-5-11)14-8-13(19)16-12(18)6-10(17)7-15(16)21-14/h2-7,14,17-18H,8H2,1H3" "InChIKey=HMUJXQRRKBLVOO-UHFFFAOYSA-N"
Num Peaks: 3
 285 100.000000; 
 286 20.420420; 
 287 2.002002; 


Name: Isosakuranetin
SYNON: $:00in-source
DB#: MetaboBASE0558
InChIKey: HMUJXQRRKBLVOO-AWEZNQCLSA-N
Precursor_type: [M-H]-
Spectrum_type: MS2
PrecursorMZ: 285
Instrument_type: LC-ESI-TOF
Instrument: impact HD
Ion_mode: N
Collision_energy: 50
InChIKey: HMUJXQRRKBLVOO-AWEZNQCLSA-N
Formula: C16H14O5
MW: 286
ExactMass: 286.084123548
Comments: "license=License CC-BY-NC-SA 4.0 International" "author=Plant Biology, The Noble Foundation, Ardmore, OK, US/Dennis Fine, Daniel Wherritt, and Lloyd Sumner" "instrument type=LC-ESI-TOF" "instrument=impact HD" "ionization=ESI" "ionization mode=negative" "ms level=MS2" "precursor m/z=285" "isolation width=5" "collision gas=Nitrogen" "collision energy=50" "peak width=0.018" "date=2013-11-24 01:11:01+01:00" "column=Waters Acquity BEH C18 1.7um x 2.1 x 150 mm" "retention time=838.2" "raw data file=C:\Data\Confirmed Standards\Confirmed stds MSMS 22Nov13\Isosakuranetin (vial 291) MSMS.d" "precursor type=[M-H]-" "mass accuracy=269.640519298208" "mass error=-0.07684754799998927" "cas number=480-43-3" "SMILES=COc1ccc(cc1)[C@@H]2CC(=O)c3c(cc(cc3O2)O)O" "InChI=InChI=1S/C16H14O5/c1-20-11-4-2-9(3-5-11)14-8-13(19)16-12(18)6-10(17)7-15(16)21-14/h2-7,14,17-18H,8H2,1H3/t14-/m0/s1" "InChIKey=HMUJXQRRKBLVOO-AWEZNQCLSA-N" "molecular formula=C16H14O5" "total exact mass=286.084123548" "SMILES=COC1=CC=C(C=C1)C2CC(=O)C3=C(C=C(C=C3O2)O)O" "InChI=InChI=1S/C16H14O5/c1-20-11-4-2-9(3-5-11)14-8-13(19)16-12(18)6-10(17)7-15(16)21-14/h2-7,14,17-18H,8H2,1H3" "InChIKey=HMUJXQRRKBLVOO-UHFFFAOYSA-N"
Num Peaks: 22
 107 10.010010; 
 108 100.000000; 
 109 6.906907; 
 116 6.406406; 
 117 22.422422; 
 119 20.920921; 
 123 7.307307; 
 124 5.605606; 
 130 5.405405; 
 136 47.947948; 
 151 12.212212; 
 156 5.805806; 
 159 27.027027; 
 164 7.007007; 
 183 8.708709; 
 185 5.805806; 
 186 9.809810; 
 187 5.605606; 
 199 9.009009; 
 200 5.705706; 
 225 5.505506; 
 227 19.119119; 


Name: Isosakuranetin
SYNON: $:00in-source
DB#: MetaboBASE0559
InChIKey: HMUJXQRRKBLVOO-AWEZNQCLSA-N
Precursor_type: [M-H]-
Spectrum_type: MS2
PrecursorMZ: 285
Instrument_type: LC-ESI-TOF
Instrument: impact HD
Ion_mode: N
Collision_energy: 40
InChIKey: HMUJXQRRKBLVOO-AWEZNQCLSA-N
Formula: C16H14O5
MW: 286
ExactMass: 286.084123548
Comments: "license=License CC-BY-NC-SA 4.0 International" "author=Plant Biology, The Noble Foundation, Ardmore, OK, US/Dennis Fine, Daniel Wherritt, and Lloyd Sumner" "instrument type=LC-ESI-TOF" "instrument=impact HD" "ionization=ESI" "ionization mode=negative" "ms level=MS2" "precursor m/z=285" "isolation width=5" "collision gas=Nitrogen" "collision energy=40" "peak width=0.016" "date=2013-11-24 01:11:01+01:00" "column=Waters Acquity BEH C18 1.7um x 2.1 x 150 mm" "retention time=838.2" "raw data file=C:\Data\Confirmed Standards\Confirmed stds MSMS 22Nov13\Isosakuranetin (vial 291) MSMS.d" "precursor type=[M-H]-" "mass accuracy=269.640519298208" "mass error=-0.07684754799998927" "cas number=480-43-3" "SMILES=COc1ccc(cc1)[C@@H]2CC(=O)c3c(cc(cc3O2)O)O" "InChI=InChI=1S/C16H14O5/c1-20-11-4-2-9(3-5-11)14-8-13(19)16-12(18)6-10(17)7-15(16)21-14/h2-7,14,17-18H,8H2,1H3/t14-/m0/s1" "InChIKey=HMUJXQRRKBLVOO-AWEZNQCLSA-N" "molecular formula=C16H14O5" "total exact mass=286.084123548" "SMILES=COC1=CC=C(C=C1)C2CC(=O)C3=C(C=C(C=C3O2)O)O" "InChI=InChI=1S/C16H14O5/c1-20-11-4-2-9(3-5-11)14-8-13(19)16-12(18)6-10(17)7-15(16)21-14/h2-7,14,17-18H,8H2,1H3" "InChIKey=HMUJXQRRKBLVOO-UHFFFAOYSA-N"
Num Peaks: 47
 107 12.812813; 
 108 96.496496; 
 109 6.706707; 
 117 6.406406; 
 119 10.210210; 
 121 2.402402; 
 122 2.202202; 
 123 18.618619; 
 124 8.208208; 
 130 3.703704; 
 132 2.202202; 
 132 3.603604; 
 136 100.000000; 
 137 6.206206; 
 143 2.202202; 
 145 7.207207; 
 151 46.146146; 
 152 3.703704; 
 156 5.605606; 
 157 2.502503; 
 158 3.803804; 
 159 17.117117; 
 160 6.006006; 
 164 62.262262; 
 165 4.104104; 
 175 10.110110; 
 177 6.706707; 
 183 5.105105; 
 184 3.303303; 
 185 2.502503; 
 185 2.202202; 
 186 16.116116; 
 187 4.504505; 
 188 2.202202; 
 196 18.118118; 
 198 4.904905; 
 199 5.305305; 
 200 10.910911; 
 201 4.904905; 
 215 4.504505; 
 217 2.302302; 
 225 4.004004; 
 226 2.902903; 
 227 14.814815; 
 228 8.508509; 
 243 7.207207; 
 269 2.202202; 


Name: Kaempferol-3,7,4'-trimethyl ether
SYNON: $:00in-source
DB#: MetaboBASE0560
InChIKey: WSQWAMGRHJQANC-UHFFFAOYSA-N
Instrument_type: LC-ESI-TOF
Instrument: impact HD
Ion_mode: N
Collision_energy: 10
InChIKey: WSQWAMGRHJQANC-UHFFFAOYSA-N
Formula: C18H16O6
MW: 328
ExactMass: 328.09468823199995
Comments: "license=License CC-BY-NC-SA 4.0 International" "author=Plant Biology, The Noble Foundation, Ardmore, OK, US/Dennis Fine, Daniel Wherritt, and Lloyd Sumner" "instrument type=LC-ESI-TOF" "instrument=impact HD" "ionization=ESI" "ionization mode=negative" "collision gas=Nitrogen" "collision energy=10" "peak width=0.015" "date=2013-11-21 20:01:53+01:00" "column=Waters Acquity BEH C18 1.7um x 2.1 x 150 mm" "retention time=1224.6" "raw data file=C:\Data\Confirmed Standards\Confirmed Stds 21Nov13\Kaempferol374'trimethyle 3 uL.d" "cas number=15486-34-7" "SMILES=COc1ccc(cc1)c2c(c(=O)c3c(cc(cc3o2)OC)O)OC" "InChI=InChI=1S/C18H16O6/c1-21-11-6-4-10(5-7-11)17-18(23-3)16(20)15-13(19)8-12(22-2)9-14(15)24-17/h4-9,19H,1-3H3" "InChIKey=WSQWAMGRHJQANC-UHFFFAOYSA-N" "molecular formula=C18H16O6" "total exact mass=328.09468823199995" "SMILES=COC1=CC=C(C=C1)C2=C(C(=O)C3=C(C=C(C=C3O2)OC)O)OC"
Num Peaks: 43
 112 1.001001; 
 116 3.103103; 
 128 2.102102; 
 269 8.508509; 
 270 1.201201; 
 284 2.102102; 
 312 4.104104; 
 315 1.301301; 
 327 100.000000; 
 328 15.815816; 
 329 2.602603; 
 395 13.413413; 
 396 2.802803; 
 457 3.003003; 
 557 1.401401; 
 655 4.204204; 
 656 1.601602; 
 661 5.305305; 
 662 2.002002; 
 677 92.892893; 
 678 31.231231; 
 679 6.006006; 
 680 1.201201; 
 739 2.802803; 
 740 1.101101; 
 745 3.303303; 
 746 1.201201; 
 983 1.301301; 
 1005 1.201201; 
 1021 7.707708; 
 1022 3.803804; 
 1023 1.801802; 
 1027 7.407407; 
 1028 3.803804; 
 1029 1.301301; 
 1039 2.402402; 
 1040 1.301301; 
 1041 1.201201; 
 1095 1.101101; 
 1371 1.101101; 
 1377 1.501502; 
 1378 1.101101; 
 1389 1.201201; 


Name: Sakuranetin
SYNON: $:00in-source
DB#: MetaboBASE0561
InChIKey: DJOJDHGQRNZXQQ-UHFFFAOYSA-N
Precursor_type: [M-H]-
Spectrum_type: MS2
PrecursorMZ: 285
Instrument_type: LC-ESI-TOF
Instrument: impact HD
Ion_mode: N
Collision_energy: 30
InChIKey: DJOJDHGQRNZXQQ-UHFFFAOYSA-N
Formula: C16H14O5
MW: 286
ExactMass: 286.084123548
Comments: "license=License CC-BY-NC-SA 4.0 International" "author=Plant Biology, The Noble Foundation, Ardmore, OK, US/Dennis Fine, Daniel Wherritt, and Lloyd Sumner" "instrument type=LC-ESI-TOF" "instrument=impact HD" "ionization=ESI" "ionization mode=negative" "ms level=MS2" "precursor m/z=285" "isolation width=5" "collision gas=Nitrogen" "collision energy=30" "peak width=0.013" "date=2013-11-24 01:51:45+01:00" "column=Waters Acquity BEH C18 1.7um x 2.1 x 150 mm" "retention time=837" "raw data file=C:\Data\Confirmed Standards\Confirmed stds MSMS 22Nov13\Sakuranetin (vial 292) MSMS.d" "precursor type=[M-H]-" "mass accuracy=269.640519298208" "mass error=-0.07684754799998927" "cas number=2957-21-3" "SMILES=COc1cc(c2c(c1)OC(CC2=O)c3ccc(cc3)O)O" "InChI=InChI=1S/C16H14O5/c1-20-11-6-12(18)16-13(19)8-14(21-15(16)7-11)9-2-4-10(17)5-3-9/h2-7,14,17-18H,8H2,1H3" "InChIKey=DJOJDHGQRNZXQQ-UHFFFAOYSA-N" "molecular formula=C16H14O5" "total exact mass=286.084123548" "SMILES=COC1=CC(=C2C(=O)CC(OC2=C1)C3=CC=C(C=C3)O)O"
Num Peaks: 8
 117 0.500501; 
 119 100.000000; 
 120 5.605606; 
 121 2.302302; 
 149 3.603604; 
 164 0.900901; 
 165 14.814815; 
 166 1.001001; 


Name: Sakuranetin
SYNON: $:00in-source
DB#: MetaboBASE0562
InChIKey: DJOJDHGQRNZXQQ-UHFFFAOYSA-N
Precursor_type: [M-H]-
Spectrum_type: MS2
PrecursorMZ: 285.0774
Instrument_type: LC-ESI-TOF
Instrument: impact HD
Ion_mode: N
Collision_energy: 10
InChIKey: DJOJDHGQRNZXQQ-UHFFFAOYSA-N
Formula: C16H14O5
MW: 286
ExactMass: 286.084123548
Comments: "license=License CC-BY-NC-SA 4.0 International" "author=Plant Biology, The Noble Foundation, Ardmore, OK, US/Dennis Fine, Daniel Wherritt, and Lloyd Sumner" "instrument type=LC-ESI-TOF" "instrument=impact HD" "ionization=ESI" "ionization mode=negative" "ms level=MS2" "precursor m/z=285.0774" "isolation width=5" "collision gas=Nitrogen" "collision energy=10" "peak width=0.0098" "date=2013-11-24 01:51:45+01:00" "column=Waters Acquity BEH C18 1.7um x 2.1 x 150 mm" "retention time=837" "raw data file=C:\Data\Confirmed Standards\Confirmed stds MSMS 22Nov13\Sakuranetin (vial 292) MSMS.d" "precursor type=[M-H]-" "mass accuracy=1.9379017769286007" "mass error=5.524520000221855E-4" "cas number=2957-21-3" "SMILES=COc1cc(c2c(c1)OC(CC2=O)c3ccc(cc3)O)O" "InChI=InChI=1S/C16H14O5/c1-20-11-6-12(18)16-13(19)8-14(21-15(16)7-11)9-2-4-10(17)5-3-9/h2-7,14,17-18H,8H2,1H3" "InChIKey=DJOJDHGQRNZXQQ-UHFFFAOYSA-N" "molecular formula=C16H14O5" "total exact mass=286.084123548" "SMILES=COC1=CC(=C2C(=O)CC(OC2=C1)C3=CC=C(C=C3)O)O"
Num Peaks: 7
 119 0.900901; 
 165 3.803804; 
 166 0.200200; 
 191 0.200200; 
 285 100.000000; 
 286 11.311311; 
 287 1.101101; 


Name: Sakuranetin
SYNON: $:00in-source
DB#: MetaboBASE0563
InChIKey: DJOJDHGQRNZXQQ-UHFFFAOYSA-N
Precursor_type: [M-H]-
Spectrum_type: MS2
PrecursorMZ: 285.0768
Instrument_type: LC-ESI-TOF
Instrument: impact HD
Ion_mode: N
Collision_energy: 20
InChIKey: DJOJDHGQRNZXQQ-UHFFFAOYSA-N
Formula: C16H14O5
MW: 286
ExactMass: 286.084123548
Comments: "license=License CC-BY-NC-SA 4.0 International" "author=Plant Biology, The Noble Foundation, Ardmore, OK, US/Dennis Fine, Daniel Wherritt, and Lloyd Sumner" "instrument type=LC-ESI-TOF" "instrument=impact HD" "ionization=ESI" "ionization mode=negative" "ms level=MS2" "precursor m/z=285.0768" "isolation width=5" "collision gas=Nitrogen" "collision energy=20" "peak width=0.015" "date=2013-11-24 01:51:45+01:00" "column=Waters Acquity BEH C18 1.7um x 2.1 x 150 mm" "retention time=837" "raw data file=C:\Data\Confirmed Standards\Confirmed stds MSMS 22Nov13\Sakuranetin (vial 292) MSMS.d" "precursor type=[M-H]-" "mass accuracy=0.16679014215724466" "mass error=-4.7547999997732404E-5" "cas number=2957-21-3" "SMILES=COc1cc(c2c(c1)OC(CC2=O)c3ccc(cc3)O)O" "InChI=InChI=1S/C16H14O5/c1-20-11-6-12(18)16-13(19)8-14(21-15(16)7-11)9-2-4-10(17)5-3-9/h2-7,14,17-18H,8H2,1H3" "InChIKey=DJOJDHGQRNZXQQ-UHFFFAOYSA-N" "molecular formula=C16H14O5" "total exact mass=286.084123548" "SMILES=COC1=CC(=C2C(=O)CC(OC2=C1)C3=CC=C(C=C3)O)O"
Num Peaks: 11
 119 98.998999; 
 120 5.805806; 
 121 1.601602; 
 145 1.101101; 
 149 1.501502; 
 165 100.000000; 
 166 6.606607; 
 179 0.900901; 
 191 1.201201; 
 285 22.022022; 
 286 2.902903; 


Name: Sakuranetin
SYNON: $:00in-source
DB#: MetaboBASE0564
InChIKey: DJOJDHGQRNZXQQ-UHFFFAOYSA-N
Precursor_type: [M-H]-
Spectrum_type: MS2
PrecursorMZ: 285
Instrument_type: LC-ESI-TOF
Instrument: impact HD
Ion_mode: N
Collision_energy: 40
InChIKey: DJOJDHGQRNZXQQ-UHFFFAOYSA-N
Formula: C16H14O5
MW: 286
ExactMass: 286.084123548
Comments: "license=License CC-BY-NC-SA 4.0 International" "author=Plant Biology, The Noble Foundation, Ardmore, OK, US/Dennis Fine, Daniel Wherritt, and Lloyd Sumner" "instrument type=LC-ESI-TOF" "instrument=impact HD" "ionization=ESI" "ionization mode=negative" "ms level=MS2" "precursor m/z=285" "isolation width=5" "collision gas=Nitrogen" "collision energy=40" "peak width=0.014" "date=2013-11-24 01:51:45+01:00" "column=Waters Acquity BEH C18 1.7um x 2.1 x 150 mm" "retention time=837" "raw data file=C:\Data\Confirmed Standards\Confirmed stds MSMS 22Nov13\Sakuranetin (vial 292) MSMS.d" "precursor type=[M-H]-" "mass accuracy=269.640519298208" "mass error=-0.07684754799998927" "cas number=2957-21-3" "SMILES=COc1cc(c2c(c1)OC(CC2=O)c3ccc(cc3)O)O" "InChI=InChI=1S/C16H14O5/c1-20-11-6-12(18)16-13(19)8-14(21-15(16)7-11)9-2-4-10(17)5-3-9/h2-7,14,17-18H,8H2,1H3" "InChIKey=DJOJDHGQRNZXQQ-UHFFFAOYSA-N" "molecular formula=C16H14O5" "total exact mass=286.084123548" "SMILES=COC1=CC(=C2C(=O)CC(OC2=C1)C3=CC=C(C=C3)O)O"
Num Peaks: 20
 108 0.400400; 
 117 1.201201; 
 118 0.200200; 
 119 100.000000; 
 120 6.506507; 
 121 1.701702; 
 121 0.300300; 
 122 0.300300; 
 124 0.200200; 
 136 0.300300; 
 145 0.200200; 
 148 0.200200; 
 149 2.502503; 
 151 0.100100; 
 164 0.300300; 
 165 2.202202; 
 166 0.200200; 
 180 0.200200; 
 252 0.200200; 
 269 0.200200; 


Name: Sakuranetin
SYNON: $:00in-source
DB#: MetaboBASE0565
InChIKey: DJOJDHGQRNZXQQ-UHFFFAOYSA-N
Instrument_type: LC-ESI-TOF
Instrument: impact HD
Ion_mode: N
InChIKey: DJOJDHGQRNZXQQ-UHFFFAOYSA-N
Formula: C16H14O5
MW: 286
ExactMass: 286.084123548
Comments: "license=License CC-BY-NC-SA 4.0 International" "author=Plant Biology, The Noble Foundation, Ardmore, OK, US/Dennis Fine, Daniel Wherritt, and Lloyd Sumner" "instrument type=LC-ESI-TOF" "instrument=impact HD" "ionization=ESI" "ionization mode=negative" "collision gas=Nitrogen" "peak width=0.015" "date=2013-11-24 01:51:45+01:00" "column=Waters Acquity BEH C18 1.7um x 2.1 x 150 mm" "retention time=837" "raw data file=C:\Data\Confirmed Standards\Confirmed stds MSMS 22Nov13\Sakuranetin (vial 292) MSMS.d" "cas number=2957-21-3" "SMILES=COc1cc(c2c(c1)OC(CC2=O)c3ccc(cc3)O)O" "InChI=InChI=1S/C16H14O5/c1-20-11-6-12(18)16-13(19)8-14(21-15(16)7-11)9-2-4-10(17)5-3-9/h2-7,14,17-18H,8H2,1H3" "InChIKey=DJOJDHGQRNZXQQ-UHFFFAOYSA-N" "molecular formula=C16H14O5" "total exact mass=286.084123548" "SMILES=COC1=CC(=C2C(=O)CC(OC2=C1)C3=CC=C(C=C3)O)O"
Num Peaks: 12
 165 0.200200; 
 285 100.000000; 
 286 24.724725; 
 287 2.202202; 
 288 0.200200; 
 321 0.300300; 
 331 0.200200; 
 571 1.701702; 
 572 0.500501; 
 573 0.100100; 
 593 0.300300; 
 901 0.100100; 


Name: Sakuranetin
SYNON: $:00in-source
DB#: MetaboBASE0566
InChIKey: DJOJDHGQRNZXQQ-UHFFFAOYSA-N
Instrument_type: LC-ESI-TOF
Instrument: impact HD
Ion_mode: N
Collision_energy: 10
InChIKey: DJOJDHGQRNZXQQ-UHFFFAOYSA-N
Formula: C16H14O5
MW: 286
ExactMass: 286.084123548
Comments: "license=License CC-BY-NC-SA 4.0 International" "author=Plant Biology, The Noble Foundation, Ardmore, OK, US/Dennis Fine, Daniel Wherritt, and Lloyd Sumner" "instrument type=LC-ESI-TOF" "instrument=impact HD" "ionization=ESI" "ionization mode=negative" "collision gas=Nitrogen" "collision energy=10" "peak width=0.014" "date=2013-11-22 01:24:30+01:00" "column=Waters Acquity BEH C18 1.7um x 2.1 x 150 mm" "retention time=837" "raw data file=C:\Data\Confirmed Standards\Confirmed Stds 21Nov13\Sakuranetin (vial 292) dil.d" "cas number=2957-21-3" "SMILES=COc1cc(c2c(c1)OC(CC2=O)c3ccc(cc3)O)O" "InChI=InChI=1S/C16H14O5/c1-20-11-6-12(18)16-13(19)8-14(21-15(16)7-11)9-2-4-10(17)5-3-9/h2-7,14,17-18H,8H2,1H3" "InChIKey=DJOJDHGQRNZXQQ-UHFFFAOYSA-N" "molecular formula=C16H14O5" "total exact mass=286.084123548" "SMILES=COC1=CC(=C2C(=O)CC(OC2=C1)C3=CC=C(C=C3)O)O"
Num Peaks: 5
 165 5.905906; 
 285 100.000000; 
 286 15.915916; 
 287 1.601602; 
 571 1.201201; 


Name: Scutellarein-7-glucuronide
SYNON: $:00in-source
DB#: MetaboBASE0567
InChIKey: DJOJDHGQRNZXQQ-AWEZNQCLSA-N
Precursor_type: [M-H]-
Spectrum_type: MS2
PrecursorMZ: 461
Instrument_type: LC-ESI-TOF
Instrument: impact HD
Ion_mode: N
Collision_energy: 20
InChIKey: DJOJDHGQRNZXQQ-AWEZNQCLSA-N
Formula: C21H18O12
MW: 462
ExactMass: 462.07982601599997
Comments: "license=License CC-BY-NC-SA 4.0 International" "author=Plant Biology, The Noble Foundation, Ardmore, OK, US/Dennis Fine, Daniel Wherritt, and Lloyd Sumner" "instrument type=LC-ESI-TOF" "instrument=impact HD" "ionization=ESI" "ionization mode=negative" "ms level=MS2" "precursor m/z=461" "isolation width=5" "collision gas=Nitrogen" "collision energy=20" "peak width=0.012" "date=2013-11-23 23:49:30+01:00" "column=Waters Acquity BEH C18 1.7um x 2.1 x 150 mm" "retention time=301.8" "raw data file=C:\Data\Confirmed Standards\Confirmed stds MSMS 22Nov13\Scutellarein7glucuronide  MSMS.d" "precursor type=[M-H]-" "mass accuracy=157.37530585678888" "mass error=-0.07255001599997968" "cas number=2957-21-3" "SMILES=COc1cc(c2c(c1)O[C@@H](CC2=O)c3ccc(cc3)O)O" "InChI=InChI=1S/C16H14O5/c1-20-11-6-12(18)16-13(19)8-14(21-15(16)7-11)9-2-4-10(17)5-3-9/h2-7,14,17-18H,8H2,1H3/t14-/m0/s1" "InChIKey=DJOJDHGQRNZXQQ-AWEZNQCLSA-N" "molecular formula=C21H18O12" "total exact mass=462.07982601599997" "SMILES=C1=CC(=CC=C1C2=CC(=O)C3=C(C(=C(C=C3O2)OC4C(C(C(C(O4)C(=O)O)O)O)O)O)O)O" "InChI=InChI=1S/C21H18O12/c22-8-3-1-7(2-4-8)10-5-9(23)13-11(31-10)6-12(14(24)15(13)25)32-21-18(28)16(26)17(27)19(33-21)20(29)30/h1-6,16-19,21-22,24-28H,(H,29,30)/t16-,17-,18+,19-,21+/m0/s1" "InChIKey=DJSISFGPUUYILV-ZFORQUDYSA-N"
Num Peaks: 6
 113 10.210210; 
 283 100.000000; 
 284 28.928929; 
 285 78.178178; 
 286 15.115115; 
 287 8.108108; 


Name: Scutellarein-7-glucuronide
SYNON: $:00in-source
DB#: MetaboBASE0568
InChIKey: DJOJDHGQRNZXQQ-AWEZNQCLSA-N
Precursor_type: [M-H]-
Spectrum_type: MS2
PrecursorMZ: 461
Instrument_type: LC-ESI-TOF
Instrument: impact HD
Ion_mode: N
Collision_energy: 40
InChIKey: DJOJDHGQRNZXQQ-AWEZNQCLSA-N
Formula: C21H18O12
MW: 462
ExactMass: 462.07982601599997
Comments: "license=License CC-BY-NC-SA 4.0 International" "author=Plant Biology, The Noble Foundation, Ardmore, OK, US/Dennis Fine, Daniel Wherritt, and Lloyd Sumner" "instrument type=LC-ESI-TOF" "instrument=impact HD" "ionization=ESI" "ionization mode=negative" "ms level=MS2" "precursor m/z=461" "isolation width=5" "collision gas=Nitrogen" "collision energy=40" "peak width=0.017" "date=2013-11-23 23:49:30+01:00" "column=Waters Acquity BEH C18 1.7um x 2.1 x 150 mm" "retention time=301.8" "raw data file=C:\Data\Confirmed Standards\Confirmed stds MSMS 22Nov13\Scutellarein7glucuronide  MSMS.d" "precursor type=[M-H]-" "mass accuracy=157.37530585678888" "mass error=-0.07255001599997968" "cas number=2957-21-3" "SMILES=COc1cc(c2c(c1)O[C@@H](CC2=O)c3ccc(cc3)O)O" "InChI=InChI=1S/C16H14O5/c1-20-11-6-12(18)16-13(19)8-14(21-15(16)7-11)9-2-4-10(17)5-3-9/h2-7,14,17-18H,8H2,1H3/t14-/m0/s1" "InChIKey=DJOJDHGQRNZXQQ-AWEZNQCLSA-N" "molecular formula=C21H18O12" "total exact mass=462.07982601599997" "SMILES=C1=CC(=CC=C1C2=CC(=O)C3=C(C(=C(C=C3O2)OC4C(C(C(C(O4)C(=O)O)O)O)O)O)O)O" "InChI=InChI=1S/C21H18O12/c22-8-3-1-7(2-4-8)10-5-9(23)13-11(31-10)6-12(14(24)15(13)25)32-21-18(28)16(26)17(27)19(33-21)20(29)30/h1-6,16-19,21-22,24-28H,(H,29,30)/t16-,17-,18+,19-,21+/m0/s1" "InChIKey=DJSISFGPUUYILV-ZFORQUDYSA-N"
Num Peaks: 11
 136 10.710711; 
 239 9.309309; 
 255 100.000000; 
 256 25.025025; 
 258 10.210210; 
 283 53.653654; 
 284 18.318318; 
 285 87.987988; 
 286 9.809810; 
 286 9.409409; 
 287 8.908909; 


Name: Scutellarein-7-glucuronide
SYNON: $:00in-source
DB#: MetaboBASE0569
InChIKey: DJOJDHGQRNZXQQ-AWEZNQCLSA-N
Instrument_type: LC-ESI-TOF
Instrument: impact HD
Ion_mode: N
InChIKey: DJOJDHGQRNZXQQ-AWEZNQCLSA-N
Formula: C21H18O12
MW: 462
ExactMass: 462.07982601599997
Comments: "license=License CC-BY-NC-SA 4.0 International" "author=Plant Biology, The Noble Foundation, Ardmore, OK, US/Dennis Fine, Daniel Wherritt, and Lloyd Sumner" "instrument type=LC-ESI-TOF" "instrument=impact HD" "ionization=ESI" "ionization mode=negative" "collision gas=Nitrogen" "peak width=0.015" "date=2013-11-23 23:49:30+01:00" "column=Waters Acquity BEH C18 1.7um x 2.1 x 150 mm" "retention time=301.8" "raw data file=C:\Data\Confirmed Standards\Confirmed stds MSMS 22Nov13\Scutellarein7glucuronide  MSMS.d" "cas number=2957-21-3" "SMILES=COc1cc(c2c(c1)O[C@@H](CC2=O)c3ccc(cc3)O)O" "InChI=InChI=1S/C16H14O5/c1-20-11-6-12(18)16-13(19)8-14(21-15(16)7-11)9-2-4-10(17)5-3-9/h2-7,14,17-18H,8H2,1H3/t14-/m0/s1" "InChIKey=DJOJDHGQRNZXQQ-AWEZNQCLSA-N" "molecular formula=C21H18O12" "total exact mass=462.07982601599997" "SMILES=C1=CC(=CC=C1C2=CC(=O)C3=C(C(=C(C=C3O2)OC4C(C(C(C(O4)C(=O)O)O)O)O)O)O)O" "InChI=InChI=1S/C21H18O12/c22-8-3-1-7(2-4-8)10-5-9(23)13-11(31-10)6-12(14(24)15(13)25)32-21-18(28)16(26)17(27)19(33-21)20(29)30/h1-6,16-19,21-22,24-28H,(H,29,30)/t16-,17-,18+,19-,21+/m0/s1" "InChIKey=DJSISFGPUUYILV-ZFORQUDYSA-N"
Num Peaks: 15
 283 29.529530; 
 284 4.404404; 
 459 100.000000; 
 460 17.617618; 
 461 29.629630; 
 462 5.305305; 
 477 11.511512; 
 478 3.003003; 
 483 1.901902; 
 499 2.102102; 
 527 3.203203; 
 921 2.002002; 
 937 1.901902; 
 939 3.703704; 
 955 3.003003; 


Name: Scutellarein-7-glucuronide
SYNON: $:00in-source
DB#: MetaboBASE0570
InChIKey: DJOJDHGQRNZXQQ-AWEZNQCLSA-N
Instrument_type: LC-ESI-TOF
Instrument: impact HD
Ion_mode: N
Collision_energy: 10
InChIKey: DJOJDHGQRNZXQQ-AWEZNQCLSA-N
Formula: C21H18O12
MW: 462
ExactMass: 462.07982601599997
Comments: "license=License CC-BY-NC-SA 4.0 International" "author=Plant Biology, The Noble Foundation, Ardmore, OK, US/Dennis Fine, Daniel Wherritt, and Lloyd Sumner" "instrument type=LC-ESI-TOF" "instrument=impact HD" "ionization=ESI" "ionization mode=negative" "collision gas=Nitrogen" "collision energy=10" "peak width=0.016" "date=2013-11-21 23:22:16+01:00" "column=Waters Acquity BEH C18 1.7um x 2.1 x 150 mm" "retention time=301.8" "raw data file=C:\Data\Confirmed Standards\Confirmed Stds 21Nov13\Scutellarein7glucuronide dil.d" "cas number=2957-21-3" "SMILES=COc1cc(c2c(c1)O[C@@H](CC2=O)c3ccc(cc3)O)O" "InChI=InChI=1S/C16H14O5/c1-20-11-6-12(18)16-13(19)8-14(21-15(16)7-11)9-2-4-10(17)5-3-9/h2-7,14,17-18H,8H2,1H3/t14-/m0/s1" "InChIKey=DJOJDHGQRNZXQQ-AWEZNQCLSA-N" "molecular formula=C21H18O12" "total exact mass=462.07982601599997" "SMILES=C1=CC(=CC=C1C2=CC(=O)C3=C(C(=C(C=C3O2)OC4C(C(C(C(O4)C(=O)O)O)O)O)O)O)O" "InChI=InChI=1S/C21H18O12/c22-8-3-1-7(2-4-8)10-5-9(23)13-11(31-10)6-12(14(24)15(13)25)32-21-18(28)16(26)17(27)19(33-21)20(29)30/h1-6,16-19,21-22,24-28H,(H,29,30)/t16-,17-,18+,19-,21+/m0/s1" "InChIKey=DJSISFGPUUYILV-ZFORQUDYSA-N"
Num Peaks: 24
 175 1.101101; 
 255 2.402402; 
 283 100.000000; 
 284 13.113113; 
 285 25.725726; 
 286 3.603604; 
 301 1.101101; 
 459 5.605606; 
 460 1.201201; 
 461 21.521522; 
 462 3.803804; 
 481 1.501502; 
 483 3.203203; 
 499 1.801802; 
 556 4.004004; 
 921 3.703704; 
 922 1.601602; 
 923 6.206206; 
 924 2.402402; 
 937 1.601602; 
 939 5.105105; 
 940 1.801802; 
 943 1.001001; 
 955 1.601602; 


Name: Scutellarein-7-glucuronide
SYNON: $:00in-source
DB#: MetaboBASE0571
InChIKey: DJOJDHGQRNZXQQ-AWEZNQCLSA-N
Precursor_type: [M-H]-
Spectrum_type: MS2
PrecursorMZ: 461.0715
Instrument_type: LC-ESI-TOF
Instrument: impact HD
Ion_mode: N
Collision_energy: 10
InChIKey: DJOJDHGQRNZXQQ-AWEZNQCLSA-N
Formula: C21H18O12
MW: 462
ExactMass: 462.07982601599997
Comments: "license=License CC-BY-NC-SA 4.0 International" "author=Plant Biology, The Noble Foundation, Ardmore, OK, US/Dennis Fine, Daniel Wherritt, and Lloyd Sumner" "instrument type=LC-ESI-TOF" "instrument=impact HD" "ionization=ESI" "ionization mode=negative" "ms level=MS2" "precursor m/z=461.0715" "isolation width=5" "collision gas=Nitrogen" "collision energy=10" "peak width=0.0096" "date=2013-11-23 23:49:30+01:00" "column=Waters Acquity BEH C18 1.7um x 2.1 x 150 mm" "retention time=301.8" "raw data file=C:\Data\Confirmed Standards\Confirmed stds MSMS 22Nov13\Scutellarein7glucuronide  MSMS.d" "precursor type=[M-H]-" "mass accuracy=2.27733876408567" "mass error=-0.001050015999965126" "cas number=2957-21-3" "SMILES=COc1cc(c2c(c1)O[C@@H](CC2=O)c3ccc(cc3)O)O" "InChI=InChI=1S/C16H14O5/c1-20-11-6-12(18)16-13(19)8-14(21-15(16)7-11)9-2-4-10(17)5-3-9/h2-7,14,17-18H,8H2,1H3/t14-/m0/s1" "InChIKey=DJOJDHGQRNZXQQ-AWEZNQCLSA-N" "molecular formula=C21H18O12" "total exact mass=462.07982601599997" "SMILES=C1=CC(=CC=C1C2=CC(=O)C3=C(C(=C(C=C3O2)OC4C(C(C(C(O4)C(=O)O)O)O)O)O)O)O" "InChI=InChI=1S/C21H18O12/c22-8-3-1-7(2-4-8)10-5-9(23)13-11(31-10)6-12(14(24)15(13)25)32-21-18(28)16(26)17(27)19(33-21)20(29)30/h1-6,16-19,21-22,24-28H,(H,29,30)/t16-,17-,18+,19-,21+/m0/s1" "InChIKey=DJSISFGPUUYILV-ZFORQUDYSA-N"
Num Peaks: 6
 283 100.000000; 
 284 17.617618; 
 285 34.934935; 
 459 10.910911; 
 460 10.810811; 
 461 30.830831; 


Name: Scutellarein-7-glucuronide
SYNON: $:00in-source
DB#: MetaboBASE0572
InChIKey: DJOJDHGQRNZXQQ-AWEZNQCLSA-N
Precursor_type: [M-H]-
Spectrum_type: MS2
PrecursorMZ: 461
Instrument_type: LC-ESI-TOF
Instrument: impact HD
Ion_mode: N
Collision_energy: 30
InChIKey: DJOJDHGQRNZXQQ-AWEZNQCLSA-N
Formula: C21H18O12
MW: 462
ExactMass: 462.07982601599997
Comments: "license=License CC-BY-NC-SA 4.0 International" "author=Plant Biology, The Noble Foundation, Ardmore, OK, US/Dennis Fine, Daniel Wherritt, and Lloyd Sumner" "instrument type=LC-ESI-TOF" "instrument=impact HD" "ionization=ESI" "ionization mode=negative" "ms level=MS2" "precursor m/z=461" "isolation width=5" "collision gas=Nitrogen" "collision energy=30" "peak width=0.016" "date=2013-11-23 23:49:30+01:00" "column=Waters Acquity BEH C18 1.7um x 2.1 x 150 mm" "retention time=301.8" "raw data file=C:\Data\Confirmed Standards\Confirmed stds MSMS 22Nov13\Scutellarein7glucuronide  MSMS.d" "precursor type=[M-H]-" "mass accuracy=157.37530585678888" "mass error=-0.07255001599997968" "cas number=2957-21-3" "SMILES=COc1cc(c2c(c1)O[C@@H](CC2=O)c3ccc(cc3)O)O" "InChI=InChI=1S/C16H14O5/c1-20-11-6-12(18)16-13(19)8-14(21-15(16)7-11)9-2-4-10(17)5-3-9/h2-7,14,17-18H,8H2,1H3/t14-/m0/s1" "InChIKey=DJOJDHGQRNZXQQ-AWEZNQCLSA-N" "molecular formula=C21H18O12" "total exact mass=462.07982601599997" "SMILES=C1=CC(=CC=C1C2=CC(=O)C3=C(C(=C(C=C3O2)OC4C(C(C(C(O4)C(=O)O)O)O)O)O)O)O" "InChI=InChI=1S/C21H18O12/c22-8-3-1-7(2-4-8)10-5-9(23)13-11(31-10)6-12(14(24)15(13)25)32-21-18(28)16(26)17(27)19(33-21)20(29)30/h1-6,16-19,21-22,24-28H,(H,29,30)/t16-,17-,18+,19-,21+/m0/s1" "InChIKey=DJSISFGPUUYILV-ZFORQUDYSA-N"
Num Peaks: 9
 213 4.904905; 
 255 29.529530; 
 256 5.405405; 
 283 100.000000; 
 283 7.307307; 
 284 22.622623; 
 285 70.070070; 
 286 14.814815; 
 297 5.305305; 


Name: 5,8-Dihydroxyflavanone
SYNON: $:00in-source
DB#: MetaboBASE0573
InChIKey: JJRIYFGZKRETII-UHFFFAOYSA-N
Precursor_type: [M-H]-
Spectrum_type: MS2
PrecursorMZ: 255.0636
Instrument_type: LC-ESI-TOF
Instrument: impact HD
Ion_mode: N
Collision_energy: 20
InChIKey: JJRIYFGZKRETII-UHFFFAOYSA-N
Formula: C15H12O4
MW: 256
ExactMass: 256.073558864
Comments: "license=License CC-BY-NC-SA 4.0 International" "author=Plant Biology, The Noble Foundation, Ardmore, OK, US/Dennis Fine, Daniel Wherritt, and Lloyd Sumner" "instrument type=LC-ESI-TOF" "instrument=impact HD" "ionization=ESI" "ionization mode=negative" "ms level=MS2" "precursor m/z=255.0636" "isolation width=5" "collision gas=Nitrogen" "collision energy=20" "peak width=0.011" "date=2013-11-23 14:59:32+01:00" "column=Waters Acquity BEH C18 1.7um x 2.1 x 150 mm" "retention time=750" "raw data file=C:\Data\Confirmed Standards\Confirmed stds MSMS 22Nov13\5,8Dihydroxyflavanone  MSMS.d" "precursor type=[M-H]-" "mass accuracy=10.518411878478984" "mass error=-0.002682864000007612" "molecular formula=C15H12O4" "total exact mass=256.073558864" "SMILES=C1=CC(=C2C(=C1O)OC(CC2=O)C3=CC=CC=C3)O" "InChI=InChI=1S/C15H12O4/c16-10-6-7-11(17)15-14(10)12(18)8-13(19-15)9-4-2-1-3-5-9/h1-7,13,16-17H,8H2" "InChIKey=JJRIYFGZKRETII-UHFFFAOYSA-N"
Num Peaks: 2
 227 38.838839; 
 255 100.000000; 


Name: 5,8-Dihydroxyflavanone
SYNON: $:00in-source
DB#: MetaboBASE0574
InChIKey: JJRIYFGZKRETII-UHFFFAOYSA-N
Instrument_type: LC-ESI-TOF
Instrument: impact HD
Ion_mode: N
InChIKey: JJRIYFGZKRETII-UHFFFAOYSA-N
Formula: C15H12O4
MW: 256
ExactMass: 256.073558864
Comments: "license=License CC-BY-NC-SA 4.0 International" "author=Plant Biology, The Noble Foundation, Ardmore, OK, US/Dennis Fine, Daniel Wherritt, and Lloyd Sumner" "instrument type=LC-ESI-TOF" "instrument=impact HD" "ionization=ESI" "ionization mode=negative" "collision gas=Nitrogen" "peak width=0.017" "date=2013-11-23 14:59:32+01:00" "column=Waters Acquity BEH C18 1.7um x 2.1 x 150 mm" "retention time=750" "raw data file=C:\Data\Confirmed Standards\Confirmed stds MSMS 22Nov13\5,8Dihydroxyflavanone  MSMS.d" "molecular formula=C15H12O4" "total exact mass=256.073558864" "SMILES=C1=CC(=C2C(=C1O)OC(CC2=O)C3=CC=CC=C3)O" "InChI=InChI=1S/C15H12O4/c16-10-6-7-11(17)15-14(10)12(18)8-13(19-15)9-4-2-1-3-5-9/h1-7,13,16-17H,8H2" "InChIKey=JJRIYFGZKRETII-UHFFFAOYSA-N"
Num Peaks: 11
 112 18.018018; 
 174 12.812813; 
 235 15.215215; 
 242 17.517518; 
 248 16.216216; 
 253 100.000000; 
 254 15.315315; 
 255 76.976977; 
 256 11.211211; 
 666 13.813814; 
 1076 10.010010; 


Name: 6-Hydroxyflavanone
SYNON: $:00in-source
DB#: MetaboBASE0575
InChIKey: XYHWPQUEOOBIOW-UHFFFAOYSA-N
Instrument_type: LC-ESI-TOF
Instrument: impact HD
Ion_mode: N
InChIKey: XYHWPQUEOOBIOW-UHFFFAOYSA-N
Formula: C15H12O3
MW: 240
ExactMass: 240.078644244
Comments: "license=License CC-BY-NC-SA 4.0 International" "author=Plant Biology, The Noble Foundation, Ardmore, OK, US/Dennis Fine, Daniel Wherritt, and Lloyd Sumner" "instrument type=LC-ESI-TOF" "instrument=impact HD" "ionization=ESI" "ionization mode=negative" "collision gas=Nitrogen" "peak width=0.011" "date=2013-11-23 13:38:02+01:00" "column=Waters Acquity BEH C18 1.7um x 2.1 x 150 mm" "retention time=781.2" "raw data file=C:\Data\Confirmed Standards\Confirmed stds MSMS 22Nov13\6-Hydroxyflavanone  MSMS.d" "cas number=4250-77-5" "SMILES=c1ccc(cc1)C2CC(=O)c3cc(ccc3O2)O" "InChI=InChI=1S/C15H12O3/c16-11-6-7-14-12(8-11)13(17)9-15(18-14)10-4-2-1-3-5-10/h1-8,15-16H,9H2" "InChIKey=XYHWPQUEOOBIOW-UHFFFAOYSA-N" "molecular formula=C15H12O3" "total exact mass=240.078644244" "SMILES=C1C(OC2=C(C1=O)C=C(C=C2)O)C3=CC=CC=C3"
Num Peaks: 6
 239 100.000000; 
 240 11.111111; 
 241 1.101101; 
 479 1.201201; 
 666 1.201201; 
 1012 1.201201; 


Name: 6-Hydroxyflavanone
SYNON: $:00in-source
DB#: MetaboBASE0576
InChIKey: XYHWPQUEOOBIOW-UHFFFAOYSA-N
Precursor_type: [M-H]-
Spectrum_type: MS2
PrecursorMZ: 239.0693
Instrument_type: LC-ESI-TOF
Instrument: impact HD
Ion_mode: N
Collision_energy: 20
InChIKey: XYHWPQUEOOBIOW-UHFFFAOYSA-N
Formula: C15H12O3
MW: 240
ExactMass: 240.078644244
Comments: "license=License CC-BY-NC-SA 4.0 International" "author=Plant Biology, The Noble Foundation, Ardmore, OK, US/Dennis Fine, Daniel Wherritt, and Lloyd Sumner" "instrument type=LC-ESI-TOF" "instrument=impact HD" "ionization=ESI" "ionization mode=negative" "ms level=MS2" "precursor m/z=239.0693" "isolation width=5" "collision gas=Nitrogen" "collision energy=20" "peak width=0.01" "date=2013-11-23 13:38:02+01:00" "column=Waters Acquity BEH C18 1.7um x 2.1 x 150 mm" "retention time=781.2" "raw data file=C:\Data\Confirmed Standards\Confirmed stds MSMS 22Nov13\6-Hydroxyflavanone  MSMS.d" "precursor type=[M-H]-" "mass accuracy=8.651232090504193" "mass error=-0.0020682440000143743" "cas number=4250-77-5" "SMILES=c1ccc(cc1)C2CC(=O)c3cc(ccc3O2)O" "InChI=InChI=1S/C15H12O3/c16-11-6-7-14-12(8-11)13(17)9-15(18-14)10-4-2-1-3-5-10/h1-8,15-16H,9H2" "InChIKey=XYHWPQUEOOBIOW-UHFFFAOYSA-N" "molecular formula=C15H12O3" "total exact mass=240.078644244" "SMILES=C1C(OC2=C(C1=O)C=C(C=C2)O)C3=CC=CC=C3"
Num Peaks: 11
 107 30.730731; 
 108 100.000000; 
 109 13.913914; 
 135 74.174174; 
 136 12.112112; 
 195 20.720721; 
 197 12.412412; 
 211 17.317317; 
 221 17.817818; 
 239 71.071071; 
 240 11.611612; 


Name: 6-Hydroxyflavanone
SYNON: $:00in-source
DB#: MetaboBASE0577
InChIKey: XYHWPQUEOOBIOW-UHFFFAOYSA-N
Precursor_type: [M-H]-
Spectrum_type: MS2
PrecursorMZ: 239.0709
Instrument_type: LC-ESI-TOF
Instrument: impact HD
Ion_mode: N
Collision_energy: 10
InChIKey: XYHWPQUEOOBIOW-UHFFFAOYSA-N
Formula: C15H12O3
MW: 240
ExactMass: 240.07864424399997
Comments: "license=License CC-BY-NC-SA 4.0 International" "author=Plant Biology, The Noble Foundation, Ardmore, OK, US/Dennis Fine, Daniel Wherritt, and Lloyd Sumner" "instrument type=LC-ESI-TOF" "instrument=impact HD" "ionization=ESI" "ionization mode=negative" "ms level=MS2" "precursor m/z=239.0709" "isolation width=5" "collision gas=Nitrogen" "collision energy=10" "peak width=0.014" "date=2013-11-23 13:38:02+01:00" "column=Waters Acquity BEH C18 1.7um x 2.1 x 150 mm" "retention time=781.2" "raw data file=C:\Data\Confirmed Standards\Confirmed stds MSMS 22Nov13\6-Hydroxyflavanone  MSMS.d" "precursor type=[M-H]-" "mass accuracy=1.9585988925865987" "mass error=-4.6824399998968147E-4" "cas number=4250-77-5" "SMILES=c1ccc(cc1)C2CC(=O)c3cc(ccc3O2)O" "InChI=InChI=1S/C15H12O3/c16-11-6-7-14-12(8-11)13(17)9-15(18-14)10-4-2-1-3-5-10/h1-8,15-16H,9H2" "InChIKey=XYHWPQUEOOBIOW-UHFFFAOYSA-N" "molecular formula=C15H12O3" "total exact mass=240.07864424399997" "SMILES=C1C(OC2=C(C1=O)C=C(C=C2)O)C3=CC=CC=C3"
Num Peaks: 8
 108 1.701702; 
 123 0.700701; 
 135 4.304304; 
 195 1.101101; 
 211 1.201201; 
 239 100.000000; 
 240 13.413413; 
 241 1.601602; 


Name: 3',4'-Dimethoxy-7-hydroxyflavanone
SYNON: $:00in-source
DB#: MetaboBASE0578
InChIKey: MEDOAKSPIIOKFU-UHFFFAOYSA-N
Spectrum_type: MS2
PrecursorMZ: 311.0947
Instrument_type: LC-ESI-TOF
Instrument: impact HD
Ion_mode: N
Collision_energy: 10
InChIKey: MEDOAKSPIIOKFU-UHFFFAOYSA-N
Formula: C17H14O5
MW: 298
ExactMass: 298.084123548
Comments: "license=License CC-BY-NC-SA 4.0 International" "author=Plant Biology, The Noble Foundation, Ardmore, OK, US/Dennis Fine, Daniel Wherritt, and Lloyd Sumner" "instrument type=LC-ESI-TOF" "instrument=impact HD" "ionization=ESI" "ionization mode=negative" "ms level=MS2" "precursor m/z=311.0947" "isolation width=5" "collision gas=Nitrogen" "collision energy=10" "peak width=0.013" "date=2014-01-11 06:40:36+01:00" "column=Waters Acquity BEH C18 1.7um x 2.1 x 150 mm" "retention time=744.6" "raw data file=C:\Data\Confirmed Standards\14Jan10 Confirmed stds MSMS\3'4'Dimethoxy7hydroxyflavanone.d" "molecular formula=C17H14O5" "total exact mass=298.084123548" "SMILES=COC1=C(C=C(C=C1)C2=CC(=O)C3=C(O2)C=C(C=C3)O)OC" "InChI=InChI=1S/C17H14O5/c1-20-14-6-3-10(7-17(14)21-2)15-9-13(19)12-5-4-11(18)8-16(12)22-15/h3-9,18H,1-2H3" "InChIKey=MEDOAKSPIIOKFU-UHFFFAOYSA-N"
Num Peaks: 2
 311 100.000000; 
 312 13.013013; 


Name: 3',4'-Dimethoxy-7-hydroxyflavanone
SYNON: $:00in-source
DB#: MetaboBASE0579
InChIKey: MEDOAKSPIIOKFU-UHFFFAOYSA-N
Spectrum_type: MS2
PrecursorMZ: 311.0946
Instrument_type: LC-ESI-TOF
Instrument: impact HD
Ion_mode: N
Collision_energy: 20
InChIKey: MEDOAKSPIIOKFU-UHFFFAOYSA-N
Formula: C17H14O5
MW: 298
ExactMass: 298.084123548
Comments: "license=License CC-BY-NC-SA 4.0 International" "author=Plant Biology, The Noble Foundation, Ardmore, OK, US/Dennis Fine, Daniel Wherritt, and Lloyd Sumner" "instrument type=LC-ESI-TOF" "instrument=impact HD" "ionization=ESI" "ionization mode=negative" "ms level=MS2" "precursor m/z=311.0946" "isolation width=5" "collision gas=Nitrogen" "collision energy=20" "peak width=0.014" "date=2014-01-11 06:40:36+01:00" "column=Waters Acquity BEH C18 1.7um x 2.1 x 150 mm" "retention time=744.6" "raw data file=C:\Data\Confirmed Standards\14Jan10 Confirmed stds MSMS\3'4'Dimethoxy7hydroxyflavanone.d" "molecular formula=C17H14O5" "total exact mass=298.084123548" "SMILES=COC1=C(C=C(C=C1)C2=CC(=O)C3=C(O2)C=C(C=C3)O)OC" "InChI=InChI=1S/C17H14O5/c1-20-14-6-3-10(7-17(14)21-2)15-9-13(19)12-5-4-11(18)8-16(12)22-15/h3-9,18H,1-2H3" "InChIKey=MEDOAKSPIIOKFU-UHFFFAOYSA-N"
Num Peaks: 9
 253 3.303303; 
 267 7.207207; 
 281 19.719720; 
 282 2.602603; 
 295 14.014014; 
 296 76.676677; 
 297 9.009009; 
 311 100.000000; 
 312 12.812813; 


Name: 3',4'-Dimethoxy-7-hydroxyflavanone
SYNON: $:00in-source
DB#: MetaboBASE0580
InChIKey: MEDOAKSPIIOKFU-UHFFFAOYSA-N
Spectrum_type: MS2
PrecursorMZ: 311.1
Instrument_type: LC-ESI-TOF
Instrument: impact HD
Ion_mode: N
Collision_energy: 40
InChIKey: MEDOAKSPIIOKFU-UHFFFAOYSA-N
Formula: C17H14O5
MW: 298
ExactMass: 298.084123548
Comments: "license=License CC-BY-NC-SA 4.0 International" "author=Plant Biology, The Noble Foundation, Ardmore, OK, US/Dennis Fine, Daniel Wherritt, and Lloyd Sumner" "instrument type=LC-ESI-TOF" "instrument=impact HD" "ionization=ESI" "ionization mode=negative" "ms level=MS2" "precursor m/z=311.1" "isolation width=5" "collision gas=Nitrogen" "collision energy=40" "peak width=0.015" "date=2014-01-11 06:40:36+01:00" "column=Waters Acquity BEH C18 1.7um x 2.1 x 150 mm" "retention time=744.6" "raw data file=C:\Data\Confirmed Standards\14Jan10 Confirmed stds MSMS\3'4'Dimethoxy7hydroxyflavanone.d" "molecular formula=C17H14O5" "total exact mass=298.084123548" "SMILES=COC1=C(C=C(C=C1)C2=CC(=O)C3=C(O2)C=C(C=C3)O)OC" "InChI=InChI=1S/C17H14O5/c1-20-14-6-3-10(7-17(14)21-2)15-9-13(19)12-5-4-11(18)8-16(12)22-15/h3-9,18H,1-2H3" "InChIKey=MEDOAKSPIIOKFU-UHFFFAOYSA-N"
Num Peaks: 8
 225 3.803804; 
 253 100.000000; 
 254 9.609610; 
 267 17.917918; 
 268 2.302302; 
 281 11.311311; 
 295 22.322322; 
 296 3.703704; 


Name: 3',4'-Dimethoxy-7-hydroxyflavanone
SYNON: $:00in-source
DB#: MetaboBASE0581
InChIKey: MEDOAKSPIIOKFU-UHFFFAOYSA-N
Instrument_type: LC-ESI-TOF
Instrument: impact HD
Ion_mode: N
InChIKey: MEDOAKSPIIOKFU-UHFFFAOYSA-N
Formula: C17H14O5
MW: 298
ExactMass: 298.084123548
Comments: "license=License CC-BY-NC-SA 4.0 International" "author=Plant Biology, The Noble Foundation, Ardmore, OK, US/Dennis Fine, Daniel Wherritt, and Lloyd Sumner" "instrument type=LC-ESI-TOF" "instrument=impact HD" "ionization=ESI" "ionization mode=negative" "collision gas=Nitrogen" "peak width=0.013" "date=2014-01-11 06:40:36+01:00" "column=Waters Acquity BEH C18 1.7um x 2.1 x 150 mm" "retention time=744.6" "raw data file=C:\Data\Confirmed Standards\14Jan10 Confirmed stds MSMS\3'4'Dimethoxy7hydroxyflavanone.d" "molecular formula=C17H14O5" "total exact mass=298.084123548" "SMILES=COC1=C(C=C(C=C1)C2=CC(=O)C3=C(O2)C=C(C=C3)O)OC" "InChI=InChI=1S/C17H14O5/c1-20-14-6-3-10(7-17(14)21-2)15-9-13(19)12-5-4-11(18)8-16(12)22-15/h3-9,18H,1-2H3" "InChIKey=MEDOAKSPIIOKFU-UHFFFAOYSA-N"
Num Peaks: 7
 311 100.000000; 
 312 16.516517; 
 623 42.742743; 
 624 14.914915; 
 625 3.103103; 
 935 3.903904; 
 936 2.302302; 


Name: 3',4'-Dimethoxy-7-hydroxyflavanone
SYNON: $:00in-source
DB#: MetaboBASE0582
InChIKey: MEDOAKSPIIOKFU-UHFFFAOYSA-N
Instrument_type: LC-ESI-TOF
Instrument: impact HD
Ion_mode: N
Collision_energy: 10
InChIKey: MEDOAKSPIIOKFU-UHFFFAOYSA-N
Formula: C17H14O5
MW: 298
ExactMass: 298.084123548
Comments: "license=License CC-BY-NC-SA 4.0 International" "author=Plant Biology, The Noble Foundation, Ardmore, OK, US/Dennis Fine, Daniel Wherritt, and Lloyd Sumner" "instrument type=LC-ESI-TOF" "instrument=impact HD" "ionization=ESI" "ionization mode=negative" "collision gas=Nitrogen" "collision energy=10" "peak width=0.013" "date=2013-11-22 02:05:19+01:00" "column=Waters Acquity BEH C18 1.7um x 2.1 x 150 mm" "retention time=745.2" "raw data file=C:\Data\Confirmed Standards\Confirmed Stds 21Nov13\3'4'Dimethoxy7hydroxyflavanone.d" "molecular formula=C17H14O5" "total exact mass=298.084123548" "SMILES=COC1=C(C=C(C=C1)C2=CC(=O)C3=C(O2)C=C(C=C3)O)OC" "InChI=InChI=1S/C17H14O5/c1-20-14-6-3-10(7-17(14)21-2)15-9-13(19)12-5-4-11(18)8-16(12)22-15/h3-9,18H,1-2H3" "InChIKey=MEDOAKSPIIOKFU-UHFFFAOYSA-N"
Num Peaks: 6
 296 2.002002; 
 311 100.000000; 
 312 18.118118; 
 313 1.901902; 
 623 3.203203; 
 624 1.101101; 


Name: 3',4'-Dimethoxy-7-hydroxyflavanone
SYNON: $:00in-source
DB#: MetaboBASE0583
InChIKey: MEDOAKSPIIOKFU-UHFFFAOYSA-N
Instrument_type: LC-ESI-TOF
Instrument: impact HD
Ion_mode: N
InChIKey: MEDOAKSPIIOKFU-UHFFFAOYSA-N
Formula: C17H14O5
MW: 298
ExactMass: 298.084123548
Comments: "license=License CC-BY-NC-SA 4.0 International" "author=Plant Biology, The Noble Foundation, Ardmore, OK, US/Dennis Fine, Daniel Wherritt, and Lloyd Sumner" "instrument type=LC-ESI-TOF" "instrument=impact HD" "ionization=ESI" "ionization mode=negative" "collision gas=Nitrogen" "peak width=0.012" "date=2013-11-24 02:32:34+01:00" "column=Waters Acquity BEH C18 1.7um x 2.1 x 150 mm" "retention time=744" "raw data file=C:\Data\Confirmed Standards\Confirmed stds MSMS 22Nov13\3'4'Dimethoxy7hydroxyfla MSMS.d" "molecular formula=C17H14O5" "total exact mass=298.084123548" "SMILES=COC1=C(C=C(C=C1)C2=CC(=O)C3=C(O2)C=C(C=C3)O)OC" "InChI=InChI=1S/C17H14O5/c1-20-14-6-3-10(7-17(14)21-2)15-9-13(19)12-5-4-11(18)8-16(12)22-15/h3-9,18H,1-2H3" "InChIKey=MEDOAKSPIIOKFU-UHFFFAOYSA-N"
Num Peaks: 13
 116 0.300300; 
 311 100.000000; 
 312 14.514515; 
 313 1.401401; 
 347 0.500501; 
 379 1.601602; 
 380 0.300300; 
 623 30.030030; 
 624 9.709710; 
 625 1.901902; 
 626 0.300300; 
 935 1.801802; 
 936 0.900901; 


Name: 3',4'-Dimethoxy-7-hydroxyflavanone
SYNON: $:00in-source
DB#: MetaboBASE0584
InChIKey: MEDOAKSPIIOKFU-UHFFFAOYSA-N
Spectrum_type: MS2
PrecursorMZ: 311.0953
Instrument_type: LC-ESI-TOF
Instrument: impact HD
Ion_mode: N
Collision_energy: 30
InChIKey: MEDOAKSPIIOKFU-UHFFFAOYSA-N
Formula: C17H14O5
MW: 298
ExactMass: 298.084123548
Comments: "license=License CC-BY-NC-SA 4.0 International" "author=Plant Biology, The Noble Foundation, Ardmore, OK, US/Dennis Fine, Daniel Wherritt, and Lloyd Sumner" "instrument type=LC-ESI-TOF" "instrument=impact HD" "ionization=ESI" "ionization mode=negative" "ms level=MS2" "precursor m/z=311.0953" "isolation width=5" "collision gas=Nitrogen" "collision energy=30" "peak width=0.016" "date=2014-01-11 06:40:36+01:00" "column=Waters Acquity BEH C18 1.7um x 2.1 x 150 mm" "retention time=744.6" "raw data file=C:\Data\Confirmed Standards\14Jan10 Confirmed stds MSMS\3'4'Dimethoxy7hydroxyflavanone.d" "molecular formula=C17H14O5" "total exact mass=298.084123548" "SMILES=COC1=C(C=C(C=C1)C2=CC(=O)C3=C(O2)C=C(C=C3)O)OC" "InChI=InChI=1S/C17H14O5/c1-20-14-6-3-10(7-17(14)21-2)15-9-13(19)12-5-4-11(18)8-16(12)22-15/h3-9,18H,1-2H3" "InChIKey=MEDOAKSPIIOKFU-UHFFFAOYSA-N"
Num Peaks: 12
 253 62.162162; 
 254 7.907908; 
 266 4.704705; 
 267 34.934935; 
 268 4.704705; 
 279 2.502503; 
 281 100.000000; 
 282 11.311311; 
 295 77.577578; 
 296 42.442442; 
 297 4.704705; 
 311 5.605606; 


Name: 3',4'-Dimethoxy-7-hydroxyflavanone
SYNON: $:00in-source
DB#: MetaboBASE0585
InChIKey: MEDOAKSPIIOKFU-UHFFFAOYSA-N
Spectrum_type: MS2
PrecursorMZ: 311.1
Instrument_type: LC-ESI-TOF
Instrument: impact HD
Ion_mode: N
Collision_energy: 50
InChIKey: MEDOAKSPIIOKFU-UHFFFAOYSA-N
Formula: C17H14O5
MW: 298
ExactMass: 298.084123548
Comments: "license=License CC-BY-NC-SA 4.0 International" "author=Plant Biology, The Noble Foundation, Ardmore, OK, US/Dennis Fine, Daniel Wherritt, and Lloyd Sumner" "instrument type=LC-ESI-TOF" "instrument=impact HD" "ionization=ESI" "ionization mode=negative" "ms level=MS2" "precursor m/z=311.1" "isolation width=5" "collision gas=Nitrogen" "collision energy=50" "peak width=0.017" "date=2014-01-11 06:40:36+01:00" "column=Waters Acquity BEH C18 1.7um x 2.1 x 150 mm" "retention time=744.6" "raw data file=C:\Data\Confirmed Standards\14Jan10 Confirmed stds MSMS\3'4'Dimethoxy7hydroxyflavanone.d" "molecular formula=C17H14O5" "total exact mass=298.084123548" "SMILES=COC1=C(C=C(C=C1)C2=CC(=O)C3=C(O2)C=C(C=C3)O)OC" "InChI=InChI=1S/C17H14O5/c1-20-14-6-3-10(7-17(14)21-2)15-9-13(19)12-5-4-11(18)8-16(12)22-15/h3-9,18H,1-2H3" "InChIKey=MEDOAKSPIIOKFU-UHFFFAOYSA-N"
Num Peaks: 10
 117 2.002002; 
 149 4.004004; 
 224 2.702703; 
 225 14.214214; 
 237 3.303303; 
 253 100.000000; 
 254 10.310310; 
 265 3.903904; 
 267 9.709710; 
 295 6.406406; 


Name: 7-Hydroxy-3'-methoxyflavone
SYNON: $:00in-source
DB#: MetaboBASE0586
InChIKey: PTXIWVJSAQPKEY-UHFFFAOYSA-N
Precursor_type: [M-H]-
Spectrum_type: MS2
PrecursorMZ: 267.0666
Instrument_type: LC-ESI-TOF
Instrument: impact HD
Ion_mode: N
Collision_energy: 20
InChIKey: PTXIWVJSAQPKEY-UHFFFAOYSA-N
Formula: C16H12O4
MW: 268
ExactMass: 268.073558864
Comments: "license=License CC-BY-NC-SA 4.0 International" "author=Plant Biology, The Noble Foundation, Ardmore, OK, US/Dennis Fine, Daniel Wherritt, and Lloyd Sumner" "instrument type=LC-ESI-TOF" "instrument=impact HD" "ionization=ESI" "ionization mode=negative" "ms level=MS2" "precursor m/z=267.0666" "isolation width=5" "collision gas=Nitrogen" "collision energy=20" "peak width=0.012" "date=2013-11-23 04:07:21+01:00" "column=Waters Acquity BEH C18 1.7um x 2.1 x 150 mm" "retention time=720.6" "raw data file=C:\Data\Confirmed Standards\Confirmed stds MSMS 22Nov13\7Hydroxy3'methoxyflavone MSMS.d" "precursor type=[M-H]-" "mass accuracy=1.1874790781711033" "mass error=3.171359999782908E-4" "SMILES=COc1cccc(c1)c2cc(=O)c3ccc(cc3o2)O" "InChI=InChI=1S/C16H12O4/c1-19-12-4-2-3-10(7-12)15-9-14(18)13-6-5-11(17)8-16(13)20-15/h2-9,17H,1H3" "InChIKey=PTXIWVJSAQPKEY-UHFFFAOYSA-N" "molecular formula=C16H12O4" "total exact mass=268.073558864" "SMILES=COC1=CC=CC(=C1)C2=CC(=O)C3=C(O2)C=C(C=C3)O"
Num Peaks: 9
 223 0.200200; 
 224 7.307307; 
 225 1.101101; 
 252 61.161161; 
 253 6.406406; 
 254 0.800801; 
 267 100.000000; 
 268 10.210210; 
 269 1.401401; 


Name: 7-Hydroxy-3'-methoxyflavone
SYNON: $:00in-source
DB#: MetaboBASE0587
InChIKey: PTXIWVJSAQPKEY-UHFFFAOYSA-N
Precursor_type: [M-H]-
Spectrum_type: MS2
PrecursorMZ: 267.07
Instrument_type: LC-ESI-TOF
Instrument: impact HD
Ion_mode: N
Collision_energy: 40
InChIKey: PTXIWVJSAQPKEY-UHFFFAOYSA-N
Formula: C16H12O4
MW: 268
ExactMass: 268.073558864
Comments: "license=License CC-BY-NC-SA 4.0 International" "author=Plant Biology, The Noble Foundation, Ardmore, OK, US/Dennis Fine, Daniel Wherritt, and Lloyd Sumner" "instrument type=LC-ESI-TOF" "instrument=impact HD" "ionization=ESI" "ionization mode=negative" "ms level=MS2" "precursor m/z=267.07" "isolation width=5" "collision gas=Nitrogen" "collision energy=40" "peak width=0.017" "date=2013-11-23 04:07:21+01:00" "column=Waters Acquity BEH C18 1.7um x 2.1 x 150 mm" "retention time=720.6" "raw data file=C:\Data\Confirmed Standards\Confirmed stds MSMS 22Nov13\7Hydroxy3'methoxyflavone MSMS.d" "precursor type=[M-H]-" "mass accuracy=13.91820870924279" "mass error=0.0037171359999774722" "SMILES=COc1cccc(c1)c2cc(=O)c3ccc(cc3o2)O" "InChI=InChI=1S/C16H12O4/c1-19-12-4-2-3-10(7-12)15-9-14(18)13-6-5-11(17)8-16(13)20-15/h2-9,17H,1H3" "InChIKey=PTXIWVJSAQPKEY-UHFFFAOYSA-N" "molecular formula=C16H12O4" "total exact mass=268.073558864" "SMILES=COC1=CC=CC(=C1)C2=CC(=O)C3=C(O2)C=C(C=C3)O"
Num Peaks: 13
 135 17.117117; 
 136 1.301301; 
 153 1.301301; 
 167 2.202202; 
 168 1.401401; 
 195 35.635636; 
 196 7.107107; 
 223 5.605606; 
 224 100.000000; 
 225 10.810811; 
 226 1.201201; 
 252 12.312312; 
 253 1.701702; 


Name: 7-Hydroxy-3'-methoxyflavone
SYNON: $:00in-source
DB#: MetaboBASE0588
InChIKey: PTXIWVJSAQPKEY-UHFFFAOYSA-N
Precursor_type: [M-H]-
Spectrum_type: MS2
PrecursorMZ: 267.0662
Instrument_type: LC-ESI-TOF
Instrument: impact HD
Ion_mode: N
Collision_energy: 30
InChIKey: PTXIWVJSAQPKEY-UHFFFAOYSA-N
Formula: C16H12O4
MW: 268
ExactMass: 268.073558864
Comments: "license=License CC-BY-NC-SA 4.0 International" "author=Plant Biology, The Noble Foundation, Ardmore, OK, US/Dennis Fine, Daniel Wherritt, and Lloyd Sumner" "instrument type=LC-ESI-TOF" "instrument=impact HD" "ionization=ESI" "ionization mode=negative" "ms level=MS2" "precursor m/z=267.0662" "isolation width=5" "collision gas=Nitrogen" "collision energy=30" "peak width=0.017" "date=2013-11-23 04:07:21+01:00" "column=Waters Acquity BEH C18 1.7um x 2.1 x 150 mm" "retention time=720.6" "raw data file=C:\Data\Confirmed Standards\Confirmed stds MSMS 22Nov13\7Hydroxy3'methoxyflavone MSMS.d" "precursor type=[M-H]-" "mass accuracy=0.31027513041705707" "mass error=-8.286400003498784E-5" "SMILES=COc1cccc(c1)c2cc(=O)c3ccc(cc3o2)O" "InChI=InChI=1S/C16H12O4/c1-19-12-4-2-3-10(7-12)15-9-14(18)13-6-5-11(17)8-16(13)20-15/h2-9,17H,1H3" "InChIKey=PTXIWVJSAQPKEY-UHFFFAOYSA-N" "molecular formula=C16H12O4" "total exact mass=268.073558864" "SMILES=COC1=CC=CC(=C1)C2=CC(=O)C3=C(O2)C=C(C=C3)O"
Num Peaks: 12
 135 1.101101; 
 195 3.903904; 
 196 0.800801; 
 223 1.801802; 
 224 92.792793; 
 225 10.010010; 
 226 0.800801; 
 252 100.000000; 
 253 10.510511; 
 254 1.401401; 
 267 10.410410; 
 268 1.501502; 


Name: 7-Hydroxy-3'-methoxyflavone
SYNON: $:00in-source
DB#: MetaboBASE0589
InChIKey: PTXIWVJSAQPKEY-UHFFFAOYSA-N
Instrument_type: LC-ESI-TOF
Instrument: impact HD
Ion_mode: N
InChIKey: PTXIWVJSAQPKEY-UHFFFAOYSA-N
Formula: C16H12O4
MW: 268
ExactMass: 268.073558864
Comments: "license=License CC-BY-NC-SA 4.0 International" "author=Plant Biology, The Noble Foundation, Ardmore, OK, US/Dennis Fine, Daniel Wherritt, and Lloyd Sumner" "instrument type=LC-ESI-TOF" "instrument=impact HD" "ionization=ESI" "ionization mode=negative" "collision gas=Nitrogen" "peak width=0.015" "date=2013-11-23 04:07:21+01:00" "column=Waters Acquity BEH C18 1.7um x 2.1 x 150 mm" "retention time=720.6" "raw data file=C:\Data\Confirmed Standards\Confirmed stds MSMS 22Nov13\7Hydroxy3'methoxyflavone MSMS.d" "SMILES=COc1cccc(c1)c2cc(=O)c3ccc(cc3o2)O" "InChI=InChI=1S/C16H12O4/c1-19-12-4-2-3-10(7-12)15-9-14(18)13-6-5-11(17)8-16(13)20-15/h2-9,17H,1H3" "InChIKey=PTXIWVJSAQPKEY-UHFFFAOYSA-N" "molecular formula=C16H12O4" "total exact mass=268.073558864" "SMILES=COC1=CC=CC(=C1)C2=CC(=O)C3=C(O2)C=C(C=C3)O"
Num Peaks: 26
 116 0.600601; 
 135 5.305305; 
 136 0.400400; 
 167 1.801802; 
 195 14.314314; 
 196 2.002002; 
 223 0.900901; 
 224 8.808809; 
 225 1.201201; 
 252 28.228228; 
 253 3.603604; 
 254 0.400400; 
 267 100.000000; 
 268 12.112112; 
 269 1.401401; 
 335 0.600601; 
 366 0.600601; 
 535 2.102102; 
 536 0.800801; 
 557 1.901902; 
 558 0.700701; 
 618 0.400400; 
 857 0.500501; 
 1124 1.701702; 
 1125 1.201201; 
 1126 0.400400; 


Name: 8-Hydroxy-5-methoxyflavanone
SYNON: $:00in-source
DB#: MetaboBASE0590
InChIKey: QKKLESZITVHFQP-UHFFFAOYSA-N
Spectrum_type: MS2
PrecursorMZ: 269.0817
Instrument_type: LC-ESI-TOF
Instrument: impact HD
Ion_mode: N
Collision_energy: 10
InChIKey: QKKLESZITVHFQP-UHFFFAOYSA-N
Formula: C16H14O4
MW: 270
ExactMass: 270.089208928
Comments: "license=License CC-BY-NC-SA 4.0 International" "author=Plant Biology, The Noble Foundation, Ardmore, OK, US/Dennis Fine, Daniel Wherritt, and Lloyd Sumner" "instrument type=LC-ESI-TOF" "instrument=impact HD" "ionization=ESI" "ionization mode=negative" "ms level=MS2" "precursor m/z=269.0817" "isolation width=5" "collision gas=Nitrogen" "collision energy=10" "peak width=0.015" "date=2013-11-23 09:33:26+01:00" "column=Waters Acquity BEH C18 1.7um x 2.1 x 150 mm" "retention time=576" "raw data file=C:\Data\Confirmed Standards\Confirmed stds MSMS 22Nov13\8Hydroxy5methoxyflav MSMS.d" "Last Auto-Curation=1505110129290" "molecular formula=C16H14O4" "total exact mass=270.089208928" "SMILES=[H]OC1=C([H])C([H])=C(OC([H])([H])[H])C2=C1OC([H])(C=3C([H])=C([H])C([H])=C([H])C3[H])C([H])([H])C2=O" "InChI=InChI=1S/C16H14O4/c1-19-13-8-7-11(17)16-15(13)12(18)9-14(20-16)10-5-3-2-4-6-10/h2-8,14,17H,9H2,1H3" "InChIKey=QKKLESZITVHFQP-UHFFFAOYSA-N"
Num Peaks: 16
 149 1.801802; 
 210 5.505506; 
 211 1.001001; 
 225 26.326326; 
 226 3.903904; 
 237 15.115115; 
 238 3.903904; 
 239 5.105105; 
 240 0.800801; 
 254 70.870871; 
 255 8.208208; 
 256 1.301301; 
 269 0.800801; 
 269 100.000000; 
 270 9.309309; 
 271 1.501502; 


Name: 8-Hydroxy-5-methoxyflavanone
SYNON: $:00in-source
DB#: MetaboBASE0591
InChIKey: QKKLESZITVHFQP-UHFFFAOYSA-N
Spectrum_type: MS2
PrecursorMZ: 269.0838
Instrument_type: LC-ESI-TOF
Instrument: impact HD
Ion_mode: N
Collision_energy: 20
InChIKey: QKKLESZITVHFQP-UHFFFAOYSA-N
Formula: C16H14O4
MW: 270
ExactMass: 270.089208928
Comments: "license=License CC-BY-NC-SA 4.0 International" "author=Plant Biology, The Noble Foundation, Ardmore, OK, US/Dennis Fine, Daniel Wherritt, and Lloyd Sumner" "instrument type=LC-ESI-TOF" "instrument=impact HD" "ionization=ESI" "ionization mode=negative" "ms level=MS2" "precursor m/z=269.0838" "isolation width=5" "collision gas=Nitrogen" "collision energy=20" "peak width=0.016" "date=2013-11-23 09:33:26+01:00" "column=Waters Acquity BEH C18 1.7um x 2.1 x 150 mm" "retention time=576" "raw data file=C:\Data\Confirmed Standards\Confirmed stds MSMS 22Nov13\8Hydroxy5methoxyflav MSMS.d" "Last Auto-Curation=1505110129505" "molecular formula=C16H14O4" "total exact mass=270.089208928" "SMILES=[H]OC1=C([H])C([H])=C(OC([H])([H])[H])C2=C1OC([H])(C=3C([H])=C([H])C([H])=C([H])C3[H])C([H])([H])C2=O" "InChI=InChI=1S/C16H14O4/c1-19-13-8-7-11(17)16-15(13)12(18)9-14(20-16)10-5-3-2-4-6-10/h2-8,14,17H,9H2,1H3" "InChIKey=QKKLESZITVHFQP-UHFFFAOYSA-N"
Num Peaks: 15
 149 86.886887; 
 150 4.404404; 
 152 2.302302; 
 209 4.704705; 
 210 32.232232; 
 211 4.904905; 
 225 3.503504; 
 226 2.602603; 
 237 17.017017; 
 238 4.404404; 
 239 5.505506; 
 253 2.302302; 
 254 100.000000; 
 255 13.513514; 
 269 5.105105; 


Name: 8-Hydroxy-5-methoxyflavanone
SYNON: $:00in-source
DB#: MetaboBASE0592
InChIKey: QKKLESZITVHFQP-UHFFFAOYSA-N
Instrument_type: LC-ESI-TOF
Instrument: impact HD
Ion_mode: N
InChIKey: QKKLESZITVHFQP-UHFFFAOYSA-N
Formula: C16H14O4
MW: 270
ExactMass: 270.089208928
Comments: "license=License CC-BY-NC-SA 4.0 International" "author=Plant Biology, The Noble Foundation, Ardmore, OK, US/Dennis Fine, Daniel Wherritt, and Lloyd Sumner" "instrument type=LC-ESI-TOF" "instrument=impact HD" "ionization=ESI" "ionization mode=negative" "collision gas=Nitrogen" "peak width=0.014" "date=2013-11-23 09:33:26+01:00" "column=Waters Acquity BEH C18 1.7um x 2.1 x 150 mm" "retention time=576" "raw data file=C:\Data\Confirmed Standards\Confirmed stds MSMS 22Nov13\8Hydroxy5methoxyflav MSMS.d" "Last Auto-Curation=1505110891573" "molecular formula=C16H14O4" "total exact mass=270.089208928" "SMILES=[H]OC1=C([H])C([H])=C(OC([H])([H])[H])C2=C1OC([H])(C=3C([H])=C([H])C([H])=C([H])C3[H])C([H])([H])C2=O" "InChI=InChI=1S/C16H14O4/c1-19-13-8-7-11(17)16-15(13)12(18)9-14(20-16)10-5-3-2-4-6-10/h2-8,14,17H,9H2,1H3" "InChIKey=QKKLESZITVHFQP-UHFFFAOYSA-N"
Num Peaks: 19
 210 0.500501; 
 225 3.103103; 
 226 0.500501; 
 237 1.101101; 
 238 0.300300; 
 239 0.400400; 
 254 3.003003; 
 255 0.500501; 
 269 100.000000; 
 270 12.412412; 
 271 1.201201; 
 337 0.400400; 
 539 1.301301; 
 540 0.400400; 
 561 2.202202; 
 562 0.700701; 
 1132 2.502503; 
 1133 1.901902; 
 1134 0.600601; 


Name: 5,3',4'-Trihydroxyflavone
SYNON: $:00in-source
DB#: MetaboBASE0593
InChIKey: KXPQYWKYYDYOCQ-UHFFFAOYSA-N
Precursor_type: [M-H]-
Spectrum_type: MS2
PrecursorMZ: 269.046
Instrument_type: LC-ESI-TOF
Instrument: impact HD
Ion_mode: N
Collision_energy: 40
InChIKey: KXPQYWKYYDYOCQ-UHFFFAOYSA-N
Formula: C15H10O5
MW: 270
ExactMass: 270.05282342
Comments: "license=License CC-BY-NC-SA 4.0 International" "author=Plant Biology, The Noble Foundation, Ardmore, OK, US/Dennis Fine, Daniel Wherritt, and Lloyd Sumner" "instrument type=LC-ESI-TOF" "instrument=impact HD" "ionization=ESI" "ionization mode=negative" "ms level=MS2" "precursor m/z=269.046" "isolation width=5" "collision gas=Nitrogen" "collision energy=40" "peak width=0.016" "date=2013-11-23 11:35:50+01:00" "column=Waters Acquity BEH C18 1.7um x 2.1 x 150 mm" "retention time=705.6" "raw data file=C:\Data\Confirmed Standards\Confirmed stds MSMS 22Nov13\53'4'-Trihydroxyflavone  MSMS.d" "precursor type=[M-H]-" "mass accuracy=1.6821658749843331" "mass error=4.5258000000103493E-4" "InChIKey=KXPQYWKYYDYOCQ-UHFFFAOYSA-N" "molecular formula=C15H10O5" "total exact mass=270.05282342" "SMILES=C1=CC2=C(C(=C1)O)C(=O)C=C(O2)C3=CC(=C(C=C3)O)O" "InChI=InChI=1S/C15H10O5/c16-9-5-4-8(6-11(9)18)14-7-12(19)15-10(17)2-1-3-13(15)20-14/h1-7,16-18H"
Num Peaks: 10
 115 3.503504; 
 132 12.312312; 
 133 100.000000; 
 134 9.109109; 
 135 6.906907; 
 171 2.902903; 
 201 3.803804; 
 224 3.803804; 
 227 4.104104; 
 269 3.803804; 


Name: 5,3',4'-Trihydroxyflavone
SYNON: $:00in-source
DB#: MetaboBASE0594
InChIKey: KXPQYWKYYDYOCQ-UHFFFAOYSA-N
Precursor_type: [M-H]-
Spectrum_type: MS2
PrecursorMZ: 269.0455
Instrument_type: LC-ESI-TOF
Instrument: impact HD
Ion_mode: N
Collision_energy: 30
InChIKey: KXPQYWKYYDYOCQ-UHFFFAOYSA-N
Formula: C15H10O5
MW: 270
ExactMass: 270.05282342
Comments: "license=License CC-BY-NC-SA 4.0 International" "author=Plant Biology, The Noble Foundation, Ardmore, OK, US/Dennis Fine, Daniel Wherritt, and Lloyd Sumner" "instrument type=LC-ESI-TOF" "instrument=impact HD" "ionization=ESI" "ionization mode=negative" "ms level=MS2" "precursor m/z=269.0455" "isolation width=5" "collision gas=Nitrogen" "collision energy=30" "peak width=0.017" "date=2013-11-23 11:35:50+01:00" "column=Waters Acquity BEH C18 1.7um x 2.1 x 150 mm" "retention time=705.6" "raw data file=C:\Data\Confirmed Standards\Confirmed stds MSMS 22Nov13\53'4'-Trihydroxyflavone  MSMS.d" "precursor type=[M-H]-" "mass accuracy=0.1762527155709411" "mass error=-4.741999998714164E-5" "InChIKey=KXPQYWKYYDYOCQ-UHFFFAOYSA-N" "molecular formula=C15H10O5" "total exact mass=270.05282342" "SMILES=C1=CC2=C(C(=C1)O)C(=O)C=C(O2)C3=CC(=C(C=C3)O)O" "InChI=InChI=1S/C15H10O5/c16-9-5-4-8(6-11(9)18)14-7-12(19)15-10(17)2-1-3-13(15)20-14/h1-7,16-18H"
Num Peaks: 16
 133 72.372372; 
 134 6.106106; 
 135 24.624625; 
 161 2.902903; 
 201 2.902903; 
 213 2.702703; 
 223 5.505506; 
 224 3.003003; 
 225 8.408408; 
 227 16.116116; 
 240 2.602603; 
 241 7.907908; 
 251 5.605606; 
 269 100.000000; 
 270 13.613614; 
 271 2.402402; 


Name: 5,3',4'-Trihydroxyflavone
SYNON: $:00in-source
DB#: MetaboBASE0595
InChIKey: KXPQYWKYYDYOCQ-UHFFFAOYSA-N
Instrument_type: LC-ESI-TOF
Instrument: impact HD
Ion_mode: N
InChIKey: KXPQYWKYYDYOCQ-UHFFFAOYSA-N
Formula: C15H10O5
MW: 270
ExactMass: 270.05282342
Comments: "license=License CC-BY-NC-SA 4.0 International" "author=Plant Biology, The Noble Foundation, Ardmore, OK, US/Dennis Fine, Daniel Wherritt, and Lloyd Sumner" "instrument type=LC-ESI-TOF" "instrument=impact HD" "ionization=ESI" "ionization mode=negative" "collision gas=Nitrogen" "peak width=0.01" "date=2013-11-23 11:35:50+01:00" "column=Waters Acquity BEH C18 1.7um x 2.1 x 150 mm" "retention time=705.6" "raw data file=C:\Data\Confirmed Standards\Confirmed stds MSMS 22Nov13\53'4'-Trihydroxyflavone  MSMS.d" "InChIKey=KXPQYWKYYDYOCQ-UHFFFAOYSA-N" "molecular formula=C15H10O5" "total exact mass=270.05282342" "SMILES=C1=CC2=C(C(=C1)O)C(=O)C=C(O2)C3=CC(=C(C=C3)O)O" "InChI=InChI=1S/C15H10O5/c16-9-5-4-8(6-11(9)18)14-7-12(19)15-10(17)2-1-3-13(15)20-14/h1-7,16-18H"
Num Peaks: 7
 241 0.700701; 
 269 100.000000; 
 270 13.213213; 
 271 1.301301; 
 539 4.704705; 
 540 1.301301; 
 561 0.900901; 


Name: Artocaprin
SYNON: $:00in-source
DB#: MetaboBASE0596
InChIKey: KRGDFVQWQJIMEK-RMKNXTFCSA-N
Precursor_type: [M-H]-
Spectrum_type: MS2
PrecursorMZ: 435.1826
Instrument_type: LC-ESI-TOF
Instrument: impact HD
Ion_mode: N
Collision_energy: 10
InChIKey: KRGDFVQWQJIMEK-RMKNXTFCSA-N
Formula: C26H28O6
MW: 436
ExactMass: 436.18858861599995
Comments: "license=License CC-BY-NC-SA 4.0 International" "author=Plant Biology, The Noble Foundation, Ardmore, OK, US/Dennis Fine, Daniel Wherritt, and Lloyd Sumner" "instrument type=LC-ESI-TOF" "instrument=impact HD" "ionization=ESI" "ionization mode=negative" "ms level=MS2" "precursor m/z=435.1826" "isolation width=5" "collision gas=Nitrogen" "collision energy=10" "peak width=0.011" "date=2013-11-23 12:57:18+01:00" "column=Waters Acquity BEH C18 1.7um x 2.1 x 150 mm" "retention time=1596" "raw data file=C:\Data\Confirmed Standards\Confirmed stds MSMS 22Nov13\Artocarpin (vial 268)  MSMS.d" "precursor type=[M-H]-" "mass accuracy=2.958261658491136" "mass error=0.0012873840000224845" "cas number=7608-44-8" "SMILES=CC(C)/C=C/c1c(cc2c(c1O)c(=O)c(c(o2)c3ccc(cc3O)O)CC=C(C)C)OC" "InChI=InChI=1S/C26H28O6/c1-14(2)6-9-18-21(31-5)13-22-23(24(18)29)25(30)19(10-7-15(3)4)26(32-22)17-11-8-16(27)12-20(17)28/h6-9,11-14,27-29H,10H2,1-5H3/b9-6+" "InChIKey=KRGDFVQWQJIMEK-RMKNXTFCSA-N" "molecular formula=C26H28O6" "total exact mass=436.18858861599995" "SMILES=CC(C)C=CC1=C(C=C2C(=C1O)C(=O)C(=C(O2)C3=C(C=C(C=C3)O)O)CC=C(C)C)OC"
Num Peaks: 4
 313 1.501502; 
 435 100.000000; 
 436 19.119119; 
 437 2.702703; 


Name: Artocaprin
SYNON: $:00in-source
DB#: MetaboBASE0597
InChIKey: KRGDFVQWQJIMEK-RMKNXTFCSA-N
Precursor_type: [M-H]-
Spectrum_type: MS2
PrecursorMZ: 435.1814
Instrument_type: LC-ESI-TOF
Instrument: impact HD
Ion_mode: N
Collision_energy: 30
InChIKey: KRGDFVQWQJIMEK-RMKNXTFCSA-N
Formula: C26H28O6
MW: 436
ExactMass: 436.18858861599995
Comments: "license=License CC-BY-NC-SA 4.0 International" "author=Plant Biology, The Noble Foundation, Ardmore, OK, US/Dennis Fine, Daniel Wherritt, and Lloyd Sumner" "instrument type=LC-ESI-TOF" "instrument=impact HD" "ionization=ESI" "ionization mode=negative" "ms level=MS2" "precursor m/z=435.1814" "isolation width=5" "collision gas=Nitrogen" "collision energy=30" "peak width=0.014" "date=2013-11-23 12:57:18+01:00" "column=Waters Acquity BEH C18 1.7um x 2.1 x 150 mm" "retention time=1596" "raw data file=C:\Data\Confirmed Standards\Confirmed stds MSMS 22Nov13\Artocarpin (vial 268)  MSMS.d" "precursor type=[M-H]-" "mass accuracy=0.20079902321076246" "mass error=8.73840000394921E-5" "cas number=7608-44-8" "SMILES=CC(C)/C=C/c1c(cc2c(c1O)c(=O)c(c(o2)c3ccc(cc3O)O)CC=C(C)C)OC" "InChI=InChI=1S/C26H28O6/c1-14(2)6-9-18-21(31-5)13-22-23(24(18)29)25(30)19(10-7-15(3)4)26(32-22)17-11-8-16(27)12-20(17)28/h6-9,11-14,27-29H,10H2,1-5H3/b9-6+" "InChIKey=KRGDFVQWQJIMEK-RMKNXTFCSA-N" "molecular formula=C26H28O6" "total exact mass=436.18858861599995" "SMILES=CC(C)C=CC1=C(C=C2C(=C1O)C(=O)C(=C(O2)C3=C(C=C(C=C3)O)O)CC=C(C)C)OC"
Num Peaks: 33
 109 7.607608; 
 121 4.004004; 
 227 3.603604; 
 233 5.905906; 
 243 1.101101; 
 255 6.606607; 
 256 1.101101; 
 283 0.700701; 
 297 1.001001; 
 298 14.414414; 
 299 3.103103; 
 313 100.000000; 
 314 17.017017; 
 315 1.401401; 
 323 2.502503; 
 323 0.800801; 
 324 0.800801; 
 325 4.804805; 
 326 1.201201; 
 333 1.501502; 
 338 3.703704; 
 349 1.001001; 
 351 4.704705; 
 352 0.900901; 
 361 0.800801; 
 366 8.808809; 
 367 2.102102; 
 377 2.802803; 
 391 1.101101; 
 417 0.900901; 
 435 15.715716; 
 436 3.703704; 
 437 0.700701; 


Name: Artocaprin
SYNON: $:00in-source
DB#: MetaboBASE0598
InChIKey: KRGDFVQWQJIMEK-RMKNXTFCSA-N
Instrument_type: LC-ESI-TOF
Instrument: impact HD
Ion_mode: N
InChIKey: KRGDFVQWQJIMEK-RMKNXTFCSA-N
Formula: C26H28O6
MW: 436
ExactMass: 436.188588616
Comments: "license=License CC-BY-NC-SA 4.0 International" "author=Plant Biology, The Noble Foundation, Ardmore, OK, US/Dennis Fine, Daniel Wherritt, and Lloyd Sumner" "instrument type=LC-ESI-TOF" "instrument=impact HD" "ionization=ESI" "ionization mode=negative" "collision gas=Nitrogen" "peak width=0.016" "date=2013-11-23 12:57:18+01:00" "column=Waters Acquity BEH C18 1.7um x 2.1 x 150 mm" "retention time=1596" "raw data file=C:\Data\Confirmed Standards\Confirmed stds MSMS 22Nov13\Artocarpin (vial 268)  MSMS.d" "cas number=7608-44-8" "SMILES=CC(C)/C=C/c1c(cc2c(c1O)c(=O)c(c(o2)c3ccc(cc3O)O)CC=C(C)C)OC" "InChI=InChI=1S/C26H28O6/c1-14(2)6-9-18-21(31-5)13-22-23(24(18)29)25(30)19(10-7-15(3)4)26(32-22)17-11-8-16(27)12-20(17)28/h6-9,11-14,27-29H,10H2,1-5H3/b9-6+" "InChIKey=KRGDFVQWQJIMEK-RMKNXTFCSA-N" "molecular formula=C26H28O6" "total exact mass=436.188588616" "SMILES=CC(C)C=CC1=C(C=C2C(=C1O)C(=O)C(=C(O2)C3=C(C=C(C=C3)O)O)CC=C(C)C)OC"
Num Peaks: 11
 128 15.515516; 
 279 10.510511; 
 377 24.124124; 
 379 17.417417; 
 430 21.121121; 
 435 100.000000; 
 436 21.821822; 
 491 23.323323; 
 666 16.216216; 
 871 21.521522; 
 872 11.211211; 


Name: Artocaprin
SYNON: $:00in-source
DB#: MetaboBASE0599
InChIKey: KRGDFVQWQJIMEK-RMKNXTFCSA-N
Precursor_type: [M-H]-
Spectrum_type: MS2
PrecursorMZ: 435.18
Instrument_type: LC-ESI-TOF
Instrument: impact HD
Ion_mode: N
Collision_energy: 50
InChIKey: KRGDFVQWQJIMEK-RMKNXTFCSA-N
Formula: C26H28O6
MW: 436
ExactMass: 436.18858861599995
Comments: "license=License CC-BY-NC-SA 4.0 International" "author=Plant Biology, The Noble Foundation, Ardmore, OK, US/Dennis Fine, Daniel Wherritt, and Lloyd Sumner" "instrument type=LC-ESI-TOF" "instrument=impact HD" "ionization=ESI" "ionization mode=negative" "ms level=MS2" "precursor m/z=435.18" "isolation width=5" "collision gas=Nitrogen" "collision energy=50" "peak width=0.015" "date=2013-11-23 12:57:18+01:00" "column=Waters Acquity BEH C18 1.7um x 2.1 x 150 mm" "retention time=1596" "raw data file=C:\Data\Confirmed Standards\Confirmed stds MSMS 22Nov13\Artocarpin (vial 268)  MSMS.d" "precursor type=[M-H]-" "mass accuracy=3.0162599383017135" "mass error=-0.0013126159999501397" "cas number=7608-44-8" "SMILES=CC(C)/C=C/c1c(cc2c(c1O)c(=O)c(c(o2)c3ccc(cc3O)O)CC=C(C)C)OC" "InChI=InChI=1S/C26H28O6/c1-14(2)6-9-18-21(31-5)13-22-23(24(18)29)25(30)19(10-7-15(3)4)26(32-22)17-11-8-16(27)12-20(17)28/h6-9,11-14,27-29H,10H2,1-5H3/b9-6+" "InChIKey=KRGDFVQWQJIMEK-RMKNXTFCSA-N" "molecular formula=C26H28O6" "total exact mass=436.18858861599995" "SMILES=CC(C)C=CC1=C(C=C2C(=C1O)C(=O)C(=C(O2)C3=C(C=C(C=C3)O)O)CC=C(C)C)OC"
Num Peaks: 24
 109 13.113113; 
 121 4.304304; 
 133 7.607608; 
 175 4.404404; 
 227 6.006006; 
 230 4.104104; 
 233 9.709710; 
 243 17.217217; 
 244 4.804805; 
 255 100.000000; 
 256 14.414414; 
 257 3.103103; 
 268 3.303303; 
 280 8.108108; 
 283 10.010010; 
 291 3.403403; 
 297 6.606607; 
 298 9.509510; 
 299 3.403403; 
 308 5.505506; 
 313 3.903904; 
 323 9.709710; 
 351 6.206206; 
 359 2.802803; 


Name: Artocaprin
SYNON: $:00in-source
DB#: MetaboBASE0600
InChIKey: KRGDFVQWQJIMEK-RMKNXTFCSA-N
Precursor_type: [M-H]-
Spectrum_type: MS2
PrecursorMZ: 435.1825
Instrument_type: LC-ESI-TOF
Instrument: impact HD
Ion_mode: N
Collision_energy: 20
InChIKey: KRGDFVQWQJIMEK-RMKNXTFCSA-N
Formula: C26H28O6
MW: 436
ExactMass: 436.18858861599995
Comments: "license=License CC-BY-NC-SA 4.0 International" "author=Plant Biology, The Noble Foundation, Ardmore, OK, US/Dennis Fine, Daniel Wherritt, and Lloyd Sumner" "instrument type=LC-ESI-TOF" "instrument=impact HD" "ionization=ESI" "ionization mode=negative" "ms level=MS2" "precursor m/z=435.1825" "isolation width=5" "collision gas=Nitrogen" "collision energy=20" "peak width=0.012" "date=2013-11-23 12:57:18+01:00" "column=Waters Acquity BEH C18 1.7um x 2.1 x 150 mm" "retention time=1596" "raw data file=C:\Data\Confirmed Standards\Confirmed stds MSMS 22Nov13\Artocarpin (vial 268)  MSMS.d" "precursor type=[M-H]-" "mass accuracy=2.7284736864363492" "mass error=0.0011873840000475866" "cas number=7608-44-8" "SMILES=CC(C)/C=C/c1c(cc2c(c1O)c(=O)c(c(o2)c3ccc(cc3O)O)CC=C(C)C)OC" "InChI=InChI=1S/C26H28O6/c1-14(2)6-9-18-21(31-5)13-22-23(24(18)29)25(30)19(10-7-15(3)4)26(32-22)17-11-8-16(27)12-20(17)28/h6-9,11-14,27-29H,10H2,1-5H3/b9-6+" "InChIKey=KRGDFVQWQJIMEK-RMKNXTFCSA-N" "molecular formula=C26H28O6" "total exact mass=436.18858861599995" "SMILES=CC(C)C=CC1=C(C=C2C(=C1O)C(=O)C(=C(O2)C3=C(C=C(C=C3)O)O)CC=C(C)C)OC"
Num Peaks: 15
 109 3.103103; 
 121 3.903904; 
 227 2.102102; 
 233 0.700701; 
 255 1.201201; 
 298 1.601602; 
 313 80.980981; 
 314 11.611612; 
 315 1.101101; 
 325 4.204204; 
 366 3.203203; 
 367 0.600601; 
 435 100.000000; 
 436 20.920921; 
 437 3.303303; 


Name: Artocaprin
SYNON: $:00in-source
DB#: MetaboBASE0601
InChIKey: KRGDFVQWQJIMEK-RMKNXTFCSA-N
Precursor_type: [M-H]-
Spectrum_type: MS2
PrecursorMZ: 435.18
Instrument_type: LC-ESI-TOF
Instrument: impact HD
Ion_mode: N
Collision_energy: 40
InChIKey: KRGDFVQWQJIMEK-RMKNXTFCSA-N
Formula: C26H28O6
MW: 436
ExactMass: 436.18858861599995
Comments: "license=License CC-BY-NC-SA 4.0 International" "author=Plant Biology, The Noble Foundation, Ardmore, OK, US/Dennis Fine, Daniel Wherritt, and Lloyd Sumner" "instrument type=LC-ESI-TOF" "instrument=impact HD" "ionization=ESI" "ionization mode=negative" "ms level=MS2" "precursor m/z=435.18" "isolation width=5" "collision gas=Nitrogen" "collision energy=40" "peak width=0.014" "date=2013-11-23 12:57:18+01:00" "column=Waters Acquity BEH C18 1.7um x 2.1 x 150 mm" "retention time=1596" "raw data file=C:\Data\Confirmed Standards\Confirmed stds MSMS 22Nov13\Artocarpin (vial 268)  MSMS.d" "precursor type=[M-H]-" "mass accuracy=3.0162599383017135" "mass error=-0.0013126159999501397" "cas number=7608-44-8" "SMILES=CC(C)/C=C/c1c(cc2c(c1O)c(=O)c(c(o2)c3ccc(cc3O)O)CC=C(C)C)OC" "InChI=InChI=1S/C26H28O6/c1-14(2)6-9-18-21(31-5)13-22-23(24(18)29)25(30)19(10-7-15(3)4)26(32-22)17-11-8-16(27)12-20(17)28/h6-9,11-14,27-29H,10H2,1-5H3/b9-6+" "InChIKey=KRGDFVQWQJIMEK-RMKNXTFCSA-N" "molecular formula=C26H28O6" "total exact mass=436.18858861599995" "SMILES=CC(C)C=CC1=C(C=C2C(=C1O)C(=O)C(=C(O2)C3=C(C=C(C=C3)O)O)CC=C(C)C)OC"
Num Peaks: 35
 109 17.917918; 
 121 5.705706; 
 133 3.903904; 
 177 2.502503; 
 227 7.407407; 
 233 27.427427; 
 234 4.004004; 
 243 19.719720; 
 244 5.605606; 
 255 100.000000; 
 256 19.419419; 
 267 6.706707; 
 280 2.802803; 
 283 7.907908; 
 297 4.404404; 
 297 6.206206; 
 298 55.455455; 
 299 12.812813; 
 308 5.505506; 
 309 3.003003; 
 313 64.264264; 
 314 12.212212; 
 323 8.308308; 
 323 10.810811; 
 324 2.902903; 
 325 3.503504; 
 333 3.603604; 
 338 8.408408; 
 349 5.305305; 
 351 17.217217; 
 352 2.802803; 
 359 2.602603; 
 365 3.103103; 
 366 5.605606; 
 377 10.110110; 


Name: Eupatilin
SYNON: $:00in-source
DB#: MetaboBASE0602
InChIKey: DRRWBCNQOKKKOL-UHFFFAOYSA-N
Precursor_type: [M-H]-
Spectrum_type: MS2
PrecursorMZ: 343.0816
Instrument_type: LC-ESI-TOF
Instrument: impact HD
Ion_mode: N
Collision_energy: 20
InChIKey: DRRWBCNQOKKKOL-UHFFFAOYSA-N
Formula: C18H16O7
MW: 344
ExactMass: 344.089602852
Comments: "license=License CC-BY-NC-SA 4.0 International" "author=Plant Biology, The Noble Foundation, Ardmore, OK, US/Dennis Fine, Daniel Wherritt, and Lloyd Sumner" "instrument type=LC-ESI-TOF" "instrument=impact HD" "ionization=ESI" "ionization mode=negative" "ms level=MS2" "precursor m/z=343.0816" "isolation width=5" "collision gas=Nitrogen" "collision energy=20" "peak width=0.014" "date=2013-11-23 15:40:18+01:00" "column=Waters Acquity BEH C18 1.7um x 2.1 x 150 mm" "retention time=808.2" "raw data file=C:\Data\Confirmed Standards\Confirmed stds MSMS 22Nov13\Eupatilin (vial 272) MSMS.d" "precursor type=[M-H]-" "mass accuracy=2.118598024533749" "mass error=-7.268520000138778E-4" "cas number=22368-21-4" "SMILES=COc1ccc(cc1OC)c2cc(=O)c3c(o2)cc(c(c3O)OC)O" "InChI=InChI=1S/C18H16O7/c1-22-12-5-4-9(6-14(12)23-2)13-7-10(19)16-15(25-13)8-11(20)18(24-3)17(16)21/h4-8,20-21H,1-3H3" "InChIKey=DRRWBCNQOKKKOL-UHFFFAOYSA-N" "molecular formula=C18H16O7" "total exact mass=344.089602852" "SMILES=COC1=C(C=C(C=C1)C2=CC(=O)C3=C(C(=C(C=C3O2)O)OC)O)OC"
Num Peaks: 7
 313 29.029029; 
 314 7.207207; 
 328 100.000000; 
 329 8.908909; 
 330 3.803804; 
 343 35.135135; 
 344 5.205205; 


Name: Eupatilin
SYNON: $:00in-source
DB#: MetaboBASE0603
InChIKey: DRRWBCNQOKKKOL-UHFFFAOYSA-N
Precursor_type: [M-H]-
Spectrum_type: MS2
PrecursorMZ: 343.08
Instrument_type: LC-ESI-TOF
Instrument: impact HD
Ion_mode: N
Collision_energy: 50
InChIKey: DRRWBCNQOKKKOL-UHFFFAOYSA-N
Formula: C18H16O7
MW: 344
ExactMass: 344.089602852
Comments: "license=License CC-BY-NC-SA 4.0 International" "author=Plant Biology, The Noble Foundation, Ardmore, OK, US/Dennis Fine, Daniel Wherritt, and Lloyd Sumner" "instrument type=LC-ESI-TOF" "instrument=impact HD" "ionization=ESI" "ionization mode=negative" "ms level=MS2" "precursor m/z=343.08" "isolation width=5" "collision gas=Nitrogen" "collision energy=50" "peak width=0.015" "date=2013-11-23 15:40:18+01:00" "column=Waters Acquity BEH C18 1.7um x 2.1 x 150 mm" "retention time=808.2" "raw data file=C:\Data\Confirmed Standards\Confirmed stds MSMS 22Nov13\Eupatilin (vial 272) MSMS.d" "precursor type=[M-H]-" "mass accuracy=6.782243208610671" "mass error=-0.002326852000010149" "cas number=22368-21-4" "SMILES=COc1ccc(cc1OC)c2cc(=O)c3c(o2)cc(c(c3O)OC)O" "InChI=InChI=1S/C18H16O7/c1-22-12-5-4-9(6-14(12)23-2)13-7-10(19)16-15(25-13)8-11(20)18(24-3)17(16)21/h4-8,20-21H,1-3H3" "InChIKey=DRRWBCNQOKKKOL-UHFFFAOYSA-N" "molecular formula=C18H16O7" "total exact mass=344.089602852" "SMILES=COC1=C(C=C(C=C1)C2=CC(=O)C3=C(C(=C(C=C3O2)O)OC)O)OC"
Num Peaks: 12
 132 22.022022; 
 163 17.317317; 
 164 20.520521; 
 214 21.821822; 
 226 21.821822; 
 241 23.723724; 
 242 62.462462; 
 257 21.021021; 
 269 24.324324; 
 270 100.000000; 
 285 17.617618; 
 298 49.249249; 


Name: Eupatilin
SYNON: $:00in-source
DB#: MetaboBASE0604
InChIKey: DRRWBCNQOKKKOL-UHFFFAOYSA-N
Precursor_type: [M-H]-
Spectrum_type: MS2
PrecursorMZ: 343.08
Instrument_type: LC-ESI-TOF
Instrument: impact HD
Ion_mode: N
Collision_energy: 30
InChIKey: DRRWBCNQOKKKOL-UHFFFAOYSA-N
Formula: C18H16O7
MW: 344
ExactMass: 344.089602852
Comments: "license=License CC-BY-NC-SA 4.0 International" "author=Plant Biology, The Noble Foundation, Ardmore, OK, US/Dennis Fine, Daniel Wherritt, and Lloyd Sumner" "instrument type=LC-ESI-TOF" "instrument=impact HD" "ionization=ESI" "ionization mode=negative" "ms level=MS2" "precursor m/z=343.08" "isolation width=5" "collision gas=Nitrogen" "collision energy=30" "peak width=0.012" "date=2013-11-23 15:40:18+01:00" "column=Waters Acquity BEH C18 1.7um x 2.1 x 150 mm" "retention time=808.2" "raw data file=C:\Data\Confirmed Standards\Confirmed stds MSMS 22Nov13\Eupatilin (vial 272) MSMS.d" "precursor type=[M-H]-" "mass accuracy=6.782243208610671" "mass error=-0.002326852000010149" "cas number=22368-21-4" "SMILES=COc1ccc(cc1OC)c2cc(=O)c3c(o2)cc(c(c3O)OC)O" "InChI=InChI=1S/C18H16O7/c1-22-12-5-4-9(6-14(12)23-2)13-7-10(19)16-15(25-13)8-11(20)18(24-3)17(16)21/h4-8,20-21H,1-3H3" "InChIKey=DRRWBCNQOKKKOL-UHFFFAOYSA-N" "molecular formula=C18H16O7" "total exact mass=344.089602852" "SMILES=COC1=C(C=C(C=C1)C2=CC(=O)C3=C(C(=C(C=C3O2)O)OC)O)OC"
Num Peaks: 11
 242 4.704705; 
 270 10.510511; 
 283 3.403403; 
 285 3.503504; 
 298 14.614615; 
 299 5.705706; 
 313 100.000000; 
 314 13.713714; 
 327 3.103103; 
 328 24.724725; 
 329 2.702703; 


Name: Eupatilin
SYNON: $:00in-source
DB#: MetaboBASE0605
InChIKey: DRRWBCNQOKKKOL-UHFFFAOYSA-N
Precursor_type: [M-H]-
Spectrum_type: MS2
PrecursorMZ: 343.08
Instrument_type: LC-ESI-TOF
Instrument: impact HD
Ion_mode: N
Collision_energy: 40
InChIKey: DRRWBCNQOKKKOL-UHFFFAOYSA-N
Formula: C18H16O7
MW: 344
ExactMass: 344.089602852
Comments: "license=License CC-BY-NC-SA 4.0 International" "author=Plant Biology, The Noble Foundation, Ardmore, OK, US/Dennis Fine, Daniel Wherritt, and Lloyd Sumner" "instrument type=LC-ESI-TOF" "instrument=impact HD" "ionization=ESI" "ionization mode=negative" "ms level=MS2" "precursor m/z=343.08" "isolation width=5" "collision gas=Nitrogen" "collision energy=40" "peak width=0.013" "date=2013-11-23 15:40:18+01:00" "column=Waters Acquity BEH C18 1.7um x 2.1 x 150 mm" "retention time=808.2" "raw data file=C:\Data\Confirmed Standards\Confirmed stds MSMS 22Nov13\Eupatilin (vial 272) MSMS.d" "precursor type=[M-H]-" "mass accuracy=6.782243208610671" "mass error=-0.002326852000010149" "cas number=22368-21-4" "SMILES=COc1ccc(cc1OC)c2cc(=O)c3c(o2)cc(c(c3O)OC)O" "InChI=InChI=1S/C18H16O7/c1-22-12-5-4-9(6-14(12)23-2)13-7-10(19)16-15(25-13)8-11(20)18(24-3)17(16)21/h4-8,20-21H,1-3H3" "InChIKey=DRRWBCNQOKKKOL-UHFFFAOYSA-N" "molecular formula=C18H16O7" "total exact mass=344.089602852" "SMILES=COC1=C(C=C(C=C1)C2=CC(=O)C3=C(C(=C(C=C3O2)O)OC)O)OC"
Num Peaks: 9
 226 10.710711; 
 242 18.418418; 
 269 10.810811; 
 270 47.547548; 
 285 23.423423; 
 298 100.000000; 
 299 13.413413; 
 313 79.379379; 
 314 11.311311; 


Name: Eupatilin
SYNON: $:00in-source
DB#: MetaboBASE0606
InChIKey: DRRWBCNQOKKKOL-UHFFFAOYSA-N
Precursor_type: [M-H]-
Spectrum_type: MS2
PrecursorMZ: 343.0839
Instrument_type: LC-ESI-TOF
Instrument: impact HD
Ion_mode: N
Collision_energy: 10
InChIKey: DRRWBCNQOKKKOL-UHFFFAOYSA-N
Formula: C18H16O7
MW: 344
ExactMass: 344.089602852
Comments: "license=License CC-BY-NC-SA 4.0 International" "author=Plant Biology, The Noble Foundation, Ardmore, OK, US/Dennis Fine, Daniel Wherritt, and Lloyd Sumner" "instrument type=LC-ESI-TOF" "instrument=impact HD" "ionization=ESI" "ionization mode=negative" "ms level=MS2" "precursor m/z=343.0839" "isolation width=5" "collision gas=Nitrogen" "collision energy=10" "peak width=0.016" "date=2013-11-23 15:40:18+01:00" "column=Waters Acquity BEH C18 1.7um x 2.1 x 150 mm" "retention time=808.2" "raw data file=C:\Data\Confirmed Standards\Confirmed stds MSMS 22Nov13\Eupatilin (vial 272) MSMS.d" "precursor type=[M-H]-" "mass accuracy=4.5853157202481745" "mass error=0.0015731480000340525" "cas number=22368-21-4" "SMILES=COc1ccc(cc1OC)c2cc(=O)c3c(o2)cc(c(c3O)OC)O" "InChI=InChI=1S/C18H16O7/c1-22-12-5-4-9(6-14(12)23-2)13-7-10(19)16-15(25-13)8-11(20)18(24-3)17(16)21/h4-8,20-21H,1-3H3" "InChIKey=DRRWBCNQOKKKOL-UHFFFAOYSA-N" "molecular formula=C18H16O7" "total exact mass=344.089602852" "SMILES=COC1=C(C=C(C=C1)C2=CC(=O)C3=C(C(=C(C=C3O2)O)OC)O)OC"
Num Peaks: 4
 328 3.403403; 
 343 100.000000; 
 344 13.813814; 
 345 2.902903; 


Name: Eupatilin
SYNON: $:00in-source
DB#: MetaboBASE0607
InChIKey: DRRWBCNQOKKKOL-UHFFFAOYSA-N
Instrument_type: LC-ESI-TOF
Instrument: impact HD
Ion_mode: N
InChIKey: DRRWBCNQOKKKOL-UHFFFAOYSA-N
Formula: C18H16O7
MW: 344
ExactMass: 344.089602852
Comments: "license=License CC-BY-NC-SA 4.0 International" "author=Plant Biology, The Noble Foundation, Ardmore, OK, US/Dennis Fine, Daniel Wherritt, and Lloyd Sumner" "instrument type=LC-ESI-TOF" "instrument=impact HD" "ionization=ESI" "ionization mode=negative" "collision gas=Nitrogen" "peak width=0.016" "date=2013-11-23 15:40:18+01:00" "column=Waters Acquity BEH C18 1.7um x 2.1 x 150 mm" "retention time=808.2" "raw data file=C:\Data\Confirmed Standards\Confirmed stds MSMS 22Nov13\Eupatilin (vial 272) MSMS.d" "cas number=22368-21-4" "SMILES=COc1ccc(cc1OC)c2cc(=O)c3c(o2)cc(c(c3O)OC)O" "InChI=InChI=1S/C18H16O7/c1-22-12-5-4-9(6-14(12)23-2)13-7-10(19)16-15(25-13)8-11(20)18(24-3)17(16)21/h4-8,20-21H,1-3H3" "InChIKey=DRRWBCNQOKKKOL-UHFFFAOYSA-N" "molecular formula=C18H16O7" "total exact mass=344.089602852" "SMILES=COC1=C(C=C(C=C1)C2=CC(=O)C3=C(C(=C(C=C3O2)O)OC)O)OC"
Num Peaks: 16
 112 2.802803; 
 116 1.401401; 
 174 1.201201; 
 235 2.002002; 
 242 3.003003; 
 248 2.802803; 
 304 1.401401; 
 310 1.401401; 
 316 1.301301; 
 343 100.000000; 
 344 15.315315; 
 345 2.202202; 
 378 0.900901; 
 411 3.603604; 
 412 1.301301; 
 666 2.102102; 


Name: Gardenin A
SYNON: $:00in-source
DB#: MetaboBASE0608
InChIKey: MQBFFYQCZCKSBX-UHFFFAOYSA-N
Spectrum_type: MS2
PrecursorMZ: 313.0713
Instrument_type: LC-ESI-TOF
Instrument: impact HD
Ion_mode: N
Collision_energy: 10
InChIKey: MQBFFYQCZCKSBX-UHFFFAOYSA-N
Formula: C21H22O9
MW: 418
ExactMass: 418.126382284
Comments: "license=License CC-BY-NC-SA 4.0 International" "author=Plant Biology, The Noble Foundation, Ardmore, OK, US/Dennis Fine, Daniel Wherritt, and Lloyd Sumner" "instrument type=LC-ESI-TOF" "instrument=impact HD" "ionization=ESI" "ionization mode=negative" "ms level=MS2" "precursor m/z=313.0713" "isolation width=5" "collision gas=Nitrogen" "collision energy=10" "peak width=0.014" "date=2013-11-23 21:06:31+01:00" "column=Waters Acquity BEH C18 1.7um x 2.1 x 150 mm" "retention time=768" "raw data file=C:\Data\Confirmed Standards\Confirmed stds MSMS 22Nov13\Gardenin A (vial 285) MSMS.d" "cas number=21187-73-5" "SMILES=COc1cc(cc(c1OC)OC)c2cc(=O)c3c(c(c(c(c3o2)OC)OC)OC)O" "InChI=InChI=1S/C21H22O9/c1-24-13-7-10(8-14(25-2)17(13)26-3)12-9-11(22)15-16(23)19(27-4)21(29-6)20(28-5)18(15)30-12/h7-9,23H,1-6H3" "InChIKey=MQBFFYQCZCKSBX-UHFFFAOYSA-N" "molecular formula=C21H22O9" "total exact mass=418.126382284" "SMILES=COC1=CC(=CC(=C1OC)OC)C2=CC(=O)C3=C(O2)C(=C(C(=C3O)OC)OC)OC"
Num Peaks: 6
 283 1.701702; 
 298 2.602603; 
 299 1.301301; 
 313 100.000000; 
 314 14.114114; 
 315 2.302302; 


Name: Gardenin A
SYNON: $:00in-source
DB#: MetaboBASE0609
InChIKey: MQBFFYQCZCKSBX-UHFFFAOYSA-N
Spectrum_type: MS2
PrecursorMZ: 313.0703
Instrument_type: LC-ESI-TOF
Instrument: impact HD
Ion_mode: N
Collision_energy: 20
InChIKey: MQBFFYQCZCKSBX-UHFFFAOYSA-N
Formula: C21H22O9
MW: 418
ExactMass: 418.126382284
Comments: "license=License CC-BY-NC-SA 4.0 International" "author=Plant Biology, The Noble Foundation, Ardmore, OK, US/Dennis Fine, Daniel Wherritt, and Lloyd Sumner" "instrument type=LC-ESI-TOF" "instrument=impact HD" "ionization=ESI" "ionization mode=negative" "ms level=MS2" "precursor m/z=313.0703" "isolation width=5" "collision gas=Nitrogen" "collision energy=20" "peak width=0.014" "date=2013-11-23 21:06:31+01:00" "column=Waters Acquity BEH C18 1.7um x 2.1 x 150 mm" "retention time=768" "raw data file=C:\Data\Confirmed Standards\Confirmed stds MSMS 22Nov13\Gardenin A (vial 285) MSMS.d" "cas number=21187-73-5" "SMILES=COc1cc(cc(c1OC)OC)c2cc(=O)c3c(c(c(c(c3o2)OC)OC)OC)O" "InChI=InChI=1S/C21H22O9/c1-24-13-7-10(8-14(25-2)17(13)26-3)12-9-11(22)15-16(23)19(27-4)21(29-6)20(28-5)18(15)30-12/h7-9,23H,1-6H3" "InChIKey=MQBFFYQCZCKSBX-UHFFFAOYSA-N" "molecular formula=C21H22O9" "total exact mass=418.126382284" "SMILES=COC1=CC(=CC(=C1OC)OC)C2=CC(=O)C3=C(O2)C(=C(C(=C3O)OC)OC)OC"
Num Peaks: 12
 255 5.605606; 
 268 4.304304; 
 269 13.613614; 
 270 2.302302; 
 283 27.127127; 
 284 6.306306; 
 297 18.418418; 
 298 91.191191; 
 299 14.414414; 
 313 100.000000; 
 314 18.818819; 
 315 6.906907; 


Name: Gardenin A
SYNON: $:00in-source
DB#: MetaboBASE0610
InChIKey: MQBFFYQCZCKSBX-UHFFFAOYSA-N
Spectrum_type: MS2
PrecursorMZ: 315.09
Instrument_type: LC-ESI-TOF
Instrument: impact HD
Ion_mode: N
Collision_energy: 40
InChIKey: MQBFFYQCZCKSBX-UHFFFAOYSA-N
Formula: C21H22O9
MW: 418
ExactMass: 418.126382284
Comments: "license=License CC-BY-NC-SA 4.0 International" "author=Plant Biology, The Noble Foundation, Ardmore, OK, US/Dennis Fine, Daniel Wherritt, and Lloyd Sumner" "instrument type=LC-ESI-TOF" "instrument=impact HD" "ionization=ESI" "ionization mode=negative" "ms level=MS2" "precursor m/z=315.09" "isolation width=5" "collision gas=Nitrogen" "collision energy=40" "peak width=0.015" "date=2013-11-23 21:06:31+01:00" "column=Waters Acquity BEH C18 1.7um x 2.1 x 150 mm" "retention time=768" "raw data file=C:\Data\Confirmed Standards\Confirmed stds MSMS 22Nov13\Gardenin A (vial 285) MSMS.d" "cas number=21187-73-5" "SMILES=COc1cc(cc(c1OC)OC)c2cc(=O)c3c(c(c(c(c3o2)OC)OC)OC)O" "InChI=InChI=1S/C21H22O9/c1-24-13-7-10(8-14(25-2)17(13)26-3)12-9-11(22)15-16(23)19(27-4)21(29-6)20(28-5)18(15)30-12/h7-9,23H,1-6H3" "InChIKey=MQBFFYQCZCKSBX-UHFFFAOYSA-N" "molecular formula=C21H22O9" "total exact mass=418.126382284" "SMILES=COC1=CC(=CC(=C1OC)OC)C2=CC(=O)C3=C(O2)C(=C(C(=C3O)OC)OC)OC"
Num Peaks: 11
 225 2.302302; 
 240 2.702703; 
 255 100.000000; 
 256 17.517518; 
 257 2.802803; 
 269 15.215215; 
 281 2.602603; 
 283 13.113113; 
 295 3.303303; 
 297 25.825826; 
 298 5.005005; 


Name: Gardenin A
SYNON: $:00in-source
DB#: MetaboBASE0611
InChIKey: MQBFFYQCZCKSBX-UHFFFAOYSA-N
Spectrum_type: MS2
PrecursorMZ: 315.09
Instrument_type: LC-ESI-TOF
Instrument: impact HD
Ion_mode: N
Collision_energy: 30
InChIKey: MQBFFYQCZCKSBX-UHFFFAOYSA-N
Formula: C21H22O9
MW: 418
ExactMass: 418.126382284
Comments: "license=License CC-BY-NC-SA 4.0 International" "author=Plant Biology, The Noble Foundation, Ardmore, OK, US/Dennis Fine, Daniel Wherritt, and Lloyd Sumner" "instrument type=LC-ESI-TOF" "instrument=impact HD" "ionization=ESI" "ionization mode=negative" "ms level=MS2" "precursor m/z=315.09" "isolation width=5" "collision gas=Nitrogen" "collision energy=30" "peak width=0.015" "date=2013-11-23 21:06:31+01:00" "column=Waters Acquity BEH C18 1.7um x 2.1 x 150 mm" "retention time=768" "raw data file=C:\Data\Confirmed Standards\Confirmed stds MSMS 22Nov13\Gardenin A (vial 285) MSMS.d" "cas number=21187-73-5" "SMILES=COc1cc(cc(c1OC)OC)c2cc(=O)c3c(c(c(c(c3o2)OC)OC)OC)O" "InChI=InChI=1S/C21H22O9/c1-24-13-7-10(8-14(25-2)17(13)26-3)12-9-11(22)15-16(23)19(27-4)21(29-6)20(28-5)18(15)30-12/h7-9,23H,1-6H3" "InChIKey=MQBFFYQCZCKSBX-UHFFFAOYSA-N" "molecular formula=C21H22O9" "total exact mass=418.126382284" "SMILES=COC1=CC(=CC(=C1OC)OC)C2=CC(=O)C3=C(O2)C(=C(C(=C3O)OC)OC)OC"
Num Peaks: 13
 255 77.977978; 
 256 11.411411; 
 268 8.508509; 
 269 47.947948; 
 270 7.607608; 
 281 3.703704; 
 283 100.000000; 
 284 17.917918; 
 285 5.205205; 
 297 97.497497; 
 298 45.345345; 
 299 10.610611; 
 313 11.211211; 


Name: Gardenin A
SYNON: $:00in-source
DB#: MetaboBASE0612
InChIKey: MQBFFYQCZCKSBX-UHFFFAOYSA-N
Instrument_type: LC-ESI-TOF
Instrument: impact HD
Ion_mode: N
InChIKey: MQBFFYQCZCKSBX-UHFFFAOYSA-N
Formula: C21H22O9
MW: 418
ExactMass: 418.126382284
Comments: "license=License CC-BY-NC-SA 4.0 International" "author=Plant Biology, The Noble Foundation, Ardmore, OK, US/Dennis Fine, Daniel Wherritt, and Lloyd Sumner" "instrument type=LC-ESI-TOF" "instrument=impact HD" "ionization=ESI" "ionization mode=negative" "collision gas=Nitrogen" "peak width=0.016" "date=2013-11-23 21:06:31+01:00" "column=Waters Acquity BEH C18 1.7um x 2.1 x 150 mm" "retention time=768" "raw data file=C:\Data\Confirmed Standards\Confirmed stds MSMS 22Nov13\Gardenin A (vial 285) MSMS.d" "cas number=21187-73-5" "SMILES=COc1cc(cc(c1OC)OC)c2cc(=O)c3c(c(c(c(c3o2)OC)OC)OC)O" "InChI=InChI=1S/C21H22O9/c1-24-13-7-10(8-14(25-2)17(13)26-3)12-9-11(22)15-16(23)19(27-4)21(29-6)20(28-5)18(15)30-12/h7-9,23H,1-6H3" "InChIKey=MQBFFYQCZCKSBX-UHFFFAOYSA-N" "molecular formula=C21H22O9" "total exact mass=418.126382284" "SMILES=COC1=CC(=CC(=C1OC)OC)C2=CC(=O)C3=C(O2)C(=C(C(=C3O)OC)OC)OC"
Num Peaks: 15
 112 1.101101; 
 116 1.001001; 
 221 0.900901; 
 235 1.001001; 
 242 1.301301; 
 248 1.101101; 
 289 1.001001; 
 304 0.700701; 
 313 100.000000; 
 314 11.911912; 
 315 1.901902; 
 349 0.700701; 
 381 2.002002; 
 627 7.607608; 
 628 2.402402; 


Name: Hispidulin
SYNON: $:00in-source
DB#: MetaboBASE0613
InChIKey: IHFBPDAQLQOCBX-UHFFFAOYSA-N
Precursor_type: [M-H]-
Spectrum_type: MS2
PrecursorMZ: 299.0565
Instrument_type: LC-ESI-TOF
Instrument: impact HD
Ion_mode: N
Collision_energy: 10
InChIKey: IHFBPDAQLQOCBX-UHFFFAOYSA-N
Formula: C16H12O6
MW: 300
ExactMass: 300.06338810399996
Comments: "license=License CC-BY-NC-SA 4.0 International" "author=Plant Biology, The Noble Foundation, Ardmore, OK, US/Dennis Fine, Daniel Wherritt, and Lloyd Sumner" "instrument type=LC-ESI-TOF" "instrument=impact HD" "ionization=ESI" "ionization mode=negative" "ms level=MS2" "precursor m/z=299.0565" "isolation width=5" "collision gas=Nitrogen" "collision energy=10" "peak width=0.011" "date=2013-11-23 12:16:34+01:00" "column=Waters Acquity BEH C18 1.7um x 2.1 x 150 mm" "retention time=621" "raw data file=C:\Data\Confirmed Standards\Confirmed stds MSMS 22Nov13\Hispidulin (vial 267) MSMS.d" "precursor type=[M-H]-" "mass accuracy=1.2970659392569377" "mass error=3.878960000633924E-4" "cas number=1447-88-7" "SMILES=COc1c(cc2c(c1O)c(=O)cc(o2)c3ccc(cc3)O)O" "InChI=InChI=1S/C16H12O6/c1-21-16-11(19)7-13-14(15(16)20)10(18)6-12(22-13)8-2-4-9(17)5-3-8/h2-7,17,19-20H,1H3" "InChIKey=IHFBPDAQLQOCBX-UHFFFAOYSA-N" "molecular formula=C16H12O6" "total exact mass=300.06338810399996" "SMILES=COC1=C(C2=C(C=C1O)OC(=CC2=O)C3=CC=C(C=C3)O)O"
Num Peaks: 7
 284 11.411411; 
 285 2.002002; 
 286 0.200200; 
 299 100.000000; 
 300 12.012012; 
 301 1.501502; 
 302 0.200200; 


Name: Hispidulin
SYNON: $:00in-source
DB#: MetaboBASE0614
InChIKey: IHFBPDAQLQOCBX-UHFFFAOYSA-N
Precursor_type: [M-H]-
Spectrum_type: MS2
PrecursorMZ: 299.0562
Instrument_type: LC-ESI-TOF
Instrument: impact HD
Ion_mode: N
Collision_energy: 20
InChIKey: IHFBPDAQLQOCBX-UHFFFAOYSA-N
Formula: C16H12O6
MW: 300
ExactMass: 300.06338810399996
Comments: "license=License CC-BY-NC-SA 4.0 International" "author=Plant Biology, The Noble Foundation, Ardmore, OK, US/Dennis Fine, Daniel Wherritt, and Lloyd Sumner" "instrument type=LC-ESI-TOF" "instrument=impact HD" "ionization=ESI" "ionization mode=negative" "ms level=MS2" "precursor m/z=299.0562" "isolation width=5" "collision gas=Nitrogen" "collision energy=20" "peak width=0.015" "date=2013-11-23 12:16:34+01:00" "column=Waters Acquity BEH C18 1.7um x 2.1 x 150 mm" "retention time=621" "raw data file=C:\Data\Confirmed Standards\Confirmed stds MSMS 22Nov13\Hispidulin (vial 267) MSMS.d" "precursor type=[M-H]-" "mass accuracy=0.29391131173676305" "mass error=8.789600002501174E-5" "cas number=1447-88-7" "SMILES=COc1c(cc2c(c1O)c(=O)cc(o2)c3ccc(cc3)O)O" "InChI=InChI=1S/C16H12O6/c1-21-16-11(19)7-13-14(15(16)20)10(18)6-12(22-13)8-2-4-9(17)5-3-8/h2-7,17,19-20H,1H3" "InChIKey=IHFBPDAQLQOCBX-UHFFFAOYSA-N" "molecular formula=C16H12O6" "total exact mass=300.06338810399996" "SMILES=COC1=C(C2=C(C=C1O)OC(=CC2=O)C3=CC=C(C=C3)O)O"
Num Peaks: 13
 136 0.200200; 
 227 0.300300; 
 228 0.200200; 
 233 0.100100; 
 255 0.100100; 
 256 0.200200; 
 283 0.400400; 
 284 100.000000; 
 285 9.909910; 
 286 1.601602; 
 299 10.810811; 
 300 1.501502; 
 301 0.200200; 


Name: Hispidulin
SYNON: $:00in-source
DB#: MetaboBASE0615
InChIKey: IHFBPDAQLQOCBX-UHFFFAOYSA-N
Precursor_type: [M-H]-
Spectrum_type: MS2
PrecursorMZ: 299.05
Instrument_type: LC-ESI-TOF
Instrument: impact HD
Ion_mode: N
Collision_energy: 40
InChIKey: IHFBPDAQLQOCBX-UHFFFAOYSA-N
Formula: C16H12O6
MW: 300
ExactMass: 300.06338810399996
Comments: "license=License CC-BY-NC-SA 4.0 International" "author=Plant Biology, The Noble Foundation, Ardmore, OK, US/Dennis Fine, Daniel Wherritt, and Lloyd Sumner" "instrument type=LC-ESI-TOF" "instrument=impact HD" "ionization=ESI" "ionization mode=negative" "ms level=MS2" "precursor m/z=299.05" "isolation width=5" "collision gas=Nitrogen" "collision energy=40" "peak width=0.017" "date=2013-11-23 12:16:34+01:00" "column=Waters Acquity BEH C18 1.7um x 2.1 x 150 mm" "retention time=621" "raw data file=C:\Data\Confirmed Standards\Confirmed stds MSMS 22Nov13\Hispidulin (vial 267) MSMS.d" "precursor type=[M-H]-" "mass accuracy=20.438401604927044" "mass error=-0.006112103999953433" "cas number=1447-88-7" "SMILES=COc1c(cc2c(c1O)c(=O)cc(o2)c3ccc(cc3)O)O" "InChI=InChI=1S/C16H12O6/c1-21-16-11(19)7-13-14(15(16)20)10(18)6-12(22-13)8-2-4-9(17)5-3-8/h2-7,17,19-20H,1H3" "InChIKey=IHFBPDAQLQOCBX-UHFFFAOYSA-N" "molecular formula=C16H12O6" "total exact mass=300.06338810399996" "SMILES=COC1=C(C2=C(C=C1O)OC(=CC2=O)C3=CC=C(C=C3)O)O"
Num Peaks: 11
 117 28.628629; 
 136 100.000000; 
 156 19.519520; 
 183 23.423423; 
 186 22.222222; 
 211 19.619620; 
 227 56.156156; 
 228 26.626627; 
 255 26.026026; 
 283 47.247247; 
 284 81.881882; 


Name: Hispidulin
SYNON: $:00in-source
DB#: MetaboBASE0616
InChIKey: IHFBPDAQLQOCBX-UHFFFAOYSA-N
Precursor_type: [M-H]-
Spectrum_type: MS2
PrecursorMZ: 299.0566
Instrument_type: LC-ESI-TOF
Instrument: impact HD
Ion_mode: N
Collision_energy: 30
InChIKey: IHFBPDAQLQOCBX-UHFFFAOYSA-N
Formula: C16H12O6
MW: 300
ExactMass: 300.06338810399996
Comments: "license=License CC-BY-NC-SA 4.0 International" "author=Plant Biology, The Noble Foundation, Ardmore, OK, US/Dennis Fine, Daniel Wherritt, and Lloyd Sumner" "instrument type=LC-ESI-TOF" "instrument=impact HD" "ionization=ESI" "ionization mode=negative" "ms level=MS2" "precursor m/z=299.0566" "isolation width=5" "collision gas=Nitrogen" "collision energy=30" "collision energy 2=30" "peak width=0.014" "date=2013-11-23 12:16:34+01:00" "column=Waters Acquity BEH C18 1.7um x 2.1 x 150 mm" "raw data file=C:\Data\Confirmed Standards\Confirmed stds MSMS 22Nov13\Hispidulin (vial 267) MSMS.d" "precursor type=[M-H]-" "mass accuracy=1.6314503677173162" "mass error=4.8789600003829037E-4" "cas number=1447-88-7" "SMILES=COc1c(cc2c(c1O)c(=O)cc(o2)c3ccc(cc3)O)O" "InChI=InChI=1S/C16H12O6/c1-21-16-11(19)7-13-14(15(16)20)10(18)6-12(22-13)8-2-4-9(17)5-3-8/h2-7,17,19-20H,1H3" "InChIKey=IHFBPDAQLQOCBX-UHFFFAOYSA-N" "molecular formula=C16H12O6" "total exact mass=300.06338810399996" "SMILES=COC1=C(C2=C(C=C1O)OC(=CC2=O)C3=CC=C(C=C3)O)O"
Num Peaks: 30
 117 0.600601; 
 136 8.508509; 
 137 1.001001; 
 149 0.400400; 
 159 0.400400; 
 164 0.700701; 
 165 0.600601; 
 183 0.400400; 
 184 0.500501; 
 186 1.001001; 
 200 1.101101; 
 211 0.600601; 
 212 2.102102; 
 214 0.400400; 
 227 5.205205; 
 228 4.404404; 
 229 0.500501; 
 238 0.400400; 
 239 1.301301; 
 240 0.900901; 
 255 1.401401; 
 256 3.503504; 
 257 0.400400; 
 260 0.500501; 
 266 0.900901; 
 283 5.505506; 
 284 100.000000; 
 285 10.810811; 
 286 1.401401; 
 299 0.400400; 


Name: Hispidulin
SYNON: $:00in-source
DB#: MetaboBASE0617
InChIKey: IHFBPDAQLQOCBX-UHFFFAOYSA-N
Precursor_type: [M-H]-
Spectrum_type: MS2
PrecursorMZ: 299.05
Instrument_type: LC-ESI-TOF
Instrument: impact HD
Ion_mode: N
Collision_energy: 50
InChIKey: IHFBPDAQLQOCBX-UHFFFAOYSA-N
Formula: C16H12O6
MW: 300
ExactMass: 300.06338810399996
Comments: "license=License CC-BY-NC-SA 4.0 International" "author=Plant Biology, The Noble Foundation, Ardmore, OK, US/Dennis Fine, Daniel Wherritt, and Lloyd Sumner" "instrument type=LC-ESI-TOF" "instrument=impact HD" "ionization=ESI" "ionization mode=negative" "ms level=MS2" "precursor m/z=299.05" "isolation width=5" "collision gas=Nitrogen" "collision energy=50" "peak width=0.012" "date=2013-11-23 12:16:34+01:00" "column=Waters Acquity BEH C18 1.7um x 2.1 x 150 mm" "retention time=621" "raw data file=C:\Data\Confirmed Standards\Confirmed stds MSMS 22Nov13\Hispidulin (vial 267) MSMS.d" "precursor type=[M-H]-" "mass accuracy=20.438401604927044" "mass error=-0.006112103999953433" "cas number=1447-88-7" "SMILES=COc1c(cc2c(c1O)c(=O)cc(o2)c3ccc(cc3)O)O" "InChI=InChI=1S/C16H12O6/c1-21-16-11(19)7-13-14(15(16)20)10(18)6-12(22-13)8-2-4-9(17)5-3-8/h2-7,17,19-20H,1H3" "InChIKey=IHFBPDAQLQOCBX-UHFFFAOYSA-N" "molecular formula=C16H12O6" "total exact mass=300.06338810399996" "SMILES=COC1=C(C2=C(C=C1O)OC(=CC2=O)C3=CC=C(C=C3)O)O"
Num Peaks: 17
 116 28.428428; 
 117 100.000000; 
 118 16.616617; 
 119 15.515516; 
 130 19.319319; 
 136 43.743744; 
 139 14.814815; 
 143 15.815816; 
 158 22.622623; 
 167 16.216216; 
 183 43.743744; 
 185 29.329329; 
 199 19.919920; 
 200 17.617618; 
 227 51.851852; 
 239 16.716717; 
 283 22.722723; 


Name: Hispidulin
SYNON: $:00in-source
DB#: MetaboBASE0618
InChIKey: IHFBPDAQLQOCBX-UHFFFAOYSA-N
Instrument_type: LC-ESI-TOF
Instrument: impact HD
Ion_mode: N
InChIKey: IHFBPDAQLQOCBX-UHFFFAOYSA-N
Formula: C16H12O6
MW: 300
ExactMass: 300.06338810399996
Comments: "license=License CC-BY-NC-SA 4.0 International" "author=Plant Biology, The Noble Foundation, Ardmore, OK, US/Dennis Fine, Daniel Wherritt, and Lloyd Sumner" "instrument type=LC-ESI-TOF" "instrument=impact HD" "ionization=ESI" "ionization mode=negative" "collision gas=Nitrogen" "peak width=0.014" "date=2013-11-23 12:16:34+01:00" "column=Waters Acquity BEH C18 1.7um x 2.1 x 150 mm" "retention time=621" "raw data file=C:\Data\Confirmed Standards\Confirmed stds MSMS 22Nov13\Hispidulin (vial 267) MSMS.d" "cas number=1447-88-7" "SMILES=COc1c(cc2c(c1O)c(=O)cc(o2)c3ccc(cc3)O)O" "InChI=InChI=1S/C16H12O6/c1-21-16-11(19)7-13-14(15(16)20)10(18)6-12(22-13)8-2-4-9(17)5-3-8/h2-7,17,19-20H,1H3" "InChIKey=IHFBPDAQLQOCBX-UHFFFAOYSA-N" "molecular formula=C16H12O6" "total exact mass=300.06338810399996" "SMILES=COC1=C(C2=C(C=C1O)OC(=CC2=O)C3=CC=C(C=C3)O)O"
Num Peaks: 25
 112 0.200200; 
 116 0.300300; 
 174 0.200200; 
 235 0.300300; 
 242 0.200200; 
 248 0.200200; 
 284 1.101101; 
 285 0.200200; 
 299 100.000000; 
 300 12.812813; 
 301 1.401401; 
 302 0.200200; 
 304 0.200200; 
 335 0.200200; 
 367 0.700701; 
 368 0.200200; 
 429 0.200200; 
 489 0.100100; 
 599 1.001001; 
 600 0.300300; 
 621 0.100100; 
 666 0.300300; 
 683 0.200200; 
 689 0.100100; 
 744 0.100100; 


Name: Isosakuranin
SYNON: $:00in-source
DB#: MetaboBASE0619
InChIKey: KEEWIHDTSNESJZ-NKGQIIMOSA-N
Spectrum_type: MS2
PrecursorMZ: 285.0771
Instrument_type: LC-ESI-TOF
Instrument: impact HD
Ion_mode: N
Collision_energy: 10
InChIKey: KEEWIHDTSNESJZ-NKGQIIMOSA-N
Formula: C22H24O10
MW: 448
ExactMass: 448.13694696799996
Comments: "license=License CC-BY-NC-SA 4.0 International" "author=Plant Biology, The Noble Foundation, Ardmore, OK, US/Dennis Fine, Daniel Wherritt, and Lloyd Sumner" "instrument type=LC-ESI-TOF" "instrument=impact HD" "ionization=ESI" "ionization mode=negative" "ms level=MS2" "precursor m/z=285.0771" "isolation width=5" "collision gas=Nitrogen" "collision energy=10" "peak width=0.015" "date=2014-08-07 00:51:00+02:00" "column=Waters Acquity BEH C18 1.7um x 2.1 x 150 mm" "retention time=603" "raw data file=C:\Data\Confirmed standards 24_July_2014\MSMS\Isosakuranin vial 274_1-C,4_01_559.d" "cas number=491-69-0" "InChIKey=KEEWIHDTSNESJZ-NKGQIIMOSA-N" "molecular formula=C22H24O10" "total exact mass=448.13694696799996" "SMILES=COC1=CC=C(C=C1)C2CC(=O)C3=C(C=C(C=C3O2)OC4C(C(C(C(O4)CO)O)O)O)O" "InChI=InChI=1S/C22H24O10/c1-29-11-4-2-10(3-5-11)15-8-14(25)18-13(24)6-12(7-16(18)31-15)30-22-21(28)20(27)19(26)17(9-23)32-22/h2-7,15,17,19-24,26-28H,8-9H2,1H3" "InChIKey=KEEWIHDTSNESJZ-UHFFFAOYSA-N"
Num Peaks: 5
 243 0.400400; 
 270 0.500501; 
 285 100.000000; 
 286 15.615616; 
 287 1.401401; 


Name: Isosakuranin
SYNON: $:00in-source
DB#: MetaboBASE0620
InChIKey: KEEWIHDTSNESJZ-NKGQIIMOSA-N
Spectrum_type: MS2
PrecursorMZ: 283.06
Instrument_type: LC-ESI-TOF
Instrument: impact HD
Ion_mode: N
Collision_energy: 10
InChIKey: KEEWIHDTSNESJZ-NKGQIIMOSA-N
Formula: C22H24O10
MW: 448
ExactMass: 448.13694696799996
Comments: "license=License CC-BY-NC-SA 4.0 International" "author=Plant Biology, The Noble Foundation, Ardmore, OK, US/Dennis Fine, Daniel Wherritt, and Lloyd Sumner" "instrument type=LC-ESI-TOF" "instrument=impact HD" "ionization=ESI" "ionization mode=negative" "ms level=MS2" "precursor m/z=283.06" "isolation width=5" "collision gas=Nitrogen" "collision energy=10" "peak width=0.018" "date=2014-07-26 12:46:39+02:00" "column=Waters Acquity BEH C18 1.7um x 2.1 x 150 mm" "retention time=603" "raw data file=C:\Data\Confirmed standards 24_July_2014\MSMS\Isosakuranin vial 274_1-C,4_01_501.d" "cas number=491-69-0" "InChIKey=KEEWIHDTSNESJZ-NKGQIIMOSA-N" "molecular formula=C22H24O10" "total exact mass=448.13694696799996" "SMILES=COC1=CC=C(C=C1)C2CC(=O)C3=C(C=C(C=C3O2)OC4C(C(C(C(O4)CO)O)O)O)O" "InChI=InChI=1S/C22H24O10/c1-29-11-4-2-10(3-5-11)15-8-14(25)18-13(24)6-12(7-16(18)31-15)30-22-21(28)20(27)19(26)17(9-23)32-22/h2-7,15,17,19-24,26-28H,8-9H2,1H3" "InChIKey=KEEWIHDTSNESJZ-UHFFFAOYSA-N"
Num Peaks: 5
 243 0.700701; 
 270 0.600601; 
 285 100.000000; 
 285 0.500501; 
 286 7.307307; 


Name: Isosakuranin
SYNON: $:00in-source
DB#: MetaboBASE0621
InChIKey: KEEWIHDTSNESJZ-NKGQIIMOSA-N
Instrument_type: LC-ESI-TOF
Instrument: impact HD
Ion_mode: N
InChIKey: KEEWIHDTSNESJZ-NKGQIIMOSA-N
Formula: C22H24O10
MW: 448
ExactMass: 448.13694696799996
Comments: "license=License CC-BY-NC-SA 4.0 International" "author=Plant Biology, The Noble Foundation, Ardmore, OK, US/Dennis Fine, Daniel Wherritt, and Lloyd Sumner" "instrument type=LC-ESI-TOF" "instrument=impact HD" "ionization=ESI" "ionization mode=negative" "collision gas=Nitrogen" "peak width=0.014" "date=2014-01-11 05:19:03+01:00" "column=Waters Acquity BEH C18 1.7um x 2.1 x 150 mm" "retention time=603" "raw data file=C:\Data\Confirmed Standards\14Jan10 Confirmed stds MSMS\Isosakuranin (vial 274).d" "cas number=491-69-0" "InChIKey=KEEWIHDTSNESJZ-NKGQIIMOSA-N" "molecular formula=C22H24O10" "total exact mass=448.13694696799996" "SMILES=COC1=CC=C(C=C1)C2CC(=O)C3=C(C=C(C=C3O2)OC4C(C(C(C(O4)CO)O)O)O)O" "InChI=InChI=1S/C22H24O10/c1-29-11-4-2-10(3-5-11)15-8-14(25)18-13(24)6-12(7-16(18)31-15)30-22-21(28)20(27)19(26)17(9-23)32-22/h2-7,15,17,19-24,26-28H,8-9H2,1H3" "InChIKey=KEEWIHDTSNESJZ-UHFFFAOYSA-N"
Num Peaks: 16
 112 1.001001; 
 285 4.304304; 
 447 16.616617; 
 448 3.403403; 
 493 100.000000; 
 494 23.423423; 
 495 3.203203; 
 561 1.201201; 
 895 1.001001; 
 941 22.722723; 
 942 10.210210; 
 943 3.003003; 
 963 1.101101; 
 1343 1.201201; 
 1389 2.302302; 
 1390 1.601602; 


Name: Isosakuranin
SYNON: $:00in-source
DB#: MetaboBASE0622
InChIKey: KEEWIHDTSNESJZ-NKGQIIMOSA-N
Spectrum_type: MS2
PrecursorMZ: 285.08
Instrument_type: LC-ESI-TOF
Instrument: impact HD
Ion_mode: N
Collision_energy: 50
InChIKey: KEEWIHDTSNESJZ-NKGQIIMOSA-N
Formula: C22H24O10
MW: 448
ExactMass: 448.13694696799996
Comments: "license=License CC-BY-NC-SA 4.0 International" "author=Plant Biology, The Noble Foundation, Ardmore, OK, US/Dennis Fine, Daniel Wherritt, and Lloyd Sumner" "instrument type=LC-ESI-TOF" "instrument=impact HD" "ionization=ESI" "ionization mode=negative" "ms level=MS2" "precursor m/z=285.08" "isolation width=5" "collision gas=Nitrogen" "collision energy=50" "peak width=0.017" "date=2014-08-07 00:51:00+02:00" "column=Waters Acquity BEH C18 1.7um x 2.1 x 150 mm" "retention time=603" "raw data file=C:\Data\Confirmed standards 24_July_2014\MSMS\Isosakuranin vial 274_1-C,4_01_559.d" "cas number=491-69-0" "InChIKey=KEEWIHDTSNESJZ-NKGQIIMOSA-N" "molecular formula=C22H24O10" "total exact mass=448.13694696799996" "SMILES=COC1=CC=C(C=C1)C2CC(=O)C3=C(C=C(C=C3O2)OC4C(C(C(C(O4)CO)O)O)O)O" "InChI=InChI=1S/C22H24O10/c1-29-11-4-2-10(3-5-11)15-8-14(25)18-13(24)6-12(7-16(18)31-15)30-22-21(28)20(27)19(26)17(9-23)32-22/h2-7,15,17,19-24,26-28H,8-9H2,1H3" "InChIKey=KEEWIHDTSNESJZ-UHFFFAOYSA-N"
Num Peaks: 12
 107 17.917918; 
 108 100.000000; 
 117 25.425425; 
 119 33.433433; 
 130 11.811812; 
 136 82.982983; 
 151 17.717718; 
 159 30.030030; 
 164 15.815816; 
 186 17.417417; 
 227 28.928929; 
 1446 12.112112; 


Name: Isosakuranin
SYNON: $:00in-source
DB#: MetaboBASE0623
InChIKey: KEEWIHDTSNESJZ-NKGQIIMOSA-N
Spectrum_type: MS2
PrecursorMZ: 283.06
Instrument_type: LC-ESI-TOF
Instrument: impact HD
Ion_mode: N
Collision_energy: 40
InChIKey: KEEWIHDTSNESJZ-NKGQIIMOSA-N
Formula: C22H24O10
MW: 448
ExactMass: 448.13694696799996
Comments: "license=License CC-BY-NC-SA 4.0 International" "author=Plant Biology, The Noble Foundation, Ardmore, OK, US/Dennis Fine, Daniel Wherritt, and Lloyd Sumner" "instrument type=LC-ESI-TOF" "instrument=impact HD" "ionization=ESI" "ionization mode=negative" "ms level=MS2" "precursor m/z=283.06" "isolation width=5" "collision gas=Nitrogen" "collision energy=40" "peak width=0.02" "date=2014-07-26 12:46:39+02:00" "column=Waters Acquity BEH C18 1.7um x 2.1 x 150 mm" "retention time=603" "raw data file=C:\Data\Confirmed standards 24_July_2014\MSMS\Isosakuranin vial 274_1-C,4_01_501.d" "cas number=491-69-0" "InChIKey=KEEWIHDTSNESJZ-NKGQIIMOSA-N" "molecular formula=C22H24O10" "total exact mass=448.13694696799996" "SMILES=COC1=CC=C(C=C1)C2CC(=O)C3=C(C=C(C=C3O2)OC4C(C(C(C(O4)CO)O)O)O)O" "InChI=InChI=1S/C22H24O10/c1-29-11-4-2-10(3-5-11)15-8-14(25)18-13(24)6-12(7-16(18)31-15)30-22-21(28)20(27)19(26)17(9-23)32-22/h2-7,15,17,19-24,26-28H,8-9H2,1H3" "InChIKey=KEEWIHDTSNESJZ-UHFFFAOYSA-N"
Num Peaks: 11
 107 23.223223; 
 108 96.396396; 
 136 100.000000; 
 151 30.130130; 
 159 27.627628; 
 164 72.572573; 
 195 19.819820; 
 200 28.928929; 
 227 53.253253; 
 243 15.215215; 
 285 14.014014; 


Name: Isosakuranin
SYNON: $:00in-source
DB#: MetaboBASE0624
InChIKey: KEEWIHDTSNESJZ-NKGQIIMOSA-N
Spectrum_type: MS2
PrecursorMZ: 283.06
Instrument_type: LC-ESI-TOF
Instrument: impact HD
Ion_mode: N
Collision_energy: 20
InChIKey: KEEWIHDTSNESJZ-NKGQIIMOSA-N
Formula: C22H24O10
MW: 448
ExactMass: 448.13694696799996
Comments: "license=License CC-BY-NC-SA 4.0 International" "author=Plant Biology, The Noble Foundation, Ardmore, OK, US/Dennis Fine, Daniel Wherritt, and Lloyd Sumner" "instrument type=LC-ESI-TOF" "instrument=impact HD" "ionization=ESI" "ionization mode=negative" "ms level=MS2" "precursor m/z=283.06" "isolation width=5" "collision gas=Nitrogen" "collision energy=20" "peak width=0.019" "date=2014-07-26 12:46:39+02:00" "column=Waters Acquity BEH C18 1.7um x 2.1 x 150 mm" "retention time=603" "raw data file=C:\Data\Confirmed standards 24_July_2014\MSMS\Isosakuranin vial 274_1-C,4_01_501.d" "cas number=491-69-0" "InChIKey=KEEWIHDTSNESJZ-NKGQIIMOSA-N" "molecular formula=C22H24O10" "total exact mass=448.13694696799996" "SMILES=COC1=CC=C(C=C1)C2CC(=O)C3=C(C=C(C=C3O2)OC4C(C(C(C(O4)CO)O)O)O)O" "InChI=InChI=1S/C22H24O10/c1-29-11-4-2-10(3-5-11)15-8-14(25)18-13(24)6-12(7-16(18)31-15)30-22-21(28)20(27)19(26)17(9-23)32-22/h2-7,15,17,19-24,26-28H,8-9H2,1H3" "InChIKey=KEEWIHDTSNESJZ-UHFFFAOYSA-N"
Num Peaks: 10
 151 2.802803; 
 164 4.904905; 
 195 1.701702; 
 217 0.900901; 
 241 1.901902; 
 243 11.011011; 
 244 0.900901; 
 270 6.206206; 
 285 100.000000; 
 286 9.009009; 


Name: Isosakuranin
SYNON: $:00in-source
DB#: MetaboBASE0625
InChIKey: KEEWIHDTSNESJZ-NKGQIIMOSA-N
Spectrum_type: MS2
PrecursorMZ: 283.06
Instrument_type: LC-ESI-TOF
Instrument: impact HD
Ion_mode: N
Collision_energy: 30
InChIKey: KEEWIHDTSNESJZ-NKGQIIMOSA-N
Formula: C22H24O10
MW: 448
ExactMass: 448.13694696799996
Comments: "license=License CC-BY-NC-SA 4.0 International" "author=Plant Biology, The Noble Foundation, Ardmore, OK, US/Dennis Fine, Daniel Wherritt, and Lloyd Sumner" "instrument type=LC-ESI-TOF" "instrument=impact HD" "ionization=ESI" "ionization mode=negative" "ms level=MS2" "precursor m/z=283.06" "isolation width=5" "collision gas=Nitrogen" "collision energy=30" "peak width=0.02" "date=2014-07-26 12:46:39+02:00" "column=Waters Acquity BEH C18 1.7um x 2.1 x 150 mm" "retention time=603" "raw data file=C:\Data\Confirmed standards 24_July_2014\MSMS\Isosakuranin vial 274_1-C,4_01_501.d" "cas number=491-69-0" "InChIKey=KEEWIHDTSNESJZ-NKGQIIMOSA-N" "molecular formula=C22H24O10" "total exact mass=448.13694696799996" "SMILES=COC1=CC=C(C=C1)C2CC(=O)C3=C(C=C(C=C3O2)OC4C(C(C(C(O4)CO)O)O)O)O" "InChI=InChI=1S/C22H24O10/c1-29-11-4-2-10(3-5-11)15-8-14(25)18-13(24)6-12(7-16(18)31-15)30-22-21(28)20(27)19(26)17(9-23)32-22/h2-7,15,17,19-24,26-28H,8-9H2,1H3" "InChIKey=KEEWIHDTSNESJZ-UHFFFAOYSA-N"
Num Peaks: 19
 107 7.707708; 
 108 23.623624; 
 123 5.905906; 
 136 47.747748; 
 151 39.639640; 
 164 100.000000; 
 175 10.210210; 
 195 19.819820; 
 198 6.206206; 
 201 10.310310; 
 225 7.407407; 
 227 17.517518; 
 228 15.415415; 
 241 9.409409; 
 243 56.456456; 
 269 8.008008; 
 270 21.821822; 
 285 87.087087; 
 286 7.807808; 


Name: Isosakuranin
SYNON: $:00in-source
DB#: MetaboBASE0626
InChIKey: KEEWIHDTSNESJZ-NKGQIIMOSA-N
Spectrum_type: MS2
PrecursorMZ: 285.0767
Instrument_type: LC-ESI-TOF
Instrument: impact HD
Ion_mode: N
Collision_energy: 20
InChIKey: KEEWIHDTSNESJZ-NKGQIIMOSA-N
Formula: C22H24O10
MW: 448
ExactMass: 448.13694696799996
Comments: "license=License CC-BY-NC-SA 4.0 International" "author=Plant Biology, The Noble Foundation, Ardmore, OK, US/Dennis Fine, Daniel Wherritt, and Lloyd Sumner" "instrument type=LC-ESI-TOF" "instrument=impact HD" "ionization=ESI" "ionization mode=negative" "ms level=MS2" "precursor m/z=285.0767" "isolation width=5" "collision gas=Nitrogen" "collision energy=20" "peak width=0.017" "date=2014-08-07 00:51:00+02:00" "column=Waters Acquity BEH C18 1.7um x 2.1 x 150 mm" "retention time=603" "raw data file=C:\Data\Confirmed standards 24_July_2014\MSMS\Isosakuranin vial 274_1-C,4_01_559.d" "cas number=491-69-0" "InChIKey=KEEWIHDTSNESJZ-NKGQIIMOSA-N" "molecular formula=C22H24O10" "total exact mass=448.13694696799996" "SMILES=COC1=CC=C(C=C1)C2CC(=O)C3=C(C=C(C=C3O2)OC4C(C(C(C(O4)CO)O)O)O)O" "InChI=InChI=1S/C22H24O10/c1-29-11-4-2-10(3-5-11)15-8-14(25)18-13(24)6-12(7-16(18)31-15)30-22-21(28)20(27)19(26)17(9-23)32-22/h2-7,15,17,19-24,26-28H,8-9H2,1H3" "InChIKey=KEEWIHDTSNESJZ-UHFFFAOYSA-N"
Num Peaks: 21
 107 0.300300; 
 136 0.600601; 
 151 2.402402; 
 164 6.206206; 
 165 0.700701; 
 175 0.700701; 
 196 2.302302; 
 199 0.400400; 
 217 0.500501; 
 226 0.500501; 
 227 0.300300; 
 228 0.800801; 
 241 1.301301; 
 243 10.310310; 
 244 1.801802; 
 257 0.500501; 
 270 7.007007; 
 271 0.800801; 
 285 100.000000; 
 286 15.515516; 
 287 1.401401; 


Name: Isosakuranin
SYNON: $:00in-source
DB#: MetaboBASE0627
InChIKey: KEEWIHDTSNESJZ-NKGQIIMOSA-N
Precursor_type: [M+FA-H]-
Spectrum_type: MS2
PrecursorMZ: 493.1378
Instrument_type: LC-ESI-TOF
Instrument: impact HD
Ion_mode: N
Collision_energy: 10
InChIKey: KEEWIHDTSNESJZ-NKGQIIMOSA-N
Formula: C22H24O10
MW: 448
ExactMass: 448.13694696799996
Comments: "license=License CC-BY-NC-SA 4.0 International" "author=Plant Biology, The Noble Foundation, Ardmore, OK, US/Dennis Fine, Daniel Wherritt, and Lloyd Sumner" "instrument type=LC-ESI-TOF" "instrument=impact HD" "ionization=ESI" "ionization mode=negative" "ms level=MS2" "precursor m/z=493.1378" "isolation width=5" "collision gas=Nitrogen" "collision energy=10" "peak width=0.015" "date=2014-08-07 00:10:06+02:00" "column=Waters Acquity BEH C18 1.7um x 2.1 x 150 mm" "retention time=603" "raw data file=C:\Data\Confirmed standards 24_July_2014\MSMS\Isosakuranin vial 274_1-C,4_01_558.d" "precursor type=[M+FA-H]-" "mass accuracy=5.3778720675465514" "mass error=0.002652032000071358" "cas number=491-69-0" "InChIKey=KEEWIHDTSNESJZ-NKGQIIMOSA-N" "molecular formula=C22H24O10" "total exact mass=448.13694696799996" "SMILES=COC1=CC=C(C=C1)C2CC(=O)C3=C(C=C(C=C3O2)OC4C(C(C(C(O4)CO)O)O)O)O" "InChI=InChI=1S/C22H24O10/c1-29-11-4-2-10(3-5-11)15-8-14(25)18-13(24)6-12(7-16(18)31-15)30-22-21(28)20(27)19(26)17(9-23)32-22/h2-7,15,17,19-24,26-28H,8-9H2,1H3" "InChIKey=KEEWIHDTSNESJZ-UHFFFAOYSA-N"
Num Peaks: 35
 285 72.972973; 
 286 8.608609; 
 287 0.600601; 
 309 0.400400; 
 327 2.302302; 
 328 0.300300; 
 351 0.200200; 
 369 0.400400; 
 447 100.000000; 
 447 0.200200; 
 447 0.300300; 
 448 19.819820; 
 449 1.901902; 
 450 0.200200; 
 493 33.033033; 
 494 7.207207; 
 495 0.600601; 
 1046 0.200200; 
 1086 0.200200; 
 1093 0.200200; 
 1163 0.200200; 
 1210 0.200200; 
 1221 0.200200; 
 1222 0.200200; 
 1277 0.200200; 
 1337 0.200200; 
 1366 0.200200; 
 1392 0.200200; 
 1406 0.200200; 
 1406 0.200200; 
 1452 0.200200; 
 1455 0.200200; 
 1455 0.200200; 
 1466 0.200200; 
 1491 0.200200; 


Name: Isosakuranin
SYNON: $:00in-source
DB#: MetaboBASE0628
InChIKey: KEEWIHDTSNESJZ-NKGQIIMOSA-N
Precursor_type: [M-H]-
Spectrum_type: MS2
PrecursorMZ: 447.1319
Instrument_type: LC-ESI-TOF
Instrument: impact HD
Ion_mode: N
Collision_energy: 30
InChIKey: KEEWIHDTSNESJZ-NKGQIIMOSA-N
Formula: C22H24O10
MW: 448
ExactMass: 448.13694696799996
Comments: "license=License CC-BY-NC-SA 4.0 International" "author=Plant Biology, The Noble Foundation, Ardmore, OK, US/Dennis Fine, Daniel Wherritt, and Lloyd Sumner" "instrument type=LC-ESI-TOF" "instrument=impact HD" "ionization=ESI" "ionization mode=negative" "ms level=MS2" "precursor m/z=447.1319" "isolation width=5" "collision gas=Nitrogen" "collision energy=30" "peak width=0.015" "date=2014-08-06 23:29:13+02:00" "column=Waters Acquity BEH C18 1.7um x 2.1 x 150 mm" "retention time=603" "raw data file=C:\Data\Confirmed standards 24_July_2014\MSMS\Isosakuranin vial 274_1-C,4_01_557.d" "precursor type=[M-H]-" "mass accuracy=4.985177751805367" "mass error=0.002229032000002462" "cas number=491-69-0" "InChIKey=KEEWIHDTSNESJZ-NKGQIIMOSA-N" "molecular formula=C22H24O10" "total exact mass=448.13694696799996" "SMILES=COC1=CC=C(C=C1)C2CC(=O)C3=C(C=C(C=C3O2)OC4C(C(C(C(O4)CO)O)O)O)O" "InChI=InChI=1S/C22H24O10/c1-29-11-4-2-10(3-5-11)15-8-14(25)18-13(24)6-12(7-16(18)31-15)30-22-21(28)20(27)19(26)17(9-23)32-22/h2-7,15,17,19-24,26-28H,8-9H2,1H3" "InChIKey=KEEWIHDTSNESJZ-UHFFFAOYSA-N"
Num Peaks: 48
 151 0.700701; 
 164 0.800801; 
 165 0.100100; 
 175 0.100100; 
 193 0.100100; 
 196 0.200200; 
 203 0.200200; 
 217 0.200200; 
 226 0.400400; 
 228 0.100100; 
 241 2.802803; 
 242 0.400400; 
 243 1.901902; 
 244 0.300300; 
 255 0.200200; 
 255 0.100100; 
 256 0.100100; 
 257 0.200200; 
 266 0.100100; 
 269 0.100100; 
 269 0.700701; 
 270 3.303303; 
 270 0.100100; 
 271 0.400400; 
 271 0.100100; 
 281 0.300300; 
 282 0.100100; 
 283 0.600601; 
 283 0.100100; 
 284 0.400400; 
 285 100.000000; 
 286 15.315315; 
 287 0.700701; 
 294 0.300300; 
 297 0.200200; 
 298 0.200200; 
 299 1.601602; 
 300 0.300300; 
 307 0.300300; 
 309 2.702703; 
 310 0.500501; 
 311 0.100100; 
 312 0.200200; 
 327 3.803804; 
 328 0.700701; 
 339 0.600601; 
 351 0.200200; 
 447 0.200200; 


Name: Isosakuranin
SYNON: $:00in-source
DB#: MetaboBASE0629
InChIKey: KEEWIHDTSNESJZ-NKGQIIMOSA-N
Precursor_type: [M+FA-H]-
Spectrum_type: MS2
PrecursorMZ: 493.1
Instrument_type: LC-ESI-TOF
Instrument: impact HD
Ion_mode: N
Collision_energy: 50
InChIKey: KEEWIHDTSNESJZ-NKGQIIMOSA-N
Formula: C22H24O10
MW: 448
ExactMass: 448.13694696799996
Comments: "license=License CC-BY-NC-SA 4.0 International" "author=Plant Biology, The Noble Foundation, Ardmore, OK, US/Dennis Fine, Daniel Wherritt, and Lloyd Sumner" "instrument type=LC-ESI-TOF" "instrument=impact HD" "ionization=ESI" "ionization mode=negative" "ms level=MS2" "precursor m/z=493.1" "isolation width=5" "collision gas=Nitrogen" "collision energy=50" "peak width=0.018" "date=2014-08-07 00:10:06+02:00" "column=Waters Acquity BEH C18 1.7um x 2.1 x 150 mm" "retention time=603" "raw data file=C:\Data\Confirmed standards 24_July_2014\MSMS\Isosakuranin vial 274_1-C,4_01_558.d" "precursor type=[M+FA-H]-" "mass accuracy=71.27959440262202" "mass error=-0.035147967999932916" "cas number=491-69-0" "InChIKey=KEEWIHDTSNESJZ-NKGQIIMOSA-N" "molecular formula=C22H24O10" "total exact mass=448.13694696799996" "SMILES=COC1=CC=C(C=C1)C2CC(=O)C3=C(C=C(C=C3O2)OC4C(C(C(C(O4)CO)O)O)O)O" "InChI=InChI=1S/C22H24O10/c1-29-11-4-2-10(3-5-11)15-8-14(25)18-13(24)6-12(7-16(18)31-15)30-22-21(28)20(27)19(26)17(9-23)32-22/h2-7,15,17,19-24,26-28H,8-9H2,1H3" "InChIKey=KEEWIHDTSNESJZ-UHFFFAOYSA-N"
Num Peaks: 50
 107 0.900901; 
 108 0.700701; 
 125 0.400400; 
 136 1.201201; 
 151 6.206206; 
 152 0.400400; 
 159 0.300300; 
 164 9.209209; 
 165 1.001001; 
 175 0.400400; 
 175 1.001001; 
 177 0.500501; 
 196 2.802803; 
 198 0.500501; 
 199 0.400400; 
 201 0.700701; 
 203 0.600601; 
 215 0.300300; 
 217 0.700701; 
 225 0.700701; 
 226 1.301301; 
 227 0.900901; 
 227 0.300300; 
 228 1.601602; 
 241 0.400400; 
 241 5.005005; 
 242 0.500501; 
 242 0.900901; 
 243 12.412412; 
 244 1.401401; 
 255 0.500501; 
 257 0.700701; 
 266 0.300300; 
 269 0.600601; 
 269 1.001001; 
 270 10.610611; 
 271 1.101101; 
 283 0.900901; 
 284 0.400400; 
 285 100.000000; 
 286 13.613614; 
 287 0.700701; 
 294 0.300300; 
 299 0.600601; 
 307 0.300300; 
 309 0.400400; 
 327 0.800801; 
 916 0.300300; 
 1176 0.300300; 
 1324 0.300300; 


Name: Isosakuranin
SYNON: $:00in-source
DB#: MetaboBASE0630
InChIKey: KEEWIHDTSNESJZ-NKGQIIMOSA-N
Precursor_type: [M-H]-
Spectrum_type: MS2
PrecursorMZ: 447.1327
Instrument_type: LC-ESI-TOF
Instrument: impact HD
Ion_mode: N
Collision_energy: 20
InChIKey: KEEWIHDTSNESJZ-NKGQIIMOSA-N
Formula: C22H24O10
MW: 448
ExactMass: 448.13694696799996
Comments: "license=License CC-BY-NC-SA 4.0 International" "author=Plant Biology, The Noble Foundation, Ardmore, OK, US/Dennis Fine, Daniel Wherritt, and Lloyd Sumner" "instrument type=LC-ESI-TOF" "instrument=impact HD" "ionization=ESI" "ionization mode=negative" "ms level=MS2" "precursor m/z=447.1327" "isolation width=5" "collision gas=Nitrogen" "collision energy=20" "peak width=0.015" "date=2014-08-06 23:29:13+02:00" "column=Waters Acquity BEH C18 1.7um x 2.1 x 150 mm" "retention time=603" "raw data file=C:\Data\Confirmed standards 24_July_2014\MSMS\Isosakuranin vial 274_1-C,4_01_557.d" "precursor type=[M-H]-" "mass accuracy=6.774346855036591" "mass error=0.0030290320000290194" "cas number=491-69-0" "InChIKey=KEEWIHDTSNESJZ-NKGQIIMOSA-N" "molecular formula=C22H24O10" "total exact mass=448.13694696799996" "SMILES=COC1=CC=C(C=C1)C2CC(=O)C3=C(C=C(C=C3O2)OC4C(C(C(C(O4)CO)O)O)O)O" "InChI=InChI=1S/C22H24O10/c1-29-11-4-2-10(3-5-11)15-8-14(25)18-13(24)6-12(7-16(18)31-15)30-22-21(28)20(27)19(26)17(9-23)32-22/h2-7,15,17,19-24,26-28H,8-9H2,1H3" "InChIKey=KEEWIHDTSNESJZ-UHFFFAOYSA-N"
Num Peaks: 28
 241 0.500501; 
 243 0.400400; 
 269 0.500501; 
 270 0.600601; 
 285 100.000000; 
 286 14.714715; 
 287 0.800801; 
 297 0.400400; 
 298 0.200200; 
 299 1.001001; 
 300 0.200200; 
 307 0.300300; 
 309 6.906907; 
 310 1.201201; 
 311 0.100100; 
 327 6.006006; 
 328 1.201201; 
 339 1.301301; 
 340 0.200200; 
 351 0.300300; 
 357 0.200200; 
 369 0.100100; 
 387 0.500501; 
 429 0.300300; 
 430 0.100100; 
 447 6.206206; 
 448 1.701702; 
 449 0.100100; 


Name: Isosakuranin
SYNON: $:00in-source
DB#: MetaboBASE0631
InChIKey: KEEWIHDTSNESJZ-NKGQIIMOSA-N
Precursor_type: [M+FA-H]-
Spectrum_type: MS2
PrecursorMZ: 493.1
Instrument_type: LC-ESI-TOF
Instrument: impact HD
Ion_mode: N
Collision_energy: 40
InChIKey: KEEWIHDTSNESJZ-NKGQIIMOSA-N
Formula: C22H24O10
MW: 448
ExactMass: 448.13694696799996
Comments: "license=License CC-BY-NC-SA 4.0 International" "author=Plant Biology, The Noble Foundation, Ardmore, OK, US/Dennis Fine, Daniel Wherritt, and Lloyd Sumner" "instrument type=LC-ESI-TOF" "instrument=impact HD" "ionization=ESI" "ionization mode=negative" "ms level=MS2" "precursor m/z=493.1" "isolation width=5" "collision gas=Nitrogen" "collision energy=40" "peak width=0.015" "date=2014-08-07 00:10:06+02:00" "column=Waters Acquity BEH C18 1.7um x 2.1 x 150 mm" "retention time=603" "raw data file=C:\Data\Confirmed standards 24_July_2014\MSMS\Isosakuranin vial 274_1-C,4_01_558.d" "precursor type=[M+FA-H]-" "mass accuracy=71.27959440262202" "mass error=-0.035147967999932916" "cas number=491-69-0" "InChIKey=KEEWIHDTSNESJZ-NKGQIIMOSA-N" "molecular formula=C22H24O10" "total exact mass=448.13694696799996" "SMILES=COC1=CC=C(C=C1)C2CC(=O)C3=C(C=C(C=C3O2)OC4C(C(C(C(O4)CO)O)O)O)O" "InChI=InChI=1S/C22H24O10/c1-29-11-4-2-10(3-5-11)15-8-14(25)18-13(24)6-12(7-16(18)31-15)30-22-21(28)20(27)19(26)17(9-23)32-22/h2-7,15,17,19-24,26-28H,8-9H2,1H3" "InChIKey=KEEWIHDTSNESJZ-UHFFFAOYSA-N"
Num Peaks: 48
 125 0.100100; 
 136 0.200200; 
 151 0.700701; 
 164 1.401401; 
 165 0.100100; 
 196 0.500501; 
 217 0.100100; 
 225 0.200200; 
 226 0.200200; 
 228 0.300300; 
 241 1.901902; 
 242 0.300300; 
 243 3.203203; 
 244 0.400400; 
 256 0.100100; 
 269 0.800801; 
 270 3.003003; 
 271 0.400400; 
 271 0.100100; 
 281 0.200200; 
 283 0.400400; 
 284 0.300300; 
 285 100.000000; 
 285 0.200200; 
 286 11.711712; 
 287 0.700701; 
 294 0.100100; 
 297 0.200200; 
 299 0.800801; 
 307 0.200200; 
 309 1.501502; 
 310 0.300300; 
 327 2.302302; 
 328 0.300300; 
 339 0.200200; 
 351 0.200200; 
 769 0.100100; 
 1100 0.100100; 
 1126 0.100100; 
 1159 0.100100; 
 1193 0.100100; 
 1238 0.100100; 
 1286 0.200200; 
 1384 0.100100; 
 1450 0.100100; 
 1463 0.100100; 
 1490 0.100100; 
 1501 0.100100; 


Name: Isosakuranin
SYNON: $:00in-source
DB#: MetaboBASE0632
InChIKey: KEEWIHDTSNESJZ-NKGQIIMOSA-N
Spectrum_type: MS2
PrecursorMZ: 285.0756
Instrument_type: LC-ESI-TOF
Instrument: impact HD
Ion_mode: N
Collision_energy: 30
InChIKey: KEEWIHDTSNESJZ-NKGQIIMOSA-N
Formula: C22H24O10
MW: 448
ExactMass: 448.13694696799996
Comments: "license=License CC-BY-NC-SA 4.0 International" "author=Plant Biology, The Noble Foundation, Ardmore, OK, US/Dennis Fine, Daniel Wherritt, and Lloyd Sumner" "instrument type=LC-ESI-TOF" "instrument=impact HD" "ionization=ESI" "ionization mode=negative" "ms level=MS2" "precursor m/z=285.0756" "isolation width=5" "collision gas=Nitrogen" "collision energy=30" "peak width=0.018" "date=2014-08-07 00:51:00+02:00" "column=Waters Acquity BEH C18 1.7um x 2.1 x 150 mm" "retention time=603" "raw data file=C:\Data\Confirmed standards 24_July_2014\MSMS\Isosakuranin vial 274_1-C,4_01_559.d" "cas number=491-69-0" "InChIKey=KEEWIHDTSNESJZ-NKGQIIMOSA-N" "molecular formula=C22H24O10" "total exact mass=448.13694696799996" "SMILES=COC1=CC=C(C=C1)C2CC(=O)C3=C(C=C(C=C3O2)OC4C(C(C(C(O4)CO)O)O)O)O" "InChI=InChI=1S/C22H24O10/c1-29-11-4-2-10(3-5-11)15-8-14(25)18-13(24)6-12(7-16(18)31-15)30-22-21(28)20(27)19(26)17(9-23)32-22/h2-7,15,17,19-24,26-28H,8-9H2,1H3" "InChIKey=KEEWIHDTSNESJZ-UHFFFAOYSA-N"
Num Peaks: 33
 107 9.409409; 
 108 19.119119; 
 122 4.204204; 
 123 5.305305; 
 124 4.104104; 
 125 3.003003; 
 136 48.748749; 
 137 3.003003; 
 151 42.242242; 
 164 100.000000; 
 165 10.910911; 
 175 12.212212; 
 186 3.903904; 
 187 3.103103; 
 196 35.235235; 
 198 3.403403; 
 200 3.303303; 
 201 5.705706; 
 215 3.603604; 
 217 3.203203; 
 225 5.105105; 
 226 9.609610; 
 227 12.312312; 
 228 16.516517; 
 241 4.204204; 
 242 3.003003; 
 242 3.303303; 
 243 58.458458; 
 244 10.310310; 
 257 3.003003; 
 270 22.822823; 
 285 86.686687; 
 286 17.117117; 


Name: Isosakuranin
SYNON: $:00in-source
DB#: MetaboBASE0633
InChIKey: KEEWIHDTSNESJZ-NKGQIIMOSA-N
Precursor_type: [M+FA-H]-
Spectrum_type: MS2
PrecursorMZ: 493.1
Instrument_type: LC-ESI-TOF
Instrument: impact HD
Ion_mode: N
Collision_energy: 20
InChIKey: KEEWIHDTSNESJZ-NKGQIIMOSA-N
Formula: C22H24O10
MW: 448
ExactMass: 448.13694696799996
Comments: "license=License CC-BY-NC-SA 4.0 International" "author=Plant Biology, The Noble Foundation, Ardmore, OK, US/Dennis Fine, Daniel Wherritt, and Lloyd Sumner" "instrument type=LC-ESI-TOF" "instrument=impact HD" "ionization=ESI" "ionization mode=negative" "ms level=MS2" "precursor m/z=493.1" "isolation width=5" "collision gas=Nitrogen" "collision energy=20" "peak width=0.015" "date=2014-08-07 00:10:06+02:00" "column=Waters Acquity BEH C18 1.7um x 2.1 x 150 mm" "retention time=603" "raw data file=C:\Data\Confirmed standards 24_July_2014\MSMS\Isosakuranin vial 274_1-C,4_01_558.d" "precursor type=[M+FA-H]-" "mass accuracy=71.27959440262202" "mass error=-0.035147967999932916" "cas number=491-69-0" "InChIKey=KEEWIHDTSNESJZ-NKGQIIMOSA-N" "molecular formula=C22H24O10" "total exact mass=448.13694696799996" "SMILES=COC1=CC=C(C=C1)C2CC(=O)C3=C(C=C(C=C3O2)OC4C(C(C(C(O4)CO)O)O)O)O" "InChI=InChI=1S/C22H24O10/c1-29-11-4-2-10(3-5-11)15-8-14(25)18-13(24)6-12(7-16(18)31-15)30-22-21(28)20(27)19(26)17(9-23)32-22/h2-7,15,17,19-24,26-28H,8-9H2,1H3" "InChIKey=KEEWIHDTSNESJZ-UHFFFAOYSA-N"
Num Peaks: 53
 270 0.300300; 
 285 100.000000; 
 286 11.511512; 
 287 0.800801; 
 297 0.100100; 
 299 0.300300; 
 307 0.300300; 
 309 3.703704; 
 310 0.800801; 
 311 0.100100; 
 327 4.704705; 
 328 0.800801; 
 339 0.500501; 
 351 0.300300; 
 357 0.300300; 
 369 0.300300; 
 387 0.300300; 
 429 0.300300; 
 447 22.922923; 
 448 4.704705; 
 449 0.400400; 
 808 0.100100; 
 872 0.100100; 
 967 0.100100; 
 998 0.100100; 
 1073 0.100100; 
 1090 0.100100; 
 1109 0.100100; 
 1160 0.100100; 
 1163 0.100100; 
 1173 0.100100; 
 1232 0.100100; 
 1246 0.100100; 
 1275 0.100100; 
 1287 0.100100; 
 1288 0.100100; 
 1306 0.100100; 
 1315 0.100100; 
 1325 0.100100; 
 1340 0.100100; 
 1340 0.100100; 
 1346 0.100100; 
 1367 0.100100; 
 1369 0.100100; 
 1371 0.100100; 
 1399 0.100100; 
 1408 0.200200; 
 1423 0.100100; 
 1445 0.100100; 
 1458 0.100100; 
 1482 0.100100; 
 1488 0.100100; 
 1497 0.100100; 


Name: Isosakuranin
SYNON: $:00in-source
DB#: MetaboBASE0634
InChIKey: KEEWIHDTSNESJZ-NKGQIIMOSA-N
Precursor_type: [M+FA-H]-
Spectrum_type: MS2
PrecursorMZ: 493.1
Instrument_type: LC-ESI-TOF
Instrument: impact HD
Ion_mode: N
Collision_energy: 30
InChIKey: KEEWIHDTSNESJZ-NKGQIIMOSA-N
Formula: C22H24O10
MW: 448
ExactMass: 448.13694696799996
Comments: "license=License CC-BY-NC-SA 4.0 International" "author=Plant Biology, The Noble Foundation, Ardmore, OK, US/Dennis Fine, Daniel Wherritt, and Lloyd Sumner" "instrument type=LC-ESI-TOF" "instrument=impact HD" "ionization=ESI" "ionization mode=negative" "ms level=MS2" "precursor m/z=493.1" "isolation width=5" "collision gas=Nitrogen" "collision energy=30" "peak width=0.015" "date=2014-08-07 00:10:06+02:00" "column=Waters Acquity BEH C18 1.7um x 2.1 x 150 mm" "retention time=603" "raw data file=C:\Data\Confirmed standards 24_July_2014\MSMS\Isosakuranin vial 274_1-C,4_01_558.d" "precursor type=[M+FA-H]-" "mass accuracy=71.27959440262202" "mass error=-0.035147967999932916" "cas number=491-69-0" "InChIKey=KEEWIHDTSNESJZ-NKGQIIMOSA-N" "molecular formula=C22H24O10" "total exact mass=448.13694696799996" "SMILES=COC1=CC=C(C=C1)C2CC(=O)C3=C(C=C(C=C3O2)OC4C(C(C(C(O4)CO)O)O)O)O" "InChI=InChI=1S/C22H24O10/c1-29-11-4-2-10(3-5-11)15-8-14(25)18-13(24)6-12(7-16(18)31-15)30-22-21(28)20(27)19(26)17(9-23)32-22/h2-7,15,17,19-24,26-28H,8-9H2,1H3" "InChIKey=KEEWIHDTSNESJZ-UHFFFAOYSA-N"
Num Peaks: 52
 164 0.200200; 
 241 0.500501; 
 243 0.500501; 
 269 0.600601; 
 270 0.700701; 
 283 0.100100; 
 284 0.100100; 
 285 100.000000; 
 285 0.200200; 
 286 12.112112; 
 286 0.100100; 
 287 0.700701; 
 297 0.400400; 
 298 0.300300; 
 299 1.401401; 
 300 0.200200; 
 307 0.400400; 
 309 3.203203; 
 310 0.500501; 
 327 4.304304; 
 328 0.600601; 
 339 0.500501; 
 351 0.200200; 
 357 0.100100; 
 369 0.100100; 
 387 0.200200; 
 447 2.202202; 
 448 0.400400; 
 1034 0.100100; 
 1083 0.100100; 
 1127 0.100100; 
 1130 0.100100; 
 1198 0.100100; 
 1219 0.100100; 
 1252 0.100100; 
 1285 0.100100; 
 1288 0.100100; 
 1300 0.100100; 
 1305 0.100100; 
 1333 0.100100; 
 1333 0.100100; 
 1355 0.100100; 
 1359 0.100100; 
 1362 0.100100; 
 1368 0.100100; 
 1383 0.100100; 
 1389 0.100100; 
 1398 0.100100; 
 1410 0.100100; 
 1455 0.100100; 
 1474 0.100100; 
 1479 0.100100; 


Name: Isosakuranin
SYNON: $:00in-source
DB#: MetaboBASE0635
InChIKey: KEEWIHDTSNESJZ-NKGQIIMOSA-N
Instrument_type: LC-ESI-TOF
Instrument: impact HD
Ion_mode: N
InChIKey: KEEWIHDTSNESJZ-NKGQIIMOSA-N
Formula: C22H24O10
MW: 448
ExactMass: 448.13694696799996
Comments: "license=License CC-BY-NC-SA 4.0 International" "author=Plant Biology, The Noble Foundation, Ardmore, OK, US/Dennis Fine, Daniel Wherritt, and Lloyd Sumner" "instrument type=LC-ESI-TOF" "instrument=impact HD" "ionization=ESI" "ionization mode=negative" "collision gas=Nitrogen" "peak width=0.013" "date=2013-11-23 17:01:58+01:00" "column=Waters Acquity BEH C18 1.7um x 2.1 x 150 mm" "retention time=603" "raw data file=C:\Data\Confirmed Standards\Confirmed stds MSMS 22Nov13\Isosakuranin (vial 274) MSMS.d" "cas number=491-69-0" "InChIKey=KEEWIHDTSNESJZ-NKGQIIMOSA-N" "molecular formula=C22H24O10" "total exact mass=448.13694696799996" "SMILES=COC1=CC=C(C=C1)C2CC(=O)C3=C(C=C(C=C3O2)OC4C(C(C(C(O4)CO)O)O)O)O" "InChI=InChI=1S/C22H24O10/c1-29-11-4-2-10(3-5-11)15-8-14(25)18-13(24)6-12(7-16(18)31-15)30-22-21(28)20(27)19(26)17(9-23)32-22/h2-7,15,17,19-24,26-28H,8-9H2,1H3" "InChIKey=KEEWIHDTSNESJZ-UHFFFAOYSA-N"
Num Peaks: 21
 112 1.101101; 
 116 0.900901; 
 285 4.104104; 
 286 0.900901; 
 447 16.116116; 
 448 3.403403; 
 483 1.001001; 
 493 100.000000; 
 494 21.721722; 
 495 3.703704; 
 565 0.700701; 
 895 1.401401; 
 896 0.800801; 
 941 24.824825; 
 942 10.510511; 
 943 2.602603; 
 963 1.301301; 
 1343 1.601602; 
 1344 1.201201; 
 1389 0.800801; 
 1411 0.800801; 


Name: Isosakuranin
SYNON: $:00in-source
DB#: MetaboBASE0636
InChIKey: KEEWIHDTSNESJZ-NKGQIIMOSA-N
Spectrum_type: MS2
PrecursorMZ: 285.0754
Instrument_type: LC-ESI-TOF
Instrument: impact HD
Ion_mode: N
Collision_energy: 40
InChIKey: KEEWIHDTSNESJZ-NKGQIIMOSA-N
Formula: C22H24O10
MW: 448
ExactMass: 448.13694696799996
Comments: "license=License CC-BY-NC-SA 4.0 International" "author=Plant Biology, The Noble Foundation, Ardmore, OK, US/Dennis Fine, Daniel Wherritt, and Lloyd Sumner" "instrument type=LC-ESI-TOF" "instrument=impact HD" "ionization=ESI" "ionization mode=negative" "ms level=MS2" "precursor m/z=285.0754" "isolation width=5" "collision gas=Nitrogen" "collision energy=40" "peak width=0.018" "date=2014-08-07 00:51:00+02:00" "column=Waters Acquity BEH C18 1.7um x 2.1 x 150 mm" "retention time=603" "raw data file=C:\Data\Confirmed standards 24_July_2014\MSMS\Isosakuranin vial 274_1-C,4_01_559.d" "cas number=491-69-0" "InChIKey=KEEWIHDTSNESJZ-NKGQIIMOSA-N" "molecular formula=C22H24O10" "total exact mass=448.13694696799996" "SMILES=COC1=CC=C(C=C1)C2CC(=O)C3=C(C=C(C=C3O2)OC4C(C(C(C(O4)CO)O)O)O)O" "InChI=InChI=1S/C22H24O10/c1-29-11-4-2-10(3-5-11)15-8-14(25)18-13(24)6-12(7-16(18)31-15)30-22-21(28)20(27)19(26)17(9-23)32-22/h2-7,15,17,19-24,26-28H,8-9H2,1H3" "InChIKey=KEEWIHDTSNESJZ-UHFFFAOYSA-N"
Num Peaks: 28
 107 19.419419; 
 108 95.695696; 
 117 8.108108; 
 119 13.113113; 
 123 11.811812; 
 124 10.210210; 
 136 100.000000; 
 137 18.818819; 
 151 31.631632; 
 156 6.806807; 
 159 19.719720; 
 160 7.407407; 
 164 59.159159; 
 165 9.209209; 
 175 7.407407; 
 177 8.408408; 
 183 8.508509; 
 184 7.207207; 
 186 13.513514; 
 187 7.807808; 
 196 13.113113; 
 199 7.607608; 
 201 8.808809; 
 227 40.540541; 
 228 16.716717; 
 243 17.717718; 
 244 7.807808; 
 285 8.308308; 


Name: Isosakuranin
SYNON: $:00in-source
DB#: MetaboBASE0637
InChIKey: KEEWIHDTSNESJZ-NKGQIIMOSA-N
Precursor_type: [M-H]-
Spectrum_type: MS2
PrecursorMZ: 447.1336
Instrument_type: LC-ESI-TOF
Instrument: impact HD
Ion_mode: N
Collision_energy: 10
InChIKey: KEEWIHDTSNESJZ-NKGQIIMOSA-N
Formula: C22H24O10
MW: 448
ExactMass: 448.13694696799996
Comments: "license=License CC-BY-NC-SA 4.0 International" "author=Plant Biology, The Noble Foundation, Ardmore, OK, US/Dennis Fine, Daniel Wherritt, and Lloyd Sumner" "instrument type=LC-ESI-TOF" "instrument=impact HD" "ionization=ESI" "ionization mode=negative" "ms level=MS2" "precursor m/z=447.1336" "isolation width=5" "collision gas=Nitrogen" "collision energy=10" "peak width=0.015" "date=2014-08-06 23:29:13+02:00" "column=Waters Acquity BEH C18 1.7um x 2.1 x 150 mm" "retention time=603" "raw data file=C:\Data\Confirmed standards 24_July_2014\MSMS\Isosakuranin vial 274_1-C,4_01_557.d" "precursor type=[M-H]-" "mass accuracy=8.787154443393373" "mass error=0.003929032000030475" "cas number=491-69-0" "InChIKey=KEEWIHDTSNESJZ-NKGQIIMOSA-N" "molecular formula=C22H24O10" "total exact mass=448.13694696799996" "SMILES=COC1=CC=C(C=C1)C2CC(=O)C3=C(C=C(C=C3O2)OC4C(C(C(C(O4)CO)O)O)O)O" "InChI=InChI=1S/C22H24O10/c1-29-11-4-2-10(3-5-11)15-8-14(25)18-13(24)6-12(7-16(18)31-15)30-22-21(28)20(27)19(26)17(9-23)32-22/h2-7,15,17,19-24,26-28H,8-9H2,1H3" "InChIKey=KEEWIHDTSNESJZ-UHFFFAOYSA-N"
Num Peaks: 44
 243 0.100100; 
 270 0.100100; 
 285 100.000000; 
 286 14.414414; 
 287 0.600601; 
 288 0.100100; 
 299 0.300300; 
 307 0.300300; 
 308 0.100100; 
 309 4.104104; 
 310 0.600601; 
 327 5.505506; 
 328 1.001001; 
 339 0.300300; 
 351 0.500501; 
 357 0.300300; 
 358 0.100100; 
 369 0.400400; 
 370 0.100100; 
 387 0.500501; 
 429 0.300300; 
 447 51.551552; 
 448 11.511512; 
 449 1.101101; 
 968 0.100100; 
 1022 0.100100; 
 1065 0.100100; 
 1164 0.100100; 
 1173 0.100100; 
 1218 0.100100; 
 1247 0.100100; 
 1257 0.100100; 
 1277 0.100100; 
 1278 0.100100; 
 1282 0.100100; 
 1301 0.100100; 
 1323 0.100100; 
 1342 0.100100; 
 1370 0.100100; 
 1374 0.100100; 
 1388 0.100100; 
 1475 0.100100; 
 1501 0.100100; 
 1502 0.100100; 


Name: Isosakuranin
SYNON: $:00in-source
DB#: MetaboBASE0638
InChIKey: KEEWIHDTSNESJZ-NKGQIIMOSA-N
Precursor_type: [M-H]-
Spectrum_type: MS2
PrecursorMZ: 447.1
Instrument_type: LC-ESI-TOF
Instrument: impact HD
Ion_mode: N
Collision_energy: 50
InChIKey: KEEWIHDTSNESJZ-NKGQIIMOSA-N
Formula: C22H24O10
MW: 448
ExactMass: 448.13694696799996
Comments: "license=License CC-BY-NC-SA 4.0 International" "author=Plant Biology, The Noble Foundation, Ardmore, OK, US/Dennis Fine, Daniel Wherritt, and Lloyd Sumner" "instrument type=LC-ESI-TOF" "instrument=impact HD" "ionization=ESI" "ionization mode=negative" "ms level=MS2" "precursor m/z=447.1" "isolation width=5" "collision gas=Nitrogen" "collision energy=50" "peak width=0.019" "date=2014-08-06 23:29:13+02:00" "column=Waters Acquity BEH C18 1.7um x 2.1 x 150 mm" "retention time=603" "raw data file=C:\Data\Confirmed standards 24_July_2014\MSMS\Isosakuranin vial 274_1-C,4_01_557.d" "precursor type=[M-H]-" "mass accuracy=66.36315813005605" "mass error=-0.02967096799994806" "cas number=491-69-0" "InChIKey=KEEWIHDTSNESJZ-NKGQIIMOSA-N" "molecular formula=C22H24O10" "total exact mass=448.13694696799996" "SMILES=COC1=CC=C(C=C1)C2CC(=O)C3=C(C=C(C=C3O2)OC4C(C(C(C(O4)CO)O)O)O)O" "InChI=InChI=1S/C22H24O10/c1-29-11-4-2-10(3-5-11)15-8-14(25)18-13(24)6-12(7-16(18)31-15)30-22-21(28)20(27)19(26)17(9-23)32-22/h2-7,15,17,19-24,26-28H,8-9H2,1H3" "InChIKey=KEEWIHDTSNESJZ-UHFFFAOYSA-N"
Num Peaks: 84
 107 4.104104; 
 108 5.405405; 
 109 0.700701; 
 117 1.101101; 
 119 3.703704; 
 120 1.101101; 
 121 0.700701; 
 122 0.600601; 
 123 2.102102; 
 124 2.002002; 
 125 1.601602; 
 131 1.001001; 
 132 0.700701; 
 133 1.001001; 
 136 16.316316; 
 137 1.601602; 
 145 0.800801; 
 149 0.800801; 
 151 45.545546; 
 152 2.502503; 
 156 1.101101; 
 158 0.600601; 
 159 1.201201; 
 160 1.401401; 
 163 1.601602; 
 164 56.856857; 
 165 4.504505; 
 173 0.700701; 
 175 1.901902; 
 175 8.308308; 
 176 1.101101; 
 177 2.302302; 
 181 0.600601; 
 183 1.901902; 
 184 1.501502; 
 186 4.904905; 
 187 2.102102; 
 188 1.501502; 
 193 1.001001; 
 196 18.918919; 
 197 2.002002; 
 197 2.102102; 
 198 6.006006; 
 199 4.404404; 
 200 1.401401; 
 201 6.806807; 
 202 1.801802; 
 203 1.301301; 
 211 0.700701; 
 215 1.801802; 
 217 3.103103; 
 218 0.600601; 
 225 5.205205; 
 226 11.311311; 
 227 5.505506; 
 227 1.401401; 
 228 7.707708; 
 229 1.001001; 
 230 0.600601; 
 238 0.700701; 
 241 3.303303; 
 241 22.022022; 
 242 3.303303; 
 242 2.902903; 
 243 36.736737; 
 244 5.605606; 
 253 0.900901; 
 254 0.600601; 
 255 0.900901; 
 257 1.501502; 
 265 0.900901; 
 266 0.900901; 
 269 4.404404; 
 270 30.430430; 
 271 5.205205; 
 283 2.402402; 
 284 1.301301; 
 285 100.000000; 
 286 14.614615; 
 287 1.001001; 
 311 1.001001; 
 910 0.700701; 
 1097 0.700701; 
 1434 0.600601; 


Name: Isosakuranin
SYNON: $:00in-source
DB#: MetaboBASE0639
InChIKey: KEEWIHDTSNESJZ-NKGQIIMOSA-N
Precursor_type: [M-H]-
Spectrum_type: MS2
PrecursorMZ: 447.1
Instrument_type: LC-ESI-TOF
Instrument: impact HD
Ion_mode: N
Collision_energy: 40
InChIKey: KEEWIHDTSNESJZ-NKGQIIMOSA-N
Formula: C22H24O10
MW: 448
ExactMass: 448.13694696799996
Comments: "license=License CC-BY-NC-SA 4.0 International" "author=Plant Biology, The Noble Foundation, Ardmore, OK, US/Dennis Fine, Daniel Wherritt, and Lloyd Sumner" "instrument type=LC-ESI-TOF" "instrument=impact HD" "ionization=ESI" "ionization mode=negative" "ms level=MS2" "precursor m/z=447.1" "isolation width=5" "collision gas=Nitrogen" "collision energy=40" "peak width=0.017" "date=2014-08-06 23:29:13+02:00" "column=Waters Acquity BEH C18 1.7um x 2.1 x 150 mm" "retention time=603" "raw data file=C:\Data\Confirmed standards 24_July_2014\MSMS\Isosakuranin vial 274_1-C,4_01_557.d" "precursor type=[M-H]-" "mass accuracy=66.36315813005605" "mass error=-0.02967096799994806" "cas number=491-69-0" "InChIKey=KEEWIHDTSNESJZ-NKGQIIMOSA-N" "molecular formula=C22H24O10" "total exact mass=448.13694696799996" "SMILES=COC1=CC=C(C=C1)C2CC(=O)C3=C(C=C(C=C3O2)OC4C(C(C(C(O4)CO)O)O)O)O" "InChI=InChI=1S/C22H24O10/c1-29-11-4-2-10(3-5-11)15-8-14(25)18-13(24)6-12(7-16(18)31-15)30-22-21(28)20(27)19(26)17(9-23)32-22/h2-7,15,17,19-24,26-28H,8-9H2,1H3" "InChIKey=KEEWIHDTSNESJZ-UHFFFAOYSA-N"
Num Peaks: 99
 107 0.500501; 
 108 0.300300; 
 119 0.200200; 
 123 0.200200; 
 124 0.200200; 
 125 0.200200; 
 133 0.200200; 
 135 0.200200; 
 136 1.301301; 
 137 0.300300; 
 150 0.100100; 
 151 6.306306; 
 152 0.400400; 
 159 0.200200; 
 160 0.200200; 
 163 0.300300; 
 164 8.708709; 
 165 0.800801; 
 175 0.500501; 
 175 1.001001; 
 176 0.100100; 
 177 0.500501; 
 183 0.200200; 
 186 0.300300; 
 187 0.200200; 
 188 0.200200; 
 193 0.300300; 
 196 2.502503; 
 197 0.300300; 
 197 0.200200; 
 198 0.700701; 
 199 0.500501; 
 200 0.200200; 
 201 0.800801; 
 202 0.200200; 
 203 0.500501; 
 215 0.200200; 
 217 0.900901; 
 218 0.200200; 
 225 0.800801; 
 226 2.102102; 
 227 0.500501; 
 227 0.300300; 
 228 0.800801; 
 229 0.200200; 
 237 0.100100; 
 239 0.200200; 
 241 0.500501; 
 241 9.409409; 
 242 0.300300; 
 242 1.401401; 
 243 9.409409; 
 244 1.101101; 
 253 0.200200; 
 255 0.400400; 
 256 0.300300; 
 257 0.600601; 
 265 0.200200; 
 266 0.300300; 
 267 0.100100; 
 269 0.700701; 
 269 0.600601; 
 270 12.812813; 
 271 2.002002; 
 271 0.200200; 
 281 0.300300; 
 283 1.101101; 
 284 0.800801; 
 285 100.000000; 
 286 15.915916; 
 287 1.101101; 
 293 0.200200; 
 294 0.200200; 
 299 1.401401; 
 300 0.200200; 
 309 1.001001; 
 310 0.200200; 
 311 0.300300; 
 311 0.100100; 
 312 0.200200; 
 327 1.101101; 
 328 0.400400; 
 339 0.200200; 
 987 0.100100; 
 1142 0.100100; 
 1178 0.100100; 
 1252 0.200200; 
 1274 0.100100; 
 1281 0.100100; 
 1290 0.100100; 
 1296 0.100100; 
 1339 0.100100; 
 1349 0.200200; 
 1380 0.200200; 
 1386 0.100100; 
 1389 0.100100; 
 1445 0.200200; 
 1446 0.200200; 
 1447 0.100100; 


Name: Nevadensin
SYNON: $:00in-source
DB#: MetaboBASE0640
InChIKey: KRFBMPVGAYGGJE-UHFFFAOYSA-N
Precursor_type: [M-H]-
Spectrum_type: MS2
PrecursorMZ: 343.0838
Instrument_type: LC-ESI-TOF
Instrument: impact HD
Ion_mode: N
Collision_energy: 10
InChIKey: KRFBMPVGAYGGJE-UHFFFAOYSA-N
Formula: C18H16O7
MW: 344
ExactMass: 344.089602852
Comments: "license=License CC-BY-NC-SA 4.0 International" "author=Plant Biology, The Noble Foundation, Ardmore, OK, US/Dennis Fine, Daniel Wherritt, and Lloyd Sumner" "instrument type=LC-ESI-TOF" "instrument=impact HD" "ionization=ESI" "ionization mode=negative" "ms level=MS2" "precursor m/z=343.0838" "isolation width=5" "collision gas=Nitrogen" "collision energy=10" "peak width=0.01" "date=2013-11-23 21:47:14+01:00" "column=Waters Acquity BEH C18 1.7um x 2.1 x 150 mm" "retention time=882" "raw data file=C:\Data\Confirmed Standards\Confirmed stds MSMS 22Nov13\Nevadensin (vial 286) MSMS.d" "precursor type=[M-H]-" "mass accuracy=4.293843078578211" "mass error=0.0014731480000023112" "cas number=10176-66-6" "SMILES=COc1ccc(cc1)c2cc(=O)c3c(c(c(c(c3o2)OC)O)OC)O" "InChI=InChI=1S/C18H16O7/c1-22-10-6-4-9(5-7-10)12-8-11(19)13-14(20)17(23-2)15(21)18(24-3)16(13)25-12/h4-8,20-21H,1-3H3" "InChIKey=KRFBMPVGAYGGJE-UHFFFAOYSA-N" "molecular formula=C18H16O7" "total exact mass=344.089602852" "SMILES=COC1=CC=C(C=C1)C2=CC(=O)C3=C(C(=C(C(=C3O2)OC)O)OC)O"
Num Peaks: 9
 313 0.500501; 
 314 0.200200; 
 328 10.010010; 
 329 1.701702; 
 330 0.200200; 
 343 0.100100; 
 343 100.000000; 
 344 12.512513; 
 345 1.701702; 


Name: Nevadensin
SYNON: $:00in-source
DB#: MetaboBASE0641
InChIKey: KRFBMPVGAYGGJE-UHFFFAOYSA-N
Precursor_type: [M-H]-
Spectrum_type: MS2
PrecursorMZ: 343.0835
Instrument_type: LC-ESI-TOF
Instrument: impact HD
Ion_mode: N
Collision_energy: 20
InChIKey: KRFBMPVGAYGGJE-UHFFFAOYSA-N
Formula: C18H16O7
MW: 344
ExactMass: 344.089602852
Comments: "license=License CC-BY-NC-SA 4.0 International" "author=Plant Biology, The Noble Foundation, Ardmore, OK, US/Dennis Fine, Daniel Wherritt, and Lloyd Sumner" "instrument type=LC-ESI-TOF" "instrument=impact HD" "ionization=ESI" "ionization mode=negative" "ms level=MS2" "precursor m/z=343.0835" "isolation width=5" "collision gas=Nitrogen" "collision energy=20" "peak width=0.013" "date=2013-11-23 21:47:14+01:00" "column=Waters Acquity BEH C18 1.7um x 2.1 x 150 mm" "retention time=882" "raw data file=C:\Data\Confirmed Standards\Confirmed stds MSMS 22Nov13\Nevadensin (vial 286) MSMS.d" "precursor type=[M-H]-" "mass accuracy=3.419424134418513" "mass error=0.001173148000020774" "cas number=10176-66-6" "SMILES=COc1ccc(cc1)c2cc(=O)c3c(c(c(c(c3o2)OC)O)OC)O" "InChI=InChI=1S/C18H16O7/c1-22-10-6-4-9(5-7-10)12-8-11(19)13-14(20)17(23-2)15(21)18(24-3)16(13)25-12/h4-8,20-21H,1-3H3" "InChIKey=KRFBMPVGAYGGJE-UHFFFAOYSA-N" "molecular formula=C18H16O7" "total exact mass=344.089602852" "SMILES=COC1=CC=C(C=C1)C2=CC(=O)C3=C(C(=C(C(=C3O2)OC)O)OC)O"
Num Peaks: 20
 152 0.100100; 
 167 0.200200; 
 226 0.200200; 
 229 0.100100; 
 241 1.601602; 
 242 0.200200; 
 257 0.100100; 
 269 0.100100; 
 285 0.200200; 
 298 0.300300; 
 313 29.729730; 
 314 3.303303; 
 315 0.400400; 
 327 0.100100; 
 328 100.000000; 
 329 11.211211; 
 330 1.401401; 
 343 14.114114; 
 344 1.701702; 
 345 0.200200; 


Name: Nevadensin
SYNON: $:00in-source
DB#: MetaboBASE0642
InChIKey: KRFBMPVGAYGGJE-UHFFFAOYSA-N
Precursor_type: [M-H]-
Spectrum_type: MS2
PrecursorMZ: 343.0829
Instrument_type: LC-ESI-TOF
Instrument: impact HD
Ion_mode: N
Collision_energy: 30
InChIKey: KRFBMPVGAYGGJE-UHFFFAOYSA-N
Formula: C18H16O7
MW: 344
ExactMass: 344.089602852
Comments: "license=License CC-BY-NC-SA 4.0 International" "author=Plant Biology, The Noble Foundation, Ardmore, OK, US/Dennis Fine, Daniel Wherritt, and Lloyd Sumner" "instrument type=LC-ESI-TOF" "instrument=impact HD" "ionization=ESI" "ionization mode=negative" "ms level=MS2" "precursor m/z=343.0829" "isolation width=5" "collision gas=Nitrogen" "collision energy=30" "peak width=0.016" "date=2013-11-23 21:47:14+01:00" "column=Waters Acquity BEH C18 1.7um x 2.1 x 150 mm" "retention time=882" "raw data file=C:\Data\Confirmed Standards\Confirmed stds MSMS 22Nov13\Nevadensin (vial 286) MSMS.d" "precursor type=[M-H]-" "mass accuracy=1.6705816582547715" "mass error=5.73148000000856E-4" "cas number=10176-66-6" "SMILES=COc1ccc(cc1)c2cc(=O)c3c(c(c(c(c3o2)OC)O)OC)O" "InChI=InChI=1S/C18H16O7/c1-22-10-6-4-9(5-7-10)12-8-11(19)13-14(20)17(23-2)15(21)18(24-3)16(13)25-12/h4-8,20-21H,1-3H3" "InChIKey=KRFBMPVGAYGGJE-UHFFFAOYSA-N" "molecular formula=C18H16O7" "total exact mass=344.089602852" "SMILES=COC1=CC=C(C=C1)C2=CC(=O)C3=C(C(=C(C(=C3O2)OC)O)OC)O"
Num Peaks: 24
 155 0.600601; 
 157 0.600601; 
 173 1.201201; 
 185 2.102102; 
 198 1.201201; 
 203 1.001001; 
 213 1.501502; 
 226 5.905906; 
 227 0.900901; 
 229 2.502503; 
 241 29.829830; 
 242 2.702703; 
 254 1.401401; 
 257 0.900901; 
 269 0.900901; 
 270 0.900901; 
 285 1.501502; 
 298 5.205205; 
 299 0.700701; 
 313 100.000000; 
 314 10.410410; 
 315 1.301301; 
 328 22.422422; 
 329 3.003003; 


Name: Nevadensin
SYNON: $:00in-source
DB#: MetaboBASE0643
InChIKey: KRFBMPVGAYGGJE-UHFFFAOYSA-N
Precursor_type: [M-H]-
Spectrum_type: MS2
PrecursorMZ: 343.08
Instrument_type: LC-ESI-TOF
Instrument: impact HD
Ion_mode: N
Collision_energy: 40
InChIKey: KRFBMPVGAYGGJE-UHFFFAOYSA-N
Formula: C18H16O7
MW: 344
ExactMass: 344.089602852
Comments: "license=License CC-BY-NC-SA 4.0 International" "author=Plant Biology, The Noble Foundation, Ardmore, OK, US/Dennis Fine, Daniel Wherritt, and Lloyd Sumner" "instrument type=LC-ESI-TOF" "instrument=impact HD" "ionization=ESI" "ionization mode=negative" "ms level=MS2" "precursor m/z=343.08" "isolation width=5" "collision gas=Nitrogen" "collision energy=40" "peak width=0.016" "date=2013-11-23 21:47:14+01:00" "column=Waters Acquity BEH C18 1.7um x 2.1 x 150 mm" "retention time=882" "raw data file=C:\Data\Confirmed Standards\Confirmed stds MSMS 22Nov13\Nevadensin (vial 286) MSMS.d" "precursor type=[M-H]-" "mass accuracy=6.782243208610671" "mass error=-0.002326852000010149" "cas number=10176-66-6" "SMILES=COc1ccc(cc1)c2cc(=O)c3c(c(c(c(c3o2)OC)O)OC)O" "InChI=InChI=1S/C18H16O7/c1-22-10-6-4-9(5-7-10)12-8-11(19)13-14(20)17(23-2)15(21)18(24-3)16(13)25-12/h4-8,20-21H,1-3H3" "InChIKey=KRFBMPVGAYGGJE-UHFFFAOYSA-N" "molecular formula=C18H16O7" "total exact mass=344.089602852" "SMILES=COC1=CC=C(C=C1)C2=CC(=O)C3=C(C(=C(C(=C3O2)OC)O)OC)O"
Num Peaks: 26
 117 10.010010; 
 155 37.137137; 
 156 8.308308; 
 157 41.441441; 
 170 39.439439; 
 173 49.049049; 
 185 35.635636; 
 186 16.216216; 
 193 7.107107; 
 198 100.000000; 
 199 10.810811; 
 203 13.813814; 
 213 27.027027; 
 214 31.331331; 
 226 93.993994; 
 227 10.410410; 
 229 51.451451; 
 241 97.197197; 
 242 14.214214; 
 242 14.414414; 
 254 11.411411; 
 270 26.926927; 
 298 83.783784; 
 299 9.309309; 
 313 83.683684; 
 314 10.210210; 


Name: Nevadensin
SYNON: $:00in-source
DB#: MetaboBASE0644
InChIKey: KRFBMPVGAYGGJE-UHFFFAOYSA-N
Precursor_type: [M-H]-
Spectrum_type: MS2
PrecursorMZ: 343.08
Instrument_type: LC-ESI-TOF
Instrument: impact HD
Ion_mode: N
Collision_energy: 50
InChIKey: KRFBMPVGAYGGJE-UHFFFAOYSA-N
Formula: C18H16O7
MW: 344
ExactMass: 344.089602852
Comments: "license=License CC-BY-NC-SA 4.0 International" "author=Plant Biology, The Noble Foundation, Ardmore, OK, US/Dennis Fine, Daniel Wherritt, and Lloyd Sumner" "instrument type=LC-ESI-TOF" "instrument=impact HD" "ionization=ESI" "ionization mode=negative" "ms level=MS2" "precursor m/z=343.08" "isolation width=5" "collision gas=Nitrogen" "collision energy=50" "peak width=0.017" "date=2013-11-23 21:47:14+01:00" "column=Waters Acquity BEH C18 1.7um x 2.1 x 150 mm" "retention time=882" "raw data file=C:\Data\Confirmed Standards\Confirmed stds MSMS 22Nov13\Nevadensin (vial 286) MSMS.d" "precursor type=[M-H]-" "mass accuracy=6.782243208610671" "mass error=-0.002326852000010149" "cas number=10176-66-6" "SMILES=COc1ccc(cc1)c2cc(=O)c3c(c(c(c(c3o2)OC)O)OC)O" "InChI=InChI=1S/C18H16O7/c1-22-10-6-4-9(5-7-10)12-8-11(19)13-14(20)17(23-2)15(21)18(24-3)16(13)25-12/h4-8,20-21H,1-3H3" "InChIKey=KRFBMPVGAYGGJE-UHFFFAOYSA-N" "molecular formula=C18H16O7" "total exact mass=344.089602852" "SMILES=COC1=CC=C(C=C1)C2=CC(=O)C3=C(C(=C(C(=C3O2)OC)O)OC)O"
Num Peaks: 26
 117 31.531532; 
 141 11.411411; 
 142 33.333333; 
 145 10.610611; 
 155 32.732733; 
 157 30.230230; 
 158 21.021021; 
 169 14.914915; 
 170 100.000000; 
 171 8.908909; 
 173 37.437437; 
 177 9.909910; 
 180 9.009009; 
 185 13.513514; 
 185 10.810811; 
 186 75.175175; 
 197 8.908909; 
 198 98.798799; 
 199 11.311311; 
 213 19.819820; 
 214 56.556557; 
 226 23.123123; 
 229 14.914915; 
 242 13.213213; 
 270 15.715716; 
 298 15.415415; 


Name: Nevadensin
SYNON: $:00in-source
DB#: MetaboBASE0645
InChIKey: KRFBMPVGAYGGJE-UHFFFAOYSA-N
Instrument_type: LC-ESI-TOF
Instrument: impact HD
Ion_mode: N
InChIKey: KRFBMPVGAYGGJE-UHFFFAOYSA-N
Formula: C18H16O7
MW: 344
ExactMass: 344.089602852
Comments: "license=License CC-BY-NC-SA 4.0 International" "author=Plant Biology, The Noble Foundation, Ardmore, OK, US/Dennis Fine, Daniel Wherritt, and Lloyd Sumner" "instrument type=LC-ESI-TOF" "instrument=impact HD" "ionization=ESI" "ionization mode=negative" "collision gas=Nitrogen" "peak width=0.013" "date=2013-11-23 21:47:14+01:00" "column=Waters Acquity BEH C18 1.7um x 2.1 x 150 mm" "retention time=882" "raw data file=C:\Data\Confirmed Standards\Confirmed stds MSMS 22Nov13\Nevadensin (vial 286) MSMS.d" "cas number=10176-66-6" "SMILES=COc1ccc(cc1)c2cc(=O)c3c(c(c(c(c3o2)OC)O)OC)O" "InChI=InChI=1S/C18H16O7/c1-22-10-6-4-9(5-7-10)12-8-11(19)13-14(20)17(23-2)15(21)18(24-3)16(13)25-12/h4-8,20-21H,1-3H3" "InChIKey=KRFBMPVGAYGGJE-UHFFFAOYSA-N" "molecular formula=C18H16O7" "total exact mass=344.089602852" "SMILES=COC1=CC=C(C=C1)C2=CC(=O)C3=C(C(=C(C(=C3O2)OC)O)OC)O"
Num Peaks: 14
 313 0.600601; 
 327 0.600601; 
 328 0.500501; 
 343 100.000000; 
 344 17.417417; 
 345 2.002002; 
 346 0.200200; 
 411 0.300300; 
 709 5.305305; 
 710 1.801802; 
 711 0.400400; 
 1069 0.200200; 
 1070 0.200200; 
 1084 0.200200; 


Name: Pratol
SYNON: $:00in-source
DB#: MetaboBASE0646
InChIKey: SQVXWIUVAILQRH-UHFFFAOYSA-N
Precursor_type: [M-H]-
Spectrum_type: MS2
PrecursorMZ: 267.0663
Instrument_type: LC-ESI-TOF
Instrument: impact HD
Ion_mode: N
Collision_energy: 20
InChIKey: SQVXWIUVAILQRH-UHFFFAOYSA-N
Formula: C16H12O4
MW: 268
ExactMass: 268.073558864
Comments: "license=License CC-BY-NC-SA 4.0 International" "author=Plant Biology, The Noble Foundation, Ardmore, OK, US/Dennis Fine, Daniel Wherritt, and Lloyd Sumner" "instrument type=LC-ESI-TOF" "instrument=impact HD" "ionization=ESI" "ionization mode=negative" "ms level=MS2" "precursor m/z=267.0663" "isolation width=5" "collision gas=Nitrogen" "collision energy=20" "peak width=0.016" "date=2013-11-23 14:18:48+01:00" "column=Waters Acquity BEH C18 1.7um x 2.1 x 150 mm" "retention time=691.8" "raw data file=C:\Data\Confirmed Standards\Confirmed stds MSMS 22Nov13\Pratol (vial 270) MSMS.d" "precursor type=[M-H]-" "mass accuracy=0.06416384244943495" "mass error=1.7135999996753526E-5" "cas number=487-24-1" "SMILES=COc1ccc(cc1)c2cc(=O)c3ccc(cc3o2)O" "InChI=InChI=1S/C16H12O4/c1-19-12-5-2-10(3-6-12)15-9-14(18)13-7-4-11(17)8-16(13)20-15/h2-9,17H,1H3" "InChIKey=SQVXWIUVAILQRH-UHFFFAOYSA-N" "molecular formula=C16H12O4" "total exact mass=268.073558864" "SMILES=COC1=CC=C(C=C1)C2=CC(=O)C3=C(O2)C=C(C=C3)O"
Num Peaks: 10
 135 0.200200; 
 223 1.401401; 
 224 0.800801; 
 251 0.200200; 
 252 100.000000; 
 253 11.311311; 
 254 1.001001; 
 267 45.145145; 
 268 5.505506; 
 269 0.600601; 


Name: Pratol
SYNON: $:00in-source
DB#: MetaboBASE0647
InChIKey: SQVXWIUVAILQRH-UHFFFAOYSA-N
Precursor_type: [M-H]-
Spectrum_type: MS2
PrecursorMZ: 267.0662
Instrument_type: LC-ESI-TOF
Instrument: impact HD
Ion_mode: N
Collision_energy: 10
InChIKey: SQVXWIUVAILQRH-UHFFFAOYSA-N
Formula: C16H12O4
MW: 268
ExactMass: 268.073558864
Comments: "license=License CC-BY-NC-SA 4.0 International" "author=Plant Biology, The Noble Foundation, Ardmore, OK, US/Dennis Fine, Daniel Wherritt, and Lloyd Sumner" "instrument type=LC-ESI-TOF" "instrument=impact HD" "ionization=ESI" "ionization mode=negative" "ms level=MS2" "precursor m/z=267.0662" "isolation width=5" "collision gas=Nitrogen" "collision energy=10" "peak width=0.011" "date=2013-11-23 14:18:48+01:00" "column=Waters Acquity BEH C18 1.7um x 2.1 x 150 mm" "retention time=691.8" "raw data file=C:\Data\Confirmed Standards\Confirmed stds MSMS 22Nov13\Pratol (vial 270) MSMS.d" "precursor type=[M-H]-" "mass accuracy=0.31027513041705707" "mass error=-8.286400003498784E-5" "cas number=487-24-1" "SMILES=COc1ccc(cc1)c2cc(=O)c3ccc(cc3o2)O" "InChI=InChI=1S/C16H12O4/c1-19-12-5-2-10(3-6-12)15-9-14(18)13-7-4-11(17)8-16(13)20-15/h2-9,17H,1H3" "InChIKey=SQVXWIUVAILQRH-UHFFFAOYSA-N" "molecular formula=C16H12O4" "total exact mass=268.073558864" "SMILES=COC1=CC=C(C=C1)C2=CC(=O)C3=C(O2)C=C(C=C3)O"
Num Peaks: 9
 223 0.100100; 
 252 4.904905; 
 253 0.800801; 
 254 0.100100; 
 266 0.100100; 
 267 100.000000; 
 267 0.100100; 
 268 11.711712; 
 269 1.101101; 


Name: Pratol
SYNON: $:00in-source
DB#: MetaboBASE0648
InChIKey: SQVXWIUVAILQRH-UHFFFAOYSA-N
Instrument_type: LC-ESI-TOF
Instrument: impact HD
Ion_mode: N
InChIKey: SQVXWIUVAILQRH-UHFFFAOYSA-N
Formula: C16H12O4
MW: 268
ExactMass: 268.073558864
Comments: "license=License CC-BY-NC-SA 4.0 International" "author=Plant Biology, The Noble Foundation, Ardmore, OK, US/Dennis Fine, Daniel Wherritt, and Lloyd Sumner" "instrument type=LC-ESI-TOF" "instrument=impact HD" "ionization=ESI" "ionization mode=negative" "collision gas=Nitrogen" "peak width=0.013" "date=2013-11-23 14:18:48+01:00" "column=Waters Acquity BEH C18 1.7um x 2.1 x 150 mm" "retention time=691.8" "raw data file=C:\Data\Confirmed Standards\Confirmed stds MSMS 22Nov13\Pratol (vial 270) MSMS.d" "cas number=487-24-1" "SMILES=COc1ccc(cc1)c2cc(=O)c3ccc(cc3o2)O" "InChI=InChI=1S/C16H12O4/c1-19-12-5-2-10(3-6-12)15-9-14(18)13-7-4-11(17)8-16(13)20-15/h2-9,17H,1H3" "InChIKey=SQVXWIUVAILQRH-UHFFFAOYSA-N" "molecular formula=C16H12O4" "total exact mass=268.073558864" "SMILES=COC1=CC=C(C=C1)C2=CC(=O)C3=C(O2)C=C(C=C3)O"
Num Peaks: 19
 116 0.800801; 
 117 1.301301; 
 135 5.805806; 
 167 1.001001; 
 195 4.304304; 
 223 6.206206; 
 224 1.501502; 
 252 48.648649; 
 253 5.705706; 
 254 0.800801; 
 267 100.000000; 
 268 13.913914; 
 269 1.501502; 
 335 1.001001; 
 535 2.702703; 
 557 2.902903; 
 558 0.900901; 
 1124 1.801802; 
 1125 1.001001; 


Name: Pratol
SYNON: $:00in-source
DB#: MetaboBASE0649
InChIKey: SQVXWIUVAILQRH-UHFFFAOYSA-N
Precursor_type: [M-H]-
Spectrum_type: MS2
PrecursorMZ: 267.07
Instrument_type: LC-ESI-TOF
Instrument: impact HD
Ion_mode: N
Collision_energy: 40
InChIKey: SQVXWIUVAILQRH-UHFFFAOYSA-N
Formula: C16H12O4
MW: 268
ExactMass: 268.073558864
Comments: "license=License CC-BY-NC-SA 4.0 International" "author=Plant Biology, The Noble Foundation, Ardmore, OK, US/Dennis Fine, Daniel Wherritt, and Lloyd Sumner" "instrument type=LC-ESI-TOF" "instrument=impact HD" "ionization=ESI" "ionization mode=negative" "ms level=MS2" "precursor m/z=267.07" "isolation width=5" "collision gas=Nitrogen" "collision energy=40" "peak width=0.018" "date=2013-11-23 14:18:48+01:00" "column=Waters Acquity BEH C18 1.7um x 2.1 x 150 mm" "retention time=691.8" "raw data file=C:\Data\Confirmed Standards\Confirmed stds MSMS 22Nov13\Pratol (vial 270) MSMS.d" "precursor type=[M-H]-" "mass accuracy=13.91820870924279" "mass error=0.0037171359999774722" "cas number=487-24-1" "SMILES=COc1ccc(cc1)c2cc(=O)c3ccc(cc3o2)O" "InChI=InChI=1S/C16H12O4/c1-19-12-5-2-10(3-6-12)15-9-14(18)13-7-4-11(17)8-16(13)20-15/h2-9,17H,1H3" "InChIKey=SQVXWIUVAILQRH-UHFFFAOYSA-N" "molecular formula=C16H12O4" "total exact mass=268.073558864" "SMILES=COC1=CC=C(C=C1)C2=CC(=O)C3=C(O2)C=C(C=C3)O"
Num Peaks: 16
 108 4.304304; 
 116 7.707708; 
 117 9.809810; 
 135 82.182182; 
 136 6.106106; 
 153 6.706707; 
 167 3.303303; 
 182 2.102102; 
 195 17.217217; 
 196 8.908909; 
 223 100.000000; 
 224 35.835836; 
 225 3.703704; 
 251 3.703704; 
 252 40.940941; 
 253 6.406406; 


Name: Pratol
SYNON: $:00in-source
DB#: MetaboBASE0650
InChIKey: SQVXWIUVAILQRH-UHFFFAOYSA-N
Precursor_type: [M-H]-
Spectrum_type: MS2
PrecursorMZ: 267.0659
Instrument_type: LC-ESI-TOF
Instrument: impact HD
Ion_mode: N
Collision_energy: 30
InChIKey: SQVXWIUVAILQRH-UHFFFAOYSA-N
Formula: C16H12O4
MW: 268
ExactMass: 268.073558864
Comments: "license=License CC-BY-NC-SA 4.0 International" "author=Plant Biology, The Noble Foundation, Ardmore, OK, US/Dennis Fine, Daniel Wherritt, and Lloyd Sumner" "instrument type=LC-ESI-TOF" "instrument=impact HD" "ionization=ESI" "ionization mode=negative" "ms level=MS2" "precursor m/z=267.0659" "isolation width=5" "collision gas=Nitrogen" "collision energy=30" "peak width=0.013" "date=2013-11-23 14:18:48+01:00" "column=Waters Acquity BEH C18 1.7um x 2.1 x 150 mm" "retention time=691.8" "raw data file=C:\Data\Confirmed Standards\Confirmed stds MSMS 22Nov13\Pratol (vial 270) MSMS.d" "precursor type=[M-H]-" "mass accuracy=1.433593731047375" "mass error=-3.828640000165251E-4" "cas number=487-24-1" "SMILES=COc1ccc(cc1)c2cc(=O)c3ccc(cc3o2)O" "InChI=InChI=1S/C16H12O4/c1-19-12-5-2-10(3-6-12)15-9-14(18)13-7-4-11(17)8-16(13)20-15/h2-9,17H,1H3" "InChIKey=SQVXWIUVAILQRH-UHFFFAOYSA-N" "molecular formula=C16H12O4" "total exact mass=268.073558864" "SMILES=COC1=CC=C(C=C1)C2=CC(=O)C3=C(O2)C=C(C=C3)O"
Num Peaks: 17
 108 0.600601; 
 117 0.400400; 
 135 10.010010; 
 136 0.600601; 
 153 0.600601; 
 180 0.200200; 
 195 0.700701; 
 196 0.700701; 
 223 13.313313; 
 224 7.107107; 
 225 1.001001; 
 251 1.801802; 
 252 100.000000; 
 253 10.410410; 
 254 1.601602; 
 267 2.502503; 
 268 0.400400; 


Name: Pratol
SYNON: $:00in-source
DB#: MetaboBASE0651
InChIKey: SQVXWIUVAILQRH-UHFFFAOYSA-N
Precursor_type: [M-H]-
Spectrum_type: MS2
PrecursorMZ: 267.0663
Instrument_type: LC-ESI-TOF
Instrument: impact HD
Ion_mode: N
Collision_energy: 6
InChIKey: SQVXWIUVAILQRH-UHFFFAOYSA-N
Formula: C16H12O4
MW: 268
ExactMass: 268.073558864
Comments: "license=License CC-BY-NC-SA 4.0 International" "author=Plant Biology, The Noble Foundation, Ardmore, OK, US/Dennis Fine, Daniel Wherritt, and Lloyd Sumner" "instrument type=LC-ESI-TOF" "instrument=impact HD" "ionization=ESI" "ionization mode=negative" "ms level=MS2" "precursor m/z=267.0663" "isolation width=5" "collision gas=Nitrogen" "collision energy=6" "peak width=0.011" "date=2013-11-23 14:18:48+01:00" "column=Waters Acquity BEH C18 1.7um x 2.1 x 150 mm" "retention time=691.8" "raw data file=C:\Data\Confirmed Standards\Confirmed stds MSMS 22Nov13\Pratol (vial 270) MSMS.d" "precursor type=[M-H]-" "mass accuracy=0.06416384244943495" "mass error=1.7135999996753526E-5" "cas number=487-24-1" "SMILES=COc1ccc(cc1)c2cc(=O)c3ccc(cc3o2)O" "InChI=InChI=1S/C16H12O4/c1-19-12-5-2-10(3-6-12)15-9-14(18)13-7-4-11(17)8-16(13)20-15/h2-9,17H,1H3" "InChIKey=SQVXWIUVAILQRH-UHFFFAOYSA-N" "molecular formula=C16H12O4" "total exact mass=268.073558864" "SMILES=COC1=CC=C(C=C1)C2=CC(=O)C3=C(O2)C=C(C=C3)O"
Num Peaks: 5
 252 0.800801; 
 253 0.300300; 
 267 100.000000; 
 268 11.911912; 
 269 1.201201; 


Name: Neohesperidin
SYNON: $:00in-source
DB#: MetaboBASE0652
InChIKey: ARGKVCXINMKCAZ-UZRWAPQLSA-N
Precursor_type: [M-H]-
Spectrum_type: MS2
PrecursorMZ: 609.1804
Instrument_type: LC-ESI-TOF
Instrument: impact HD
Ion_mode: N
Collision_energy: 20
InChIKey: ARGKVCXINMKCAZ-UZRWAPQLSA-N
Formula: C28H34O15
MW: 610
ExactMass: 610.189770388
Comments: "license=License CC-BY-NC-SA 4.0 International" "author=Plant Biology, The Noble Foundation, Ardmore, OK, US/Dennis Fine, Daniel Wherritt, and Lloyd Sumner" "instrument type=LC-ESI-TOF" "instrument=impact HD" "ionization=ESI" "ionization mode=negative" "ms level=MS2" "precursor m/z=609.1804" "isolation width=5" "collision gas=Nitrogen" "collision energy=20" "peak width=0.013" "date=2014-01-04 10:41:25+01:00" "column=Waters Acquity BEH C18 1.7um x 2.1 x 150 mm" "retention time=447" "raw data file=C:\Data\Confirmed Standards\Confirmed stds MSMS 2Jan14\Neohesperidin (vial 318)_MSMS_2411.d" "precursor type=[M-H]-" "mass accuracy=3.43804232711018" "mass error=-0.0020943880000459103" "cas number=13241-33-3" "SMILES=C[C@H]1[C@@H]([C@H]([C@H]([C@@H](O1)O[C@@H]2[C@H]([C@@H]([C@H](O[C@H]2Oc3cc(c4c(c3)O[C@@H](CC4=O)c5ccc(c(c5)O)OC)O)CO)O)O)O)O)O" "InChI=InChI=1S/C28H34O15/c1-10-21(33)23(35)25(37)27(39-10)43-26-24(36)22(34)19(9-29)42-28(26)40-12-6-14(31)20-15(32)8-17(41-18(20)7-12)11-3-4-16(38-2)13(30)5-11/h3-7,10,17,19,21-31,33-37H,8-9H2,1-2H3/t10-,17-,19+,21-,22+,23+,24-,25+,26+,27-,28+/m0/s1" "InChIKey=ARGKVCXINMKCAZ-UZRWAPQLSA-N" "molecular formula=C28H34O15" "total exact mass=610.189770388" "SMILES=CC1C(C(C(C(O1)OC2C(C(C(OC2OC=3C=C(C4=C(C3)OC(CC4=O)C=5C=CC(=C(C5)O)OC)O)CO)O)O)O)O)O" "InChI=InChI=1S/C28H34O15/c1-10-21(33)23(35)25(37)27(39-10)43-26-24(36)22(34)19(9-29)42-28(26)40-12-6-14(31)20-15(32)8-17(41-18(20)7-12)11-3-4-16(38-2)13(30)5-11/h3-7,10,17,19,21-31,33-37H,8-9H2,1-2H3" "InChIKey=ARGKVCXINMKCAZ-UHFFFAOYSA-N"
Num Peaks: 7
 301 3.503504; 
 609 100.000000; 
 609 0.800801; 
 610 22.122122; 
 611 2.702703; 
 613 0.800801; 
 613 0.800801; 


Name: Neohesperidin
SYNON: $:00in-source
DB#: MetaboBASE0653
InChIKey: ARGKVCXINMKCAZ-UZRWAPQLSA-N
Precursor_type: [M-H]-
Spectrum_type: MS2
PrecursorMZ: 609.1788
Instrument_type: LC-ESI-TOF
Instrument: impact HD
Ion_mode: N
Collision_energy: 30
InChIKey: ARGKVCXINMKCAZ-UZRWAPQLSA-N
Formula: C28H34O15
MW: 610
ExactMass: 610.189770388
Comments: "license=License CC-BY-NC-SA 4.0 International" "author=Plant Biology, The Noble Foundation, Ardmore, OK, US/Dennis Fine, Daniel Wherritt, and Lloyd Sumner" "instrument type=LC-ESI-TOF" "instrument=impact HD" "ionization=ESI" "ionization mode=negative" "ms level=MS2" "precursor m/z=609.1788" "isolation width=5" "collision gas=Nitrogen" "collision energy=30" "peak width=0.014" "date=2014-01-04 10:41:25+01:00" "column=Waters Acquity BEH C18 1.7um x 2.1 x 150 mm" "retention time=447" "raw data file=C:\Data\Confirmed Standards\Confirmed stds MSMS 2Jan14\Neohesperidin (vial 318)_MSMS_2411.d" "precursor type=[M-H]-" "mass accuracy=6.064538030518031" "mass error=-0.003694387999985338" "cas number=13241-33-3" "SMILES=C[C@H]1[C@@H]([C@H]([C@H]([C@@H](O1)O[C@@H]2[C@H]([C@@H]([C@H](O[C@H]2Oc3cc(c4c(c3)O[C@@H](CC4=O)c5ccc(c(c5)O)OC)O)CO)O)O)O)O)O" "InChI=InChI=1S/C28H34O15/c1-10-21(33)23(35)25(37)27(39-10)43-26-24(36)22(34)19(9-29)42-28(26)40-12-6-14(31)20-15(32)8-17(41-18(20)7-12)11-3-4-16(38-2)13(30)5-11/h3-7,10,17,19,21-31,33-37H,8-9H2,1-2H3/t10-,17-,19+,21-,22+,23+,24-,25+,26+,27-,28+/m0/s1" "InChIKey=ARGKVCXINMKCAZ-UZRWAPQLSA-N" "molecular formula=C28H34O15" "total exact mass=610.189770388" "SMILES=CC1C(C(C(C(O1)OC2C(C(C(OC2OC=3C=C(C4=C(C3)OC(CC4=O)C=5C=CC(=C(C5)O)OC)O)CO)O)O)O)O)O" "InChI=InChI=1S/C28H34O15/c1-10-21(33)23(35)25(37)27(39-10)43-26-24(36)22(34)19(9-29)42-28(26)40-12-6-14(31)20-15(32)8-17(41-18(20)7-12)11-3-4-16(38-2)13(30)5-11/h3-7,10,17,19,21-31,33-37H,8-9H2,1-2H3" "InChIKey=ARGKVCXINMKCAZ-UHFFFAOYSA-N"
Num Peaks: 6
 301 44.644645; 
 302 7.507508; 
 343 4.904905; 
 609 100.000000; 
 610 24.424424; 
 611 5.905906; 


Name: Neohesperidin
SYNON: $:00in-source
DB#: MetaboBASE0654
InChIKey: ARGKVCXINMKCAZ-UZRWAPQLSA-N
Instrument_type: LC-ESI-TOF
Instrument: impact HD
Ion_mode: N
InChIKey: ARGKVCXINMKCAZ-UZRWAPQLSA-N
Formula: C28H34O15
MW: 610
ExactMass: 610.1897703879999
Comments: "license=License CC-BY-NC-SA 4.0 International" "author=Plant Biology, The Noble Foundation, Ardmore, OK, US/Dennis Fine, Daniel Wherritt, and Lloyd Sumner" "instrument type=LC-ESI-TOF" "instrument=impact HD" "ionization=ESI" "ionization mode=negative" "collision gas=Nitrogen" "peak width=0.011" "date=2014-01-04 10:41:25+01:00" "column=Waters Acquity BEH C18 1.7um x 2.1 x 150 mm" "retention time=447" "raw data file=C:\Data\Confirmed Standards\Confirmed stds MSMS 2Jan14\Neohesperidin (vial 318)_MSMS_2411.d" "cas number=13241-33-3" "SMILES=C[C@H]1[C@@H]([C@H]([C@H]([C@@H](O1)O[C@@H]2[C@H]([C@@H]([C@H](O[C@H]2Oc3cc(c4c(c3)O[C@@H](CC4=O)c5ccc(c(c5)O)OC)O)CO)O)O)O)O)O" "InChI=InChI=1S/C28H34O15/c1-10-21(33)23(35)25(37)27(39-10)43-26-24(36)22(34)19(9-29)42-28(26)40-12-6-14(31)20-15(32)8-17(41-18(20)7-12)11-3-4-16(38-2)13(30)5-11/h3-7,10,17,19,21-31,33-37H,8-9H2,1-2H3/t10-,17-,19+,21-,22+,23+,24-,25+,26+,27-,28+/m0/s1" "InChIKey=ARGKVCXINMKCAZ-UZRWAPQLSA-N" "molecular formula=C28H34O15" "total exact mass=610.1897703879999" "SMILES=CC1C(C(C(C(O1)OC2C(C(C(OC2OC=3C=C(C4=C(C3)OC(CC4=O)C=5C=CC(=C(C5)O)OC)O)CO)O)O)O)O)O" "InChI=InChI=1S/C28H34O15/c1-10-21(33)23(35)25(37)27(39-10)43-26-24(36)22(34)19(9-29)42-28(26)40-12-6-14(31)20-15(32)8-17(41-18(20)7-12)11-3-4-16(38-2)13(30)5-11/h3-7,10,17,19,21-31,33-37H,8-9H2,1-2H3" "InChIKey=ARGKVCXINMKCAZ-UHFFFAOYSA-N"
Num Peaks: 27
 112 1.201201; 
 116 0.500501; 
 128 0.400400; 
 609 100.000000; 
 610 25.525526; 
 611 5.005005; 
 612 0.800801; 
 645 0.600601; 
 655 0.900901; 
 656 0.600601; 
 666 4.404404; 
 667 0.800801; 
 677 6.206206; 
 678 2.002002; 
 679 0.600601; 
 708 0.800801; 
 727 1.101101; 
 739 0.500501; 
 745 1.001001; 
 746 0.400400; 
 807 0.500501; 
 813 0.400400; 
 1219 6.106106; 
 1219 0.400400; 
 1220 2.902903; 
 1221 1.001001; 
 1241 0.700701; 


Name: Neohesperidin
SYNON: $:00in-source
DB#: MetaboBASE0655
InChIKey: ARGKVCXINMKCAZ-UZRWAPQLSA-N
Precursor_type: [M-H]-
Spectrum_type: MS2
PrecursorMZ: 609.1805
Instrument_type: LC-ESI-TOF
Instrument: impact HD
Ion_mode: N
Collision_energy: 10
InChIKey: ARGKVCXINMKCAZ-UZRWAPQLSA-N
Formula: C28H34O15
MW: 610
ExactMass: 610.189770388
Comments: "license=License CC-BY-NC-SA 4.0 International" "author=Plant Biology, The Noble Foundation, Ardmore, OK, US/Dennis Fine, Daniel Wherritt, and Lloyd Sumner" "instrument type=LC-ESI-TOF" "instrument=impact HD" "ionization=ESI" "ionization mode=negative" "ms level=MS2" "precursor m/z=609.1805" "isolation width=5" "collision gas=Nitrogen" "collision energy=10" "peak width=0.012" "date=2014-01-04 10:41:25+01:00" "column=Waters Acquity BEH C18 1.7um x 2.1 x 150 mm" "retention time=447" "raw data file=C:\Data\Confirmed Standards\Confirmed stds MSMS 2Jan14\Neohesperidin (vial 318)_MSMS_2411.d" "precursor type=[M-H]-" "mass accuracy=3.273886803594871" "mass error=-0.0019943879999573255" "cas number=13241-33-3" "SMILES=C[C@H]1[C@@H]([C@H]([C@H]([C@@H](O1)O[C@@H]2[C@H]([C@@H]([C@H](O[C@H]2Oc3cc(c4c(c3)O[C@@H](CC4=O)c5ccc(c(c5)O)OC)O)CO)O)O)O)O)O" "InChI=InChI=1S/C28H34O15/c1-10-21(33)23(35)25(37)27(39-10)43-26-24(36)22(34)19(9-29)42-28(26)40-12-6-14(31)20-15(32)8-17(41-18(20)7-12)11-3-4-16(38-2)13(30)5-11/h3-7,10,17,19,21-31,33-37H,8-9H2,1-2H3/t10-,17-,19+,21-,22+,23+,24-,25+,26+,27-,28+/m0/s1" "InChIKey=ARGKVCXINMKCAZ-UZRWAPQLSA-N" "molecular formula=C28H34O15" "total exact mass=610.189770388" "SMILES=CC1C(C(C(C(O1)OC2C(C(C(OC2OC=3C=C(C4=C(C3)OC(CC4=O)C=5C=CC(=C(C5)O)OC)O)CO)O)O)O)O)O" "InChI=InChI=1S/C28H34O15/c1-10-21(33)23(35)25(37)27(39-10)43-26-24(36)22(34)19(9-29)42-28(26)40-12-6-14(31)20-15(32)8-17(41-18(20)7-12)11-3-4-16(38-2)13(30)5-11/h3-7,10,17,19,21-31,33-37H,8-9H2,1-2H3" "InChIKey=ARGKVCXINMKCAZ-UHFFFAOYSA-N"
Num Peaks: 3
 609 100.000000; 
 610 28.428428; 
 611 5.105105; 


Name: Neohesperidin
SYNON: $:00in-source
DB#: MetaboBASE0656
InChIKey: ARGKVCXINMKCAZ-UZRWAPQLSA-N
Precursor_type: [M-H]-
Spectrum_type: MS2
PrecursorMZ: 609.1804
Instrument_type: LC-ESI-TOF
Instrument: impact HD
Ion_mode: N
Collision_energy: 40
InChIKey: ARGKVCXINMKCAZ-UZRWAPQLSA-N
Formula: C28H34O15
MW: 610
ExactMass: 610.1897703879999
Comments: "license=License CC-BY-NC-SA 4.0 International" "author=Plant Biology, The Noble Foundation, Ardmore, OK, US/Dennis Fine, Daniel Wherritt, and Lloyd Sumner" "instrument type=LC-ESI-TOF" "instrument=impact HD" "ionization=ESI" "ionization mode=negative" "ms level=MS2" "precursor m/z=609.1804" "isolation width=5" "collision gas=Nitrogen" "collision energy=40" "peak width=0.014" "date=2014-01-04 10:41:25+01:00" "column=Waters Acquity BEH C18 1.7um x 2.1 x 150 mm" "retention time=447" "raw data file=C:\Data\Confirmed Standards\Confirmed stds MSMS 2Jan14\Neohesperidin (vial 318)_MSMS_2411.d" "precursor type=[M-H]-" "mass accuracy=3.438042326923558" "mass error=-0.0020943879999322235" "cas number=13241-33-3" "SMILES=C[C@H]1[C@@H]([C@H]([C@H]([C@@H](O1)O[C@@H]2[C@H]([C@@H]([C@H](O[C@H]2Oc3cc(c4c(c3)O[C@@H](CC4=O)c5ccc(c(c5)O)OC)O)CO)O)O)O)O)O" "InChI=InChI=1S/C28H34O15/c1-10-21(33)23(35)25(37)27(39-10)43-26-24(36)22(34)19(9-29)42-28(26)40-12-6-14(31)20-15(32)8-17(41-18(20)7-12)11-3-4-16(38-2)13(30)5-11/h3-7,10,17,19,21-31,33-37H,8-9H2,1-2H3/t10-,17-,19+,21-,22+,23+,24-,25+,26+,27-,28+/m0/s1" "InChIKey=ARGKVCXINMKCAZ-UZRWAPQLSA-N" "molecular formula=C28H34O15" "total exact mass=610.1897703879999" "SMILES=CC1C(C(C(C(O1)OC2C(C(C(OC2OC=3C=C(C4=C(C3)OC(CC4=O)C=5C=CC(=C(C5)O)OC)O)CO)O)O)O)O)O" "InChI=InChI=1S/C28H34O15/c1-10-21(33)23(35)25(37)27(39-10)43-26-24(36)22(34)19(9-29)42-28(26)40-12-6-14(31)20-15(32)8-17(41-18(20)7-12)11-3-4-16(38-2)13(30)5-11/h3-7,10,17,19,21-31,33-37H,8-9H2,1-2H3" "InChIKey=ARGKVCXINMKCAZ-UHFFFAOYSA-N"
Num Peaks: 13
 257 3.003003; 
 258 2.902903; 
 283 2.102102; 
 286 4.404404; 
 301 100.000000; 
 302 16.816817; 
 303 2.902903; 
 325 2.102102; 
 343 2.402402; 
 489 4.704705; 
 609 19.219219; 
 610 4.604605; 
 611 2.002002; 


Name: Neohesperidin dihydrochalcone
SYNON: $:00in-source
DB#: MetaboBASE0657
InChIKey: ITVGXXMINPYUHD-CUVHLRMHSA-N
Precursor_type: [M-H]-
Spectrum_type: MS2
PrecursorMZ: 611.2092
Instrument_type: LC-ESI-TOF
Instrument: impact HD
Ion_mode: N
Collision_energy: 6
InChIKey: ITVGXXMINPYUHD-CUVHLRMHSA-N
Formula: C28H36O15
MW: 612
ExactMass: 612.205420452
Comments: "license=License CC-BY-NC-SA 4.0 International" "author=Plant Biology, The Noble Foundation, Ardmore, OK, US/Dennis Fine, Daniel Wherritt, and Lloyd Sumner" "instrument type=LC-ESI-TOF" "instrument=impact HD" "ionization=ESI" "ionization mode=negative" "ms level=MS2" "precursor m/z=611.2092" "isolation width=5" "collision gas=Nitrogen" "collision energy=6" "peak width=0.011" "date=2014-01-04 10:00:41+01:00" "column=Waters Acquity BEH C18 1.7um x 2.1 x 150 mm" "retention time=537" "raw data file=C:\Data\Confirmed Standards\Confirmed stds MSMS 2Jan14\Neohesperidin dihydrocha_MSMS_2410.d" "precursor type=[M-H]-" "mass accuracy=18.087993439985" "mass error=0.01105554800005848" "cas number=20702-77-6" "SMILES=C[C@H]1[C@@H]([C@H]([C@H]([C@@H](O1)O[C@@H]2[C@H]([C@@H]([C@H](O[C@H]2Oc3cc(c(c(c3)O)C(=O)CCc4ccc(c(c4)O)OC)O)CO)O)O)O)O)O" "InChI=InChI=1S/C28H36O15/c1-11-21(34)23(36)25(38)27(40-11)43-26-24(37)22(35)19(10-29)42-28(26)41-13-8-16(32)20(17(33)9-13)14(30)5-3-12-4-6-18(39-2)15(31)7-12/h4,6-9,11,19,21-29,31-38H,3,5,10H2,1-2H3/t11-,19+,21-,22+,23+,24-,25+,26+,27-,28+/m0/s1" "InChIKey=ITVGXXMINPYUHD-CUVHLRMHSA-N" "molecular formula=C28H36O15" "total exact mass=612.205420452" "SMILES=CC1C(C(C(C(O1)OC2C(C(C(OC2OC3=CC(=C(C(=C3)O)C(=O)CCC4=CC(=C(C=C4)OC)O)O)CO)O)O)O)O)O" "InChI=InChI=1S/C28H36O15/c1-11-21(34)23(36)25(38)27(40-11)43-26-24(37)22(35)19(10-29)42-28(26)41-13-8-16(32)20(17(33)9-13)14(30)5-3-12-4-6-18(39-2)15(31)7-12/h4,6-9,11,19,21-29,31-38H,3,5,10H2,1-2H3" "InChIKey=ITVGXXMINPYUHD-UHFFFAOYSA-N"
Num Peaks: 3
 611 100.000000; 
 612 17.517518; 
 613 4.204204; 


Name: Neohesperidin dihydrochalcone
SYNON: $:00in-source
DB#: MetaboBASE0658
InChIKey: ITVGXXMINPYUHD-CUVHLRMHSA-N
Precursor_type: [M-H]-
Spectrum_type: MS2
PrecursorMZ: 611.2094
Instrument_type: LC-ESI-TOF
Instrument: impact HD
Ion_mode: N
Collision_energy: 30
InChIKey: ITVGXXMINPYUHD-CUVHLRMHSA-N
Formula: C28H36O15
MW: 612
ExactMass: 612.205420452
Comments: "license=License CC-BY-NC-SA 4.0 International" "author=Plant Biology, The Noble Foundation, Ardmore, OK, US/Dennis Fine, Daniel Wherritt, and Lloyd Sumner" "instrument type=LC-ESI-TOF" "instrument=impact HD" "ionization=ESI" "ionization mode=negative" "ms level=MS2" "precursor m/z=611.2094" "isolation width=5" "collision gas=Nitrogen" "collision energy=30" "peak width=0.011" "date=2014-01-04 10:00:41+01:00" "column=Waters Acquity BEH C18 1.7um x 2.1 x 150 mm" "retention time=537" "raw data file=C:\Data\Confirmed Standards\Confirmed stds MSMS 2Jan14\Neohesperidin dihydrocha_MSMS_2410.d" "precursor type=[M-H]-" "mass accuracy=18.415207619529863" "mass error=0.011255548000008275" "cas number=20702-77-6" "SMILES=C[C@H]1[C@@H]([C@H]([C@H]([C@@H](O1)O[C@@H]2[C@H]([C@@H]([C@H](O[C@H]2Oc3cc(c(c(c3)O)C(=O)CCc4ccc(c(c4)O)OC)O)CO)O)O)O)O)O" "InChI=InChI=1S/C28H36O15/c1-11-21(34)23(36)25(38)27(40-11)43-26-24(37)22(35)19(10-29)42-28(26)41-13-8-16(32)20(17(33)9-13)14(30)5-3-12-4-6-18(39-2)15(31)7-12/h4,6-9,11,19,21-29,31-38H,3,5,10H2,1-2H3/t11-,19+,21-,22+,23+,24-,25+,26+,27-,28+/m0/s1" "InChIKey=ITVGXXMINPYUHD-CUVHLRMHSA-N" "molecular formula=C28H36O15" "total exact mass=612.205420452" "SMILES=CC1C(C(C(C(O1)OC2C(C(C(OC2OC3=CC(=C(C(=C3)O)C(=O)CCC4=CC(=C(C=C4)OC)O)O)CO)O)O)O)O)O" "InChI=InChI=1S/C28H36O15/c1-11-21(34)23(36)25(38)27(40-11)43-26-24(37)22(35)19(10-29)42-28(26)41-13-8-16(32)20(17(33)9-13)14(30)5-3-12-4-6-18(39-2)15(31)7-12/h4,6-9,11,19,21-29,31-38H,3,5,10H2,1-2H3" "InChIKey=ITVGXXMINPYUHD-UHFFFAOYSA-N"
Num Peaks: 13
 303 15.215215; 
 304 2.202202; 
 327 2.202202; 
 387 0.900901; 
 405 1.301301; 
 433 1.401401; 
 449 1.501502; 
 465 1.001001; 
 491 3.803804; 
 492 0.900901; 
 611 100.000000; 
 612 24.324324; 
 613 2.902903; 


Name: Neohesperidin dihydrochalcone
SYNON: $:00in-source
DB#: MetaboBASE0659
InChIKey: ITVGXXMINPYUHD-CUVHLRMHSA-N
Precursor_type: [M-H]-
Spectrum_type: MS2
PrecursorMZ: 611.2084
Instrument_type: LC-ESI-TOF
Instrument: impact HD
Ion_mode: N
Collision_energy: 40
InChIKey: ITVGXXMINPYUHD-CUVHLRMHSA-N
Formula: C28H36O15
MW: 612
ExactMass: 612.205420452
Comments: "license=License CC-BY-NC-SA 4.0 International" "author=Plant Biology, The Noble Foundation, Ardmore, OK, US/Dennis Fine, Daniel Wherritt, and Lloyd Sumner" "instrument type=LC-ESI-TOF" "instrument=impact HD" "ionization=ESI" "ionization mode=negative" "ms level=MS2" "precursor m/z=611.2084" "isolation width=5" "collision gas=Nitrogen" "collision energy=40" "peak width=0.013" "date=2014-01-04 10:00:41+01:00" "column=Waters Acquity BEH C18 1.7um x 2.1 x 150 mm" "retention time=537" "raw data file=C:\Data\Confirmed Standards\Confirmed stds MSMS 2Jan14\Neohesperidin dihydrocha_MSMS_2410.d" "precursor type=[M-H]-" "mass accuracy=16.779134580008918" "mass error=0.010255548000031922" "cas number=20702-77-6" "SMILES=C[C@H]1[C@@H]([C@H]([C@H]([C@@H](O1)O[C@@H]2[C@H]([C@@H]([C@H](O[C@H]2Oc3cc(c(c(c3)O)C(=O)CCc4ccc(c(c4)O)OC)O)CO)O)O)O)O)O" "InChI=InChI=1S/C28H36O15/c1-11-21(34)23(36)25(38)27(40-11)43-26-24(37)22(35)19(10-29)42-28(26)41-13-8-16(32)20(17(33)9-13)14(30)5-3-12-4-6-18(39-2)15(31)7-12/h4,6-9,11,19,21-29,31-38H,3,5,10H2,1-2H3/t11-,19+,21-,22+,23+,24-,25+,26+,27-,28+/m0/s1" "InChIKey=ITVGXXMINPYUHD-CUVHLRMHSA-N" "molecular formula=C28H36O15" "total exact mass=612.205420452" "SMILES=CC1C(C(C(C(O1)OC2C(C(C(OC2OC3=CC(=C(C(=C3)O)C(=O)CCC4=CC(=C(C=C4)OC)O)O)CO)O)O)O)O)O" "InChI=InChI=1S/C28H36O15/c1-11-21(34)23(36)25(38)27(40-11)43-26-24(37)22(35)19(10-29)42-28(26)41-13-8-16(32)20(17(33)9-13)14(30)5-3-12-4-6-18(39-2)15(31)7-12/h4,6-9,11,19,21-29,31-38H,3,5,10H2,1-2H3" "InChIKey=ITVGXXMINPYUHD-UHFFFAOYSA-N"
Num Peaks: 27
 125 6.006006; 
 126 1.901902; 
 224 1.201201; 
 244 2.202202; 
 261 1.201201; 
 285 1.401401; 
 288 3.603604; 
 289 1.501502; 
 303 100.000000; 
 304 14.814815; 
 305 1.401401; 
 313 1.701702; 
 327 5.805806; 
 328 2.102102; 
 345 4.204204; 
 346 2.002002; 
 357 1.701702; 
 369 1.701702; 
 405 2.302302; 
 433 2.502503; 
 434 2.102102; 
 447 1.501502; 
 491 6.006006; 
 492 2.402402; 
 611 36.936937; 
 612 9.609610; 
 613 1.701702; 


Name: Neohesperidin dihydrochalcone
SYNON: $:00in-source
DB#: MetaboBASE0660
InChIKey: ITVGXXMINPYUHD-CUVHLRMHSA-N
Instrument_type: LC-ESI-TOF
Instrument: impact HD
Ion_mode: N
InChIKey: ITVGXXMINPYUHD-CUVHLRMHSA-N
Formula: C28H36O15
MW: 612
ExactMass: 612.205420452
Comments: "license=License CC-BY-NC-SA 4.0 International" "author=Plant Biology, The Noble Foundation, Ardmore, OK, US/Dennis Fine, Daniel Wherritt, and Lloyd Sumner" "instrument type=LC-ESI-TOF" "instrument=impact HD" "ionization=ESI" "ionization mode=negative" "collision gas=Nitrogen" "peak width=0.011" "date=2014-01-04 10:00:41+01:00" "column=Waters Acquity BEH C18 1.7um x 2.1 x 150 mm" "retention time=537" "raw data file=C:\Data\Confirmed Standards\Confirmed stds MSMS 2Jan14\Neohesperidin dihydrocha_MSMS_2410.d" "cas number=20702-77-6" "SMILES=C[C@H]1[C@@H]([C@H]([C@H]([C@@H](O1)O[C@@H]2[C@H]([C@@H]([C@H](O[C@H]2Oc3cc(c(c(c3)O)C(=O)CCc4ccc(c(c4)O)OC)O)CO)O)O)O)O)O" "InChI=InChI=1S/C28H36O15/c1-11-21(34)23(36)25(38)27(40-11)43-26-24(37)22(35)19(10-29)42-28(26)41-13-8-16(32)20(17(33)9-13)14(30)5-3-12-4-6-18(39-2)15(31)7-12/h4,6-9,11,19,21-29,31-38H,3,5,10H2,1-2H3/t11-,19+,21-,22+,23+,24-,25+,26+,27-,28+/m0/s1" "InChIKey=ITVGXXMINPYUHD-CUVHLRMHSA-N" "molecular formula=C28H36O15" "total exact mass=612.205420452" "SMILES=CC1C(C(C(C(O1)OC2C(C(C(OC2OC3=CC(=C(C(=C3)O)C(=O)CCC4=CC(=C(C=C4)OC)O)O)CO)O)O)O)O)O" "InChI=InChI=1S/C28H36O15/c1-11-21(34)23(36)25(38)27(40-11)43-26-24(37)22(35)19(10-29)42-28(26)41-13-8-16(32)20(17(33)9-13)14(30)5-3-12-4-6-18(39-2)15(31)7-12/h4,6-9,11,19,21-29,31-38H,3,5,10H2,1-2H3" "InChIKey=ITVGXXMINPYUHD-UHFFFAOYSA-N"
Num Peaks: 80
 110 0.300300; 
 112 1.701702; 
 114 0.500501; 
 116 3.203203; 
 117 0.500501; 
 124 0.400400; 
 125 9.809810; 
 126 0.600601; 
 128 1.501502; 
 146 0.500501; 
 149 0.300300; 
 151 0.400400; 
 152 0.600601; 
 157 0.500501; 
 166 1.001001; 
 167 0.500501; 
 174 1.001001; 
 180 0.500501; 
 217 0.400400; 
 219 0.900901; 
 241 0.300300; 
 244 2.802803; 
 245 0.500501; 
 248 0.400400; 
 259 1.201201; 
 269 0.500501; 
 270 0.500501; 
 271 0.400400; 
 285 1.601602; 
 287 0.500501; 
 287 0.300300; 
 288 6.206206; 
 289 1.401401; 
 302 0.400400; 
 303 100.000000; 
 304 13.313313; 
 305 1.801802; 
 306 0.300300; 
 309 0.300300; 
 312 0.500501; 
 313 0.400400; 
 315 0.400400; 
 325 2.602603; 
 326 0.300300; 
 327 2.702703; 
 328 0.600601; 
 345 2.202202; 
 346 0.300300; 
 347 0.500501; 
 357 0.600601; 
 357 0.400400; 
 369 0.400400; 
 387 0.300300; 
 393 0.500501; 
 405 0.600601; 
 416 0.300300; 
 433 0.500501; 
 447 0.600601; 
 487 0.300300; 
 491 2.002002; 
 492 0.500501; 
 611 52.752753; 
 612 11.511512; 
 613 2.102102; 
 614 0.900901; 
 633 2.202202; 
 634 0.900901; 
 635 0.300300; 
 649 1.501502; 
 650 0.400400; 
 655 1.101101; 
 656 0.400400; 
 664 1.101101; 
 665 0.600601; 
 679 0.400400; 
 687 0.400400; 
 689 0.300300; 
 717 0.400400; 
 1223 0.500501; 
 1323 0.300300; 


Name: Scutellarein
SYNON: $:00in-source
DB#: MetaboBASE0661
InChIKey: JVXZRQGOGOXCEC-UHFFFAOYSA-N
Instrument_type: LC-ESI-TOF
Instrument: impact HD
Ion_mode: N
InChIKey: JVXZRQGOGOXCEC-UHFFFAOYSA-N
Formula: C15H10O6
MW: 286
ExactMass: 286.04773804
Comments: "license=License CC-BY-NC-SA 4.0 International" "author=Plant Biology, The Noble Foundation, Ardmore, OK, US/Dennis Fine, Daniel Wherritt, and Lloyd Sumner" "instrument type=LC-ESI-TOF" "instrument=impact HD" "ionization=ESI" "ionization mode=negative" "collision gas=Nitrogen" "peak width=0.012" "date=2014-01-09 03:27:43+01:00" "column=Waters Acquity BEH C18 1.7um x 2.1 x 150 mm" "retention time=427.8" "raw data file=C:\Data\Confirmed Standards\Confirmed stds MSMS 8Jan14\Scutellarein (vial 341)_MSMS.d" "cas number=529-53-3" "SMILES=c1cc(ccc1c2cc(=O)c3c(o2)cc(c(c3O)O)O)O" "InChI=InChI=1S/C15H10O6/c16-8-3-1-7(2-4-8)11-5-9(17)13-12(21-11)6-10(18)14(19)15(13)20/h1-6,16,18-20H" "InChIKey=JVXZRQGOGOXCEC-UHFFFAOYSA-N" "molecular formula=C15H10O6" "total exact mass=286.04773804" "SMILES=C1=CC(=CC=C1C2=CC(=O)C3=C(O2)C=C(C(=C3O)O)O)O"
Num Peaks: 9
 116 3.703704; 
 117 13.113113; 
 255 7.907908; 
 271 4.204204; 
 283 100.000000; 
 284 13.513514; 
 285 46.246246; 
 286 6.006006; 
 301 10.710711; 


Name: Scutellarein
SYNON: $:00in-source
DB#: MetaboBASE0662
InChIKey: JVXZRQGOGOXCEC-UHFFFAOYSA-N
Spectrum_type: MS2
PrecursorMZ: 283
Instrument_type: LC-ESI-TOF
Instrument: impact HD
Ion_mode: N
Collision_energy: 30
InChIKey: JVXZRQGOGOXCEC-UHFFFAOYSA-N
Formula: C15H10O6
MW: 286
ExactMass: 286.04773804
Comments: "license=License CC-BY-NC-SA 4.0 International" "author=Plant Biology, The Noble Foundation, Ardmore, OK, US/Dennis Fine, Daniel Wherritt, and Lloyd Sumner" "instrument type=LC-ESI-TOF" "instrument=impact HD" "ionization=ESI" "ionization mode=negative" "ms level=MS2" "precursor m/z=283" "isolation width=5" "collision gas=Nitrogen" "collision energy=30" "peak width=0.02" "date=2014-01-09 03:27:43+01:00" "column=Waters Acquity BEH C18 1.7um x 2.1 x 150 mm" "retention time=427.8" "raw data file=C:\Data\Confirmed Standards\Confirmed stds MSMS 8Jan14\Scutellarein (vial 341)_MSMS.d" "cas number=529-53-3" "SMILES=c1cc(ccc1c2cc(=O)c3c(o2)cc(c(c3O)O)O)O" "InChI=InChI=1S/C15H10O6/c16-8-3-1-7(2-4-8)11-5-9(17)13-12(21-11)6-10(18)14(19)15(13)20/h1-6,16,18-20H" "InChIKey=JVXZRQGOGOXCEC-UHFFFAOYSA-N" "molecular formula=C15H10O6" "total exact mass=286.04773804" "SMILES=C1=CC(=CC=C1C2=CC(=O)C3=C(O2)C=C(C(=C3O)O)O)O"
Num Peaks: 10
 117 100.000000; 
 119 20.820821; 
 136 32.232232; 
 136 32.232232; 
 139 26.226226; 
 163 16.316316; 
 165 14.614615; 
 239 24.924925; 
 255 58.458458; 
 285 67.467467; 


Name: Scutellarein
SYNON: $:00in-source
DB#: MetaboBASE0663
InChIKey: JVXZRQGOGOXCEC-UHFFFAOYSA-N
Spectrum_type: MS2
PrecursorMZ: 283.0255
Instrument_type: LC-ESI-TOF
Instrument: impact HD
Ion_mode: N
Collision_energy: 6
InChIKey: JVXZRQGOGOXCEC-UHFFFAOYSA-N
Formula: C15H10O6
MW: 286
ExactMass: 286.04773804
Comments: "license=License CC-BY-NC-SA 4.0 International" "author=Plant Biology, The Noble Foundation, Ardmore, OK, US/Dennis Fine, Daniel Wherritt, and Lloyd Sumner" "instrument type=LC-ESI-TOF" "instrument=impact HD" "ionization=ESI" "ionization mode=negative" "ms level=MS2" "precursor m/z=283.0255" "isolation width=5" "collision gas=Nitrogen" "collision energy=6" "peak width=0.014" "date=2014-01-09 03:27:43+01:00" "column=Waters Acquity BEH C18 1.7um x 2.1 x 150 mm" "retention time=427.8" "raw data file=C:\Data\Confirmed Standards\Confirmed stds MSMS 8Jan14\Scutellarein (vial 341)_MSMS.d" "cas number=529-53-3" "SMILES=c1cc(ccc1c2cc(=O)c3c(o2)cc(c(c3O)O)O)O" "InChI=InChI=1S/C15H10O6/c16-8-3-1-7(2-4-8)11-5-9(17)13-12(21-11)6-10(18)14(19)15(13)20/h1-6,16,18-20H" "InChIKey=JVXZRQGOGOXCEC-UHFFFAOYSA-N" "molecular formula=C15H10O6" "total exact mass=286.04773804" "SMILES=C1=CC(=CC=C1C2=CC(=O)C3=C(O2)C=C(C(=C3O)O)O)O"
Num Peaks: 4
 283 63.763764; 
 284 10.110110; 
 285 100.000000; 
 286 9.009009; 


Name: Scutellarein
SYNON: $:00in-source
DB#: MetaboBASE0664
InChIKey: JVXZRQGOGOXCEC-UHFFFAOYSA-N
Spectrum_type: MS2
PrecursorMZ: 283.026
Instrument_type: LC-ESI-TOF
Instrument: impact HD
Ion_mode: N
Collision_energy: 20
InChIKey: JVXZRQGOGOXCEC-UHFFFAOYSA-N
Formula: C15H10O6
MW: 286
ExactMass: 286.04773804
Comments: "license=License CC-BY-NC-SA 4.0 International" "author=Plant Biology, The Noble Foundation, Ardmore, OK, US/Dennis Fine, Daniel Wherritt, and Lloyd Sumner" "instrument type=LC-ESI-TOF" "instrument=impact HD" "ionization=ESI" "ionization mode=negative" "ms level=MS2" "precursor m/z=283.026" "isolation width=5" "collision gas=Nitrogen" "collision energy=20" "peak width=0.014" "date=2014-01-09 03:27:43+01:00" "column=Waters Acquity BEH C18 1.7um x 2.1 x 150 mm" "retention time=427.8" "raw data file=C:\Data\Confirmed Standards\Confirmed stds MSMS 8Jan14\Scutellarein (vial 341)_MSMS.d" "cas number=529-53-3" "SMILES=c1cc(ccc1c2cc(=O)c3c(o2)cc(c(c3O)O)O)O" "InChI=InChI=1S/C15H10O6/c16-8-3-1-7(2-4-8)11-5-9(17)13-12(21-11)6-10(18)14(19)15(13)20/h1-6,16,18-20H" "InChIKey=JVXZRQGOGOXCEC-UHFFFAOYSA-N" "molecular formula=C15H10O6" "total exact mass=286.04773804" "SMILES=C1=CC(=CC=C1C2=CC(=O)C3=C(O2)C=C(C(=C3O)O)O)O"
Num Peaks: 11
 117 4.504505; 
 163 2.402402; 
 227 3.203203; 
 239 2.402402; 
 255 35.335335; 
 256 3.103103; 
 267 2.602603; 
 283 29.229229; 
 284 3.403403; 
 285 100.000000; 
 286 8.208208; 


Name: Scutellarein
SYNON: $:00in-source
DB#: MetaboBASE0665
InChIKey: JVXZRQGOGOXCEC-UHFFFAOYSA-N
Spectrum_type: MS2
PrecursorMZ: 283.0255
Instrument_type: LC-ESI-TOF
Instrument: impact HD
Ion_mode: N
Collision_energy: 10
InChIKey: JVXZRQGOGOXCEC-UHFFFAOYSA-N
Formula: C15H10O6
MW: 286
ExactMass: 286.04773804
Comments: "license=License CC-BY-NC-SA 4.0 International" "author=Plant Biology, The Noble Foundation, Ardmore, OK, US/Dennis Fine, Daniel Wherritt, and Lloyd Sumner" "instrument type=LC-ESI-TOF" "instrument=impact HD" "ionization=ESI" "ionization mode=negative" "ms level=MS2" "precursor m/z=283.0255" "isolation width=5" "collision gas=Nitrogen" "collision energy=10" "peak width=0.013" "date=2014-01-09 03:27:43+01:00" "column=Waters Acquity BEH C18 1.7um x 2.1 x 150 mm" "retention time=427.8" "raw data file=C:\Data\Confirmed Standards\Confirmed stds MSMS 8Jan14\Scutellarein (vial 341)_MSMS.d" "cas number=529-53-3" "SMILES=c1cc(ccc1c2cc(=O)c3c(o2)cc(c(c3O)O)O)O" "InChI=InChI=1S/C15H10O6/c16-8-3-1-7(2-4-8)11-5-9(17)13-12(21-11)6-10(18)14(19)15(13)20/h1-6,16,18-20H" "InChIKey=JVXZRQGOGOXCEC-UHFFFAOYSA-N" "molecular formula=C15H10O6" "total exact mass=286.04773804" "SMILES=C1=CC(=CC=C1C2=CC(=O)C3=C(O2)C=C(C(=C3O)O)O)O"
Num Peaks: 5
 255 2.602603; 
 283 66.466466; 
 284 7.207207; 
 285 100.000000; 
 286 7.207207; 


Name: Saponarin
SYNON: $:00in-source
DB#: MetaboBASE0666
InChIKey: HGUVPEBGCAVWID-KETMJRJWSA-N
Precursor_type: [M-H]-
Spectrum_type: MS2
PrecursorMZ: 593.1487
Instrument_type: LC-ESI-TOF
Instrument: impact HD
Ion_mode: N
Collision_energy: 20
InChIKey: HGUVPEBGCAVWID-KETMJRJWSA-N
Formula: C27H30O15
MW: 594
ExactMass: 594.15847026
Comments: "license=License CC-BY-NC-SA 4.0 International" "author=Plant Biology, The Noble Foundation, Ardmore, OK, US/Dennis Fine, Daniel Wherritt, and Lloyd Sumner" "instrument type=LC-ESI-TOF" "instrument=impact HD" "ionization=ESI" "ionization mode=negative" "ms level=MS2" "precursor m/z=593.1487" "isolation width=5" "collision gas=Nitrogen" "collision energy=20" "peak width=0.0097" "date=2014-01-04 06:37:01+01:00" "column=Waters Acquity BEH C18 1.7um x 2.1 x 150 mm" "retention time=240.6" "raw data file=C:\Data\Confirmed Standards\Confirmed stds MSMS 2Jan14\Saponarin (v 306)_MSMS_2405.d" "precursor type=[M-H]-" "mass accuracy=4.205117536184285" "mass error=-0.0024942599999349113" "cas number=20310-89-8" "SMILES=c1cc(ccc1c2cc(=O)c3c(o2)cc(c(c3O)[C@H]4[C@@H]([C@H]([C@@H]([C@H](O4)CO)O)O)O)O[C@H]5[C@@H]([C@H]([C@@H]([C@H](O5)CO)O)O)O)O" "InChI=InChI=1S/C27H30O15/c28-7-15-19(32)22(35)24(37)26(40-15)18-14(41-27-25(38)23(36)20(33)16(8-29)42-27)6-13-17(21(18)34)11(31)5-12(39-13)9-1-3-10(30)4-2-9/h1-6,15-16,19-20,22-30,32-38H,7-8H2/t15-,16-,19-,20-,22+,23+,24-,25-,26+,27-/m1/s1" "InChIKey=HGUVPEBGCAVWID-KETMJRJWSA-N" "molecular formula=C27H30O15" "total exact mass=594.15847026" "SMILES=C1=CC(=CC=C1C2=CC(=O)C3=C(C(=C(C=C3O2)OC4C(C(C(C(O4)CO)O)O)O)C5C(C(C(C(O5)CO)O)O)O)O)O" "InChI=InChI=1S/C27H30O15/c28-7-15-19(32)22(35)24(37)26(40-15)18-14(41-27-25(38)23(36)20(33)16(8-29)42-27)6-13-17(21(18)34)11(31)5-12(39-13)9-1-3-10(30)4-2-9/h1-6,15-16,19-20,22-30,32-38H,7-8H2" "InChIKey=HGUVPEBGCAVWID-UHFFFAOYSA-N"
Num Peaks: 7
 311 0.200200; 
 431 0.300300; 
 593 0.100100; 
 593 100.000000; 
 594 23.023023; 
 595 3.603604; 
 596 0.400400; 


Name: Saponarin
SYNON: $:00in-source
DB#: MetaboBASE0667
InChIKey: HGUVPEBGCAVWID-KETMJRJWSA-N
Precursor_type: [M-H]-
Spectrum_type: MS2
PrecursorMZ: 593.1486
Instrument_type: LC-ESI-TOF
Instrument: impact HD
Ion_mode: N
Collision_energy: 10
InChIKey: HGUVPEBGCAVWID-KETMJRJWSA-N
Formula: C27H30O15
MW: 594
ExactMass: 594.15847026
Comments: "license=License CC-BY-NC-SA 4.0 International" "author=Plant Biology, The Noble Foundation, Ardmore, OK, US/Dennis Fine, Daniel Wherritt, and Lloyd Sumner" "instrument type=LC-ESI-TOF" "instrument=impact HD" "ionization=ESI" "ionization mode=negative" "ms level=MS2" "precursor m/z=593.1486" "isolation width=5" "collision gas=Nitrogen" "collision energy=10" "peak width=0.0093" "date=2014-01-04 06:37:01+01:00" "column=Waters Acquity BEH C18 1.7um x 2.1 x 150 mm" "retention time=240.6" "raw data file=C:\Data\Confirmed Standards\Confirmed stds MSMS 2Jan14\Saponarin (v 306)_MSMS_2405.d" "precursor type=[M-H]-" "mass accuracy=4.3737100617110265" "mass error=-0.0025942599999098093" "cas number=20310-89-8" "SMILES=c1cc(ccc1c2cc(=O)c3c(o2)cc(c(c3O)[C@H]4[C@@H]([C@H]([C@@H]([C@H](O4)CO)O)O)O)O[C@H]5[C@@H]([C@H]([C@@H]([C@H](O5)CO)O)O)O)O" "InChI=InChI=1S/C27H30O15/c28-7-15-19(32)22(35)24(37)26(40-15)18-14(41-27-25(38)23(36)20(33)16(8-29)42-27)6-13-17(21(18)34)11(31)5-12(39-13)9-1-3-10(30)4-2-9/h1-6,15-16,19-20,22-30,32-38H,7-8H2/t15-,16-,19-,20-,22+,23+,24-,25-,26+,27-/m1/s1" "InChIKey=HGUVPEBGCAVWID-KETMJRJWSA-N" "molecular formula=C27H30O15" "total exact mass=594.15847026" "SMILES=C1=CC(=CC=C1C2=CC(=O)C3=C(C(=C(C=C3O2)OC4C(C(C(C(O4)CO)O)O)O)C5C(C(C(C(O5)CO)O)O)O)O)O" "InChI=InChI=1S/C27H30O15/c28-7-15-19(32)22(35)24(37)26(40-15)18-14(41-27-25(38)23(36)20(33)16(8-29)42-27)6-13-17(21(18)34)11(31)5-12(39-13)9-1-3-10(30)4-2-9/h1-6,15-16,19-20,22-30,32-38H,7-8H2" "InChIKey=HGUVPEBGCAVWID-UHFFFAOYSA-N"
Num Peaks: 6
 592 0.100100; 
 593 0.200200; 
 593 100.000000; 
 594 22.822823; 
 595 3.903904; 
 596 0.400400; 


Name: Saponarin
SYNON: $:00in-source
DB#: MetaboBASE0668
InChIKey: HGUVPEBGCAVWID-KETMJRJWSA-N
Precursor_type: [M-H]-
Spectrum_type: MS2
PrecursorMZ: 593.1488
Instrument_type: LC-ESI-TOF
Instrument: impact HD
Ion_mode: N
Collision_energy: 30
InChIKey: HGUVPEBGCAVWID-KETMJRJWSA-N
Formula: C27H30O15
MW: 594
ExactMass: 594.1584702600001
Comments: "license=License CC-BY-NC-SA 4.0 International" "author=Plant Biology, The Noble Foundation, Ardmore, OK, US/Dennis Fine, Daniel Wherritt, and Lloyd Sumner" "instrument type=LC-ESI-TOF" "instrument=impact HD" "ionization=ESI" "ionization mode=negative" "ms level=MS2" "precursor m/z=593.1488" "isolation width=5" "collision gas=Nitrogen" "collision energy=30" "peak width=0.011" "date=2014-01-04 06:37:01+01:00" "column=Waters Acquity BEH C18 1.7um x 2.1 x 150 mm" "retention time=240.6" "raw data file=C:\Data\Confirmed Standards\Confirmed stds MSMS 2Jan14\Saponarin (v 306)_MSMS_2405.d" "precursor type=[M-H]-" "mass accuracy=4.036525067504163" "mass error=-0.0023942599999600134" "cas number=20310-89-8" "SMILES=c1cc(ccc1c2cc(=O)c3c(o2)cc(c(c3O)[C@H]4[C@@H]([C@H]([C@@H]([C@H](O4)CO)O)O)O)O[C@H]5[C@@H]([C@H]([C@@H]([C@H](O5)CO)O)O)O)O" "InChI=InChI=1S/C27H30O15/c28-7-15-19(32)22(35)24(37)26(40-15)18-14(41-27-25(38)23(36)20(33)16(8-29)42-27)6-13-17(21(18)34)11(31)5-12(39-13)9-1-3-10(30)4-2-9/h1-6,15-16,19-20,22-30,32-38H,7-8H2/t15-,16-,19-,20-,22+,23+,24-,25-,26+,27-/m1/s1" "InChIKey=HGUVPEBGCAVWID-KETMJRJWSA-N" "molecular formula=C27H30O15" "total exact mass=594.1584702600001" "SMILES=C1=CC(=CC=C1C2=CC(=O)C3=C(C(=C(C=C3O2)OC4C(C(C(C(O4)CO)O)O)O)C5C(C(C(C(O5)CO)O)O)O)O)O" "InChI=InChI=1S/C27H30O15/c28-7-15-19(32)22(35)24(37)26(40-15)18-14(41-27-25(38)23(36)20(33)16(8-29)42-27)6-13-17(21(18)34)11(31)5-12(39-13)9-1-3-10(30)4-2-9/h1-6,15-16,19-20,22-30,32-38H,7-8H2" "InChIKey=HGUVPEBGCAVWID-UHFFFAOYSA-N"
Num Peaks: 20
 282 0.300300; 
 283 0.200200; 
 297 1.401401; 
 298 0.300300; 
 311 5.105105; 
 312 0.500501; 
 314 0.200200; 
 341 0.600601; 
 342 0.200200; 
 413 0.300300; 
 430 0.800801; 
 431 6.206206; 
 432 0.800801; 
 433 0.200200; 
 473 1.501502; 
 474 0.400400; 
 593 100.000000; 
 594 25.025025; 
 595 4.304304; 
 596 0.700701; 


Name: Saponarin
SYNON: $:00in-source
DB#: MetaboBASE0669
InChIKey: HGUVPEBGCAVWID-KETMJRJWSA-N
Precursor_type: [M-H]-
Spectrum_type: MS2
PrecursorMZ: 593.1492
Instrument_type: LC-ESI-TOF
Instrument: impact HD
Ion_mode: N
Collision_energy: 40
InChIKey: HGUVPEBGCAVWID-KETMJRJWSA-N
Formula: C27H30O15
MW: 594
ExactMass: 594.1584702600001
Comments: "license=License CC-BY-NC-SA 4.0 International" "author=Plant Biology, The Noble Foundation, Ardmore, OK, US/Dennis Fine, Daniel Wherritt, and Lloyd Sumner" "instrument type=LC-ESI-TOF" "instrument=impact HD" "ionization=ESI" "ionization mode=negative" "ms level=MS2" "precursor m/z=593.1492" "isolation width=5" "collision gas=Nitrogen" "collision energy=40" "peak width=0.013" "date=2014-01-04 06:37:01+01:00" "column=Waters Acquity BEH C18 1.7um x 2.1 x 150 mm" "retention time=240.6" "raw data file=C:\Data\Confirmed Standards\Confirmed stds MSMS 2Jan14\Saponarin (v 306)_MSMS_2405.d" "precursor type=[M-H]-" "mass accuracy=3.3621557612493143" "mass error=-0.0019942600000604216" "cas number=20310-89-8" "SMILES=c1cc(ccc1c2cc(=O)c3c(o2)cc(c(c3O)[C@H]4[C@@H]([C@H]([C@@H]([C@H](O4)CO)O)O)O)O[C@H]5[C@@H]([C@H]([C@@H]([C@H](O5)CO)O)O)O)O" "InChI=InChI=1S/C27H30O15/c28-7-15-19(32)22(35)24(37)26(40-15)18-14(41-27-25(38)23(36)20(33)16(8-29)42-27)6-13-17(21(18)34)11(31)5-12(39-13)9-1-3-10(30)4-2-9/h1-6,15-16,19-20,22-30,32-38H,7-8H2/t15-,16-,19-,20-,22+,23+,24-,25-,26+,27-/m1/s1" "InChIKey=HGUVPEBGCAVWID-KETMJRJWSA-N" "molecular formula=C27H30O15" "total exact mass=594.1584702600001" "SMILES=C1=CC(=CC=C1C2=CC(=O)C3=C(C(=C(C=C3O2)OC4C(C(C(C(O4)CO)O)O)O)C5C(C(C(C(O5)CO)O)O)O)O)O" "InChI=InChI=1S/C27H30O15/c28-7-15-19(32)22(35)24(37)26(40-15)18-14(41-27-25(38)23(36)20(33)16(8-29)42-27)6-13-17(21(18)34)11(31)5-12(39-13)9-1-3-10(30)4-2-9/h1-6,15-16,19-20,22-30,32-38H,7-8H2" "InChIKey=HGUVPEBGCAVWID-UHFFFAOYSA-N"
Num Peaks: 39
 268 0.700701; 
 269 3.203203; 
 281 1.501502; 
 282 9.409409; 
 283 4.804805; 
 284 0.900901; 
 295 0.500501; 
 297 41.141141; 
 298 4.904905; 
 299 1.201201; 
 309 0.700701; 
 310 1.801802; 
 311 96.996997; 
 312 13.013013; 
 313 0.800801; 
 314 2.302302; 
 315 0.400400; 
 323 1.601602; 
 339 0.600601; 
 341 10.310310; 
 342 1.501502; 
 343 0.500501; 
 353 1.601602; 
 354 0.600601; 
 355 0.500501; 
 383 0.900901; 
 395 0.500501; 
 413 1.701702; 
 430 3.903904; 
 431 33.633634; 
 432 5.905906; 
 433 1.001001; 
 473 10.210210; 
 474 2.302302; 
 503 1.001001; 
 593 100.000000; 
 594 23.123123; 
 595 4.004004; 
 596 0.600601; 


Name: Saponarin
SYNON: $:00in-source
DB#: MetaboBASE0670
InChIKey: HGUVPEBGCAVWID-KETMJRJWSA-N
Precursor_type: [M-H]-
Spectrum_type: MS2
PrecursorMZ: 593.1495
Instrument_type: LC-ESI-TOF
Instrument: impact HD
Ion_mode: N
Collision_energy: 50
InChIKey: HGUVPEBGCAVWID-KETMJRJWSA-N
Formula: C27H30O15
MW: 594
ExactMass: 594.15847026
Comments: "license=License CC-BY-NC-SA 4.0 International" "author=Plant Biology, The Noble Foundation, Ardmore, OK, US/Dennis Fine, Daniel Wherritt, and Lloyd Sumner" "instrument type=LC-ESI-TOF" "instrument=impact HD" "ionization=ESI" "ionization mode=negative" "ms level=MS2" "precursor m/z=593.1495" "isolation width=5" "collision gas=Nitrogen" "collision energy=50" "peak width=0.015" "date=2014-01-04 06:37:01+01:00" "column=Waters Acquity BEH C18 1.7um x 2.1 x 150 mm" "retention time=240.6" "raw data file=C:\Data\Confirmed Standards\Confirmed stds MSMS 2Jan14\Saponarin (v 306)_MSMS_2405.d" "precursor type=[M-H]-" "mass accuracy=2.8563793780629574" "mass error=-0.001694259999908354" "cas number=20310-89-8" "SMILES=c1cc(ccc1c2cc(=O)c3c(o2)cc(c(c3O)[C@H]4[C@@H]([C@H]([C@@H]([C@H](O4)CO)O)O)O)O[C@H]5[C@@H]([C@H]([C@@H]([C@H](O5)CO)O)O)O)O" "InChI=InChI=1S/C27H30O15/c28-7-15-19(32)22(35)24(37)26(40-15)18-14(41-27-25(38)23(36)20(33)16(8-29)42-27)6-13-17(21(18)34)11(31)5-12(39-13)9-1-3-10(30)4-2-9/h1-6,15-16,19-20,22-30,32-38H,7-8H2/t15-,16-,19-,20-,22+,23+,24-,25-,26+,27-/m1/s1" "InChIKey=HGUVPEBGCAVWID-KETMJRJWSA-N" "molecular formula=C27H30O15" "total exact mass=594.15847026" "SMILES=C1=CC(=CC=C1C2=CC(=O)C3=C(C(=C(C=C3O2)OC4C(C(C(C(O4)CO)O)O)O)C5C(C(C(C(O5)CO)O)O)O)O)O" "InChI=InChI=1S/C27H30O15/c28-7-15-19(32)22(35)24(37)26(40-15)18-14(41-27-25(38)23(36)20(33)16(8-29)42-27)6-13-17(21(18)34)11(31)5-12(39-13)9-1-3-10(30)4-2-9/h1-6,15-16,19-20,22-30,32-38H,7-8H2" "InChIKey=HGUVPEBGCAVWID-UHFFFAOYSA-N"
Num Peaks: 50
 149 0.500501; 
 268 1.601602; 
 269 5.105105; 
 270 0.600601; 
 281 4.204204; 
 282 20.820821; 
 283 15.015015; 
 284 2.502503; 
 285 0.400400; 
 293 1.301301; 
 295 0.700701; 
 295 0.800801; 
 296 0.600601; 
 297 65.365365; 
 298 8.308308; 
 299 1.301301; 
 307 0.400400; 
 309 1.101101; 
 310 2.802803; 
 311 100.000000; 
 312 13.713714; 
 313 1.801802; 
 314 1.601602; 
 315 0.500501; 
 323 3.003003; 
 324 0.900901; 
 325 0.400400; 
 325 0.400400; 
 327 0.500501; 
 335 0.500501; 
 339 1.101101; 
 341 10.210210; 
 342 2.102102; 
 353 2.002002; 
 354 0.800801; 
 355 0.500501; 
 365 0.400400; 
 369 0.700701; 
 383 0.700701; 
 413 1.101101; 
 430 1.401401; 
 431 8.208208; 
 432 1.501502; 
 433 0.700701; 
 473 4.304304; 
 474 0.700701; 
 503 0.500501; 
 593 6.906907; 
 594 1.801802; 
 595 0.600601; 


Name: Scaposin
SYNON: $:00in-source
DB#: MetaboBASE0671
InChIKey: NYKXAPFHNLNAIJ-UHFFFAOYSA-N
Precursor_type: [M-H]-
Spectrum_type: MS2
PrecursorMZ: 389.0875
Instrument_type: LC-ESI-TOF
Instrument: impact HD
Ion_mode: N
Collision_energy: 10
InChIKey: NYKXAPFHNLNAIJ-UHFFFAOYSA-N
Formula: C19H18O9
MW: 390
ExactMass: 390.095082156
Comments: "license=License CC-BY-NC-SA 4.0 International" "author=Plant Biology, The Noble Foundation, Ardmore, OK, US/Dennis Fine, Daniel Wherritt, and Lloyd Sumner" "instrument type=LC-ESI-TOF" "instrument=impact HD" "ionization=ESI" "ionization mode=negative" "ms level=MS2" "precursor m/z=389.0875" "isolation width=5" "collision gas=Nitrogen" "collision energy=10" "peak width=0.01" "date=2014-01-04 04:34:50+01:00" "column=Waters Acquity BEH C18 1.7um x 2.1 x 150 mm" "retention time=722.4" "raw data file=C:\Data\Confirmed Standards\Confirmed stds MSMS 2Jan14\Scaposin (v298)_MSMS_2402.d" "precursor type=[M-H]-" "mass accuracy=0.7868564269526233" "mass error=-3.061560000219288E-4" "cas number=18398-74-8" "SMILES=COc1cc(cc(c1OC)O)c2cc(=O)c3c(c(c(c(c3o2)OC)O)OC)O" "InChI=InChI=1S/C19H18O9/c1-24-12-6-8(5-10(21)16(12)25-2)11-7-9(20)13-14(22)18(26-3)15(23)19(27-4)17(13)28-11/h5-7,21-23H,1-4H3" "InChIKey=NYKXAPFHNLNAIJ-UHFFFAOYSA-N" "molecular formula=C19H18O9" "total exact mass=390.095082156" "SMILES=O=C1C=2C(OC(=C1)C=3C=C(O)C(OC)=C(OC)C3)=C(OC)C(O)=C(OC)C2O"
Num Peaks: 8
 359 0.300300; 
 360 0.100100; 
 374 3.003003; 
 375 0.500501; 
 376 0.100100; 
 389 100.000000; 
 390 11.711712; 
 391 1.801802; 


Name: Scaposin
SYNON: $:00in-source
DB#: MetaboBASE0672
InChIKey: NYKXAPFHNLNAIJ-UHFFFAOYSA-N
Precursor_type: [M-H]-
Spectrum_type: MS2
PrecursorMZ: 389.1
Instrument_type: LC-ESI-TOF
Instrument: impact HD
Ion_mode: N
Collision_energy: 50
InChIKey: NYKXAPFHNLNAIJ-UHFFFAOYSA-N
Formula: C19H18O9
MW: 390
ExactMass: 390.095082156
Comments: "license=License CC-BY-NC-SA 4.0 International" "author=Plant Biology, The Noble Foundation, Ardmore, OK, US/Dennis Fine, Daniel Wherritt, and Lloyd Sumner" "instrument type=LC-ESI-TOF" "instrument=impact HD" "ionization=ESI" "ionization mode=negative" "ms level=MS2" "precursor m/z=389.1" "isolation width=5" "collision gas=Nitrogen" "collision energy=50" "peak width=0.017" "date=2014-01-04 04:34:50+01:00" "column=Waters Acquity BEH C18 1.7um x 2.1 x 150 mm" "retention time=722.4" "raw data file=C:\Data\Confirmed Standards\Confirmed stds MSMS 2Jan14\Scaposin (v298)_MSMS_2402.d" "precursor type=[M-H]-" "mass accuracy=31.338586481684775" "mass error=0.012193844000023546" "cas number=18398-74-8" "SMILES=COc1cc(cc(c1OC)O)c2cc(=O)c3c(c(c(c(c3o2)OC)O)OC)O" "InChI=InChI=1S/C19H18O9/c1-24-12-6-8(5-10(21)16(12)25-2)11-7-9(20)13-14(22)18(26-3)15(23)19(27-4)17(13)28-11/h5-7,21-23H,1-4H3" "InChIKey=NYKXAPFHNLNAIJ-UHFFFAOYSA-N" "molecular formula=C19H18O9" "total exact mass=390.095082156" "SMILES=O=C1C=2C(OC(=C1)C=3C=C(O)C(OC)=C(OC)C3)=C(OC)C(O)=C(OC)C2O"
Num Peaks: 12
 148 34.134134; 
 217 57.957958; 
 229 100.000000; 
 232 55.055055; 
 244 41.441441; 
 245 72.372372; 
 257 32.832833; 
 260 27.127127; 
 273 49.249249; 
 300 74.374374; 
 328 63.563564; 
 344 51.751752; 


Name: Scaposin
SYNON: $:00in-source
DB#: MetaboBASE0673
InChIKey: NYKXAPFHNLNAIJ-UHFFFAOYSA-N
Precursor_type: [M-H]-
Spectrum_type: MS2
PrecursorMZ: 389.1
Instrument_type: LC-ESI-TOF
Instrument: impact HD
Ion_mode: N
Collision_energy: 40
InChIKey: NYKXAPFHNLNAIJ-UHFFFAOYSA-N
Formula: C19H18O9
MW: 390
ExactMass: 390.095082156
Comments: "license=License CC-BY-NC-SA 4.0 International" "author=Plant Biology, The Noble Foundation, Ardmore, OK, US/Dennis Fine, Daniel Wherritt, and Lloyd Sumner" "instrument type=LC-ESI-TOF" "instrument=impact HD" "ionization=ESI" "ionization mode=negative" "ms level=MS2" "precursor m/z=389.1" "isolation width=5" "collision gas=Nitrogen" "collision energy=40" "peak width=0.016" "date=2014-01-04 04:34:50+01:00" "column=Waters Acquity BEH C18 1.7um x 2.1 x 150 mm" "retention time=722.4" "raw data file=C:\Data\Confirmed Standards\Confirmed stds MSMS 2Jan14\Scaposin (v298)_MSMS_2402.d" "precursor type=[M-H]-" "mass accuracy=31.338586481684775" "mass error=0.012193844000023546" "cas number=18398-74-8" "SMILES=COc1cc(cc(c1OC)O)c2cc(=O)c3c(c(c(c(c3o2)OC)O)OC)O" "InChI=InChI=1S/C19H18O9/c1-24-12-6-8(5-10(21)16(12)25-2)11-7-9(20)13-14(22)18(26-3)15(23)19(27-4)17(13)28-11/h5-7,21-23H,1-4H3" "InChIKey=NYKXAPFHNLNAIJ-UHFFFAOYSA-N" "molecular formula=C19H18O9" "total exact mass=390.095082156" "SMILES=O=C1C=2C(OC(=C1)C=3C=C(O)C(OC)=C(OC)C3)=C(OC)C(O)=C(OC)C2O"
Num Peaks: 15
 229 13.513514; 
 232 9.009009; 
 244 26.526527; 
 245 6.406406; 
 257 7.607608; 
 260 12.512513; 
 272 23.623624; 
 273 5.305305; 
 300 14.314314; 
 316 11.411411; 
 328 22.422422; 
 344 100.000000; 
 345 9.809810; 
 359 39.639640; 
 360 5.305305; 


Name: Scaposin
SYNON: $:00in-source
DB#: MetaboBASE0674
InChIKey: NYKXAPFHNLNAIJ-UHFFFAOYSA-N
Precursor_type: [M-H]-
Spectrum_type: MS2
PrecursorMZ: 389.0905
Instrument_type: LC-ESI-TOF
Instrument: impact HD
Ion_mode: N
Collision_energy: 30
InChIKey: NYKXAPFHNLNAIJ-UHFFFAOYSA-N
Formula: C19H18O9
MW: 390
ExactMass: 390.095082156
Comments: "license=License CC-BY-NC-SA 4.0 International" "author=Plant Biology, The Noble Foundation, Ardmore, OK, US/Dennis Fine, Daniel Wherritt, and Lloyd Sumner" "instrument type=LC-ESI-TOF" "instrument=impact HD" "ionization=ESI" "ionization mode=negative" "ms level=MS2" "precursor m/z=389.0905" "isolation width=5" "collision gas=Nitrogen" "collision energy=30" "peak width=0.015" "date=2014-01-04 04:34:50+01:00" "column=Waters Acquity BEH C18 1.7um x 2.1 x 150 mm" "retention time=722.4" "raw data file=C:\Data\Confirmed Standards\Confirmed stds MSMS 2Jan14\Scaposin (v298)_MSMS_2402.d" "precursor type=[M-H]-" "mass accuracy=6.923438120490778" "mass error=0.0026938440000208175" "cas number=18398-74-8" "SMILES=COc1cc(cc(c1OC)O)c2cc(=O)c3c(c(c(c(c3o2)OC)O)OC)O" "InChI=InChI=1S/C19H18O9/c1-24-12-6-8(5-10(21)16(12)25-2)11-7-9(20)13-14(22)18(26-3)15(23)19(27-4)17(13)28-11/h5-7,21-23H,1-4H3" "InChIKey=NYKXAPFHNLNAIJ-UHFFFAOYSA-N" "molecular formula=C19H18O9" "total exact mass=390.095082156" "SMILES=O=C1C=2C(OC(=C1)C=3C=C(O)C(OC)=C(OC)C3)=C(OC)C(O)=C(OC)C2O"
Num Peaks: 36
 229 0.600601; 
 232 0.300300; 
 244 1.901902; 
 245 0.300300; 
 245 0.300300; 
 257 0.500501; 
 260 0.700701; 
 272 6.506507; 
 273 0.700701; 
 275 0.400400; 
 287 2.102102; 
 288 0.300300; 
 288 0.300300; 
 300 0.600601; 
 300 0.400400; 
 312 0.200200; 
 313 0.700701; 
 315 0.300300; 
 316 1.301301; 
 328 0.400400; 
 328 1.001001; 
 329 0.300300; 
 331 1.001001; 
 341 0.900901; 
 342 0.200200; 
 344 20.220220; 
 345 2.502503; 
 346 0.400400; 
 359 100.000000; 
 360 10.510511; 
 361 1.501502; 
 373 0.500501; 
 374 14.814815; 
 375 1.701702; 
 376 0.200200; 
 389 0.400400; 


Name: Scaposin
SYNON: $:00in-source
DB#: MetaboBASE0675
InChIKey: NYKXAPFHNLNAIJ-UHFFFAOYSA-N
Instrument_type: LC-ESI-TOF
Instrument: impact HD
Ion_mode: N
InChIKey: NYKXAPFHNLNAIJ-UHFFFAOYSA-N
Formula: C19H18O9
MW: 390
ExactMass: 390.095082156
Comments: "license=License CC-BY-NC-SA 4.0 International" "author=Plant Biology, The Noble Foundation, Ardmore, OK, US/Dennis Fine, Daniel Wherritt, and Lloyd Sumner" "instrument type=LC-ESI-TOF" "instrument=impact HD" "ionization=ESI" "ionization mode=negative" "collision gas=Nitrogen" "peak width=0.011" "date=2014-01-04 04:34:50+01:00" "column=Waters Acquity BEH C18 1.7um x 2.1 x 150 mm" "retention time=722.4" "raw data file=C:\Data\Confirmed Standards\Confirmed stds MSMS 2Jan14\Scaposin (v298)_MSMS_2402.d" "cas number=18398-74-8" "SMILES=COc1cc(cc(c1OC)O)c2cc(=O)c3c(c(c(c(c3o2)OC)O)OC)O" "InChI=InChI=1S/C19H18O9/c1-24-12-6-8(5-10(21)16(12)25-2)11-7-9(20)13-14(22)18(26-3)15(23)19(27-4)17(13)28-11/h5-7,21-23H,1-4H3" "InChIKey=NYKXAPFHNLNAIJ-UHFFFAOYSA-N" "molecular formula=C19H18O9" "total exact mass=390.095082156" "SMILES=O=C1C=2C(OC(=C1)C=3C=C(O)C(OC)=C(OC)C3)=C(OC)C(O)=C(OC)C2O"
Num Peaks: 20
 359 18.518519; 
 360 2.602603; 
 361 0.400400; 
 373 0.300300; 
 389 100.000000; 
 390 17.317317; 
 391 2.202202; 
 392 0.200200; 
 425 0.200200; 
 666 0.300300; 
 719 2.202202; 
 720 0.700701; 
 741 0.400400; 
 779 11.311311; 
 780 3.703704; 
 781 0.900901; 
 801 0.500501; 
 802 0.200200; 
 1191 0.300300; 
 1192 0.200200; 


Name: Scaposin
SYNON: $:00in-source
DB#: MetaboBASE0676
InChIKey: NYKXAPFHNLNAIJ-UHFFFAOYSA-N
Precursor_type: [M-H]-
Spectrum_type: MS2
PrecursorMZ: 389.0873
Instrument_type: LC-ESI-TOF
Instrument: impact HD
Ion_mode: N
Collision_energy: 20
InChIKey: NYKXAPFHNLNAIJ-UHFFFAOYSA-N
Formula: C19H18O9
MW: 390
ExactMass: 390.095082156
Comments: "license=License CC-BY-NC-SA 4.0 International" "author=Plant Biology, The Noble Foundation, Ardmore, OK, US/Dennis Fine, Daniel Wherritt, and Lloyd Sumner" "instrument type=LC-ESI-TOF" "instrument=impact HD" "ionization=ESI" "ionization mode=negative" "ms level=MS2" "precursor m/z=389.0873" "isolation width=5" "collision gas=Nitrogen" "collision energy=20" "peak width=0.013" "date=2014-01-04 04:34:50+01:00" "column=Waters Acquity BEH C18 1.7um x 2.1 x 150 mm" "retention time=722.4" "raw data file=C:\Data\Confirmed Standards\Confirmed stds MSMS 2Jan14\Scaposin (v298)_MSMS_2402.d" "precursor type=[M-H]-" "mass accuracy=1.3008802908029242" "mass error=-5.061559999717247E-4" "cas number=18398-74-8" "SMILES=COc1cc(cc(c1OC)O)c2cc(=O)c3c(c(c(c(c3o2)OC)O)OC)O" "InChI=InChI=1S/C19H18O9/c1-24-12-6-8(5-10(21)16(12)25-2)11-7-9(20)13-14(22)18(26-3)15(23)19(27-4)17(13)28-11/h5-7,21-23H,1-4H3" "InChIKey=NYKXAPFHNLNAIJ-UHFFFAOYSA-N" "molecular formula=C19H18O9" "total exact mass=390.095082156" "SMILES=O=C1C=2C(OC(=C1)C=3C=C(O)C(OC)=C(OC)C3)=C(OC)C(O)=C(OC)C2O"
Num Peaks: 13
 272 0.500501; 
 344 0.900901; 
 345 0.300300; 
 359 34.134134; 
 360 4.204204; 
 361 1.001001; 
 373 0.600601; 
 374 100.000000; 
 375 11.811812; 
 376 1.501502; 
 389 39.939940; 
 390 4.704705; 
 391 0.900901; 


Name: Sorbifolin
SYNON: $:00in-source
DB#: MetaboBASE0677
InChIKey: UWARRXZVZDFPQU-UHFFFAOYSA-N
Precursor_type: [M-H]-
Spectrum_type: MS2
PrecursorMZ: 299.0597
Instrument_type: LC-ESI-TOF
Instrument: impact HD
Ion_mode: N
Collision_energy: 10
InChIKey: UWARRXZVZDFPQU-UHFFFAOYSA-N
Formula: C16H12O6
MW: 300
ExactMass: 300.06338810399996
Comments: "license=License CC-BY-NC-SA 4.0 International" "author=Plant Biology, The Noble Foundation, Ardmore, OK, US/Dennis Fine, Daniel Wherritt, and Lloyd Sumner" "instrument type=LC-ESI-TOF" "instrument=impact HD" "ionization=ESI" "ionization mode=negative" "ms level=MS2" "precursor m/z=299.0597" "isolation width=5" "collision gas=Nitrogen" "collision energy=10" "peak width=0.011" "date=2014-01-04 05:15:34+01:00" "column=Waters Acquity BEH C18 1.7um x 2.1 x 150 mm" "retention time=538.8" "raw data file=C:\Data\Confirmed Standards\Confirmed stds MSMS 2Jan14\Sorbifolin (v 299)_MSMS_2403.d" "precursor type=[M-H]-" "mass accuracy=11.997256735213519" "mass error=0.0035878960000559346" "cas number=23130-22-5" "SMILES=COc1cc2c(c(=O)cc(o2)c3ccc(cc3)O)c(c1O)O" "InChI=InChI=1S/C16H12O6/c1-21-13-7-12-14(16(20)15(13)19)10(18)6-11(22-12)8-2-4-9(17)5-3-8/h2-7,17,19-20H,1H3" "InChIKey=UWARRXZVZDFPQU-UHFFFAOYSA-N" "molecular formula=C16H12O6" "total exact mass=300.06338810399996" "SMILES=COC1=C(C(=C2C(=C1)OC(=CC2=O)C3=CC=C(C=C3)O)O)O"
Num Peaks: 8
 284 2.302302; 
 285 0.600601; 
 286 0.100100; 
 297 2.502503; 
 298 0.500501; 
 299 100.000000; 
 300 11.711712; 
 301 1.401401; 


Name: Sorbifolin
SYNON: $:00in-source
DB#: MetaboBASE0678
InChIKey: UWARRXZVZDFPQU-UHFFFAOYSA-N
Precursor_type: [M-H]-
Spectrum_type: MS2
PrecursorMZ: 299.0601
Instrument_type: LC-ESI-TOF
Instrument: impact HD
Ion_mode: N
Collision_energy: 30
InChIKey: UWARRXZVZDFPQU-UHFFFAOYSA-N
Formula: C16H12O6
MW: 300
ExactMass: 300.06338810399996
Comments: "license=License CC-BY-NC-SA 4.0 International" "author=Plant Biology, The Noble Foundation, Ardmore, OK, US/Dennis Fine, Daniel Wherritt, and Lloyd Sumner" "instrument type=LC-ESI-TOF" "instrument=impact HD" "ionization=ESI" "ionization mode=negative" "ms level=MS2" "precursor m/z=299.0601" "isolation width=5" "collision gas=Nitrogen" "collision energy=30" "peak width=0.014" "date=2014-01-04 05:15:34+01:00" "column=Waters Acquity BEH C18 1.7um x 2.1 x 150 mm" "retention time=538.8" "raw data file=C:\Data\Confirmed Standards\Confirmed stds MSMS 2Jan14\Sorbifolin (v 299)_MSMS_2403.d" "precursor type=[M-H]-" "mass accuracy=13.334764483835757" "mass error=0.00398789600001237" "cas number=23130-22-5" "SMILES=COc1cc2c(c(=O)cc(o2)c3ccc(cc3)O)c(c1O)O" "InChI=InChI=1S/C16H12O6/c1-21-13-7-12-14(16(20)15(13)19)10(18)6-11(22-12)8-2-4-9(17)5-3-8/h2-7,17,19-20H,1H3" "InChIKey=UWARRXZVZDFPQU-UHFFFAOYSA-N" "molecular formula=C16H12O6" "total exact mass=300.06338810399996" "SMILES=COC1=C(C(=C2C(=C1)OC(=CC2=O)C3=CC=C(C=C3)O)O)O"
Num Peaks: 9
 117 3.003003; 
 136 8.308308; 
 227 5.405405; 
 228 3.703704; 
 256 3.103103; 
 283 4.504505; 
 284 100.000000; 
 285 12.112112; 
 299 2.402402; 


Name: Sorbifolin
SYNON: $:00in-source
DB#: MetaboBASE0679
InChIKey: UWARRXZVZDFPQU-UHFFFAOYSA-N
Instrument_type: LC-ESI-TOF
Instrument: impact HD
Ion_mode: N
InChIKey: UWARRXZVZDFPQU-UHFFFAOYSA-N
Formula: C16H12O6
MW: 300
ExactMass: 300.06338810399996
Comments: "license=License CC-BY-NC-SA 4.0 International" "author=Plant Biology, The Noble Foundation, Ardmore, OK, US/Dennis Fine, Daniel Wherritt, and Lloyd Sumner" "instrument type=LC-ESI-TOF" "instrument=impact HD" "ionization=ESI" "ionization mode=negative" "collision gas=Nitrogen" "peak width=0.015" "date=2014-01-04 05:15:34+01:00" "column=Waters Acquity BEH C18 1.7um x 2.1 x 150 mm" "retention time=538.8" "raw data file=C:\Data\Confirmed Standards\Confirmed stds MSMS 2Jan14\Sorbifolin (v 299)_MSMS_2403.d" "cas number=23130-22-5" "SMILES=COc1cc2c(c(=O)cc(o2)c3ccc(cc3)O)c(c1O)O" "InChI=InChI=1S/C16H12O6/c1-21-13-7-12-14(16(20)15(13)19)10(18)6-11(22-12)8-2-4-9(17)5-3-8/h2-7,17,19-20H,1H3" "InChIKey=UWARRXZVZDFPQU-UHFFFAOYSA-N" "molecular formula=C16H12O6" "total exact mass=300.06338810399996" "SMILES=COC1=C(C(=C2C(=C1)OC(=CC2=O)C3=CC=C(C=C3)O)O)O"
Num Peaks: 19
 283 0.600601; 
 284 0.500501; 
 297 4.404404; 
 298 0.600601; 
 299 100.000000; 
 300 12.812813; 
 301 1.401401; 
 315 5.505506; 
 316 0.800801; 
 595 0.500501; 
 597 3.303303; 
 598 1.001001; 
 599 5.505506; 
 600 1.501502; 
 613 0.600601; 
 615 2.502503; 
 616 0.700701; 
 631 0.900901; 
 666 0.700701; 


Name: Sorbifolin
SYNON: $:00in-source
DB#: MetaboBASE0680
InChIKey: UWARRXZVZDFPQU-UHFFFAOYSA-N
Precursor_type: [M-H]-
Spectrum_type: MS2
PrecursorMZ: 299.0594
Instrument_type: LC-ESI-TOF
Instrument: impact HD
Ion_mode: N
Collision_energy: 20
InChIKey: UWARRXZVZDFPQU-UHFFFAOYSA-N
Formula: C16H12O6
MW: 300
ExactMass: 300.06338810399996
Comments: "license=License CC-BY-NC-SA 4.0 International" "author=Plant Biology, The Noble Foundation, Ardmore, OK, US/Dennis Fine, Daniel Wherritt, and Lloyd Sumner" "instrument type=LC-ESI-TOF" "instrument=impact HD" "ionization=ESI" "ionization mode=negative" "ms level=MS2" "precursor m/z=299.0594" "isolation width=5" "collision gas=Nitrogen" "collision energy=20" "peak width=0.013" "date=2014-01-04 05:15:34+01:00" "column=Waters Acquity BEH C18 1.7um x 2.1 x 150 mm" "retention time=538.8" "raw data file=C:\Data\Confirmed Standards\Confirmed stds MSMS 2Jan14\Sorbifolin (v 299)_MSMS_2403.d" "precursor type=[M-H]-" "mass accuracy=10.994123575508926" "mass error=0.003287896000017554" "cas number=23130-22-5" "SMILES=COc1cc2c(c(=O)cc(o2)c3ccc(cc3)O)c(c1O)O" "InChI=InChI=1S/C16H12O6/c1-21-13-7-12-14(16(20)15(13)19)10(18)6-11(22-12)8-2-4-9(17)5-3-8/h2-7,17,19-20H,1H3" "InChIKey=UWARRXZVZDFPQU-UHFFFAOYSA-N" "molecular formula=C16H12O6" "total exact mass=300.06338810399996" "SMILES=COC1=C(C(=C2C(=C1)OC(=CC2=O)C3=CC=C(C=C3)O)O)O"
Num Peaks: 20
 117 0.600601; 
 177 0.500501; 
 226 0.500501; 
 227 0.600601; 
 228 0.400400; 
 240 0.300300; 
 254 0.700701; 
 255 0.300300; 
 256 0.400400; 
 269 0.200200; 
 282 0.300300; 
 283 0.900901; 
 284 100.000000; 
 285 10.110110; 
 286 1.401401; 
 287 0.200200; 
 297 0.600601; 
 299 68.468468; 
 300 7.107107; 
 301 0.900901; 


Name: Sorbifolin
SYNON: $:00in-source
DB#: MetaboBASE0681
InChIKey: UWARRXZVZDFPQU-UHFFFAOYSA-N
Precursor_type: [M-H]-
Spectrum_type: MS2
PrecursorMZ: 299.1
Instrument_type: LC-ESI-TOF
Instrument: impact HD
Ion_mode: N
Collision_energy: 50
InChIKey: UWARRXZVZDFPQU-UHFFFAOYSA-N
Formula: C16H12O6
MW: 300
ExactMass: 300.06338810399996
Comments: "license=License CC-BY-NC-SA 4.0 International" "author=Plant Biology, The Noble Foundation, Ardmore, OK, US/Dennis Fine, Daniel Wherritt, and Lloyd Sumner" "instrument type=LC-ESI-TOF" "instrument=impact HD" "ionization=ESI" "ionization mode=negative" "ms level=MS2" "precursor m/z=299.1" "isolation width=5" "collision gas=Nitrogen" "collision energy=50" "peak width=0.016" "date=2014-01-04 05:15:34+01:00" "column=Waters Acquity BEH C18 1.7um x 2.1 x 150 mm" "retention time=538.8" "raw data file=C:\Data\Confirmed Standards\Confirmed stds MSMS 2Jan14\Sorbifolin (v 299)_MSMS_2403.d" "precursor type=[M-H]-" "mass accuracy=146.7331862255364" "mass error=0.043887896000057935" "cas number=23130-22-5" "SMILES=COc1cc2c(c(=O)cc(o2)c3ccc(cc3)O)c(c1O)O" "InChI=InChI=1S/C16H12O6/c1-21-13-7-12-14(16(20)15(13)19)10(18)6-11(22-12)8-2-4-9(17)5-3-8/h2-7,17,19-20H,1H3" "InChIKey=UWARRXZVZDFPQU-UHFFFAOYSA-N" "molecular formula=C16H12O6" "total exact mass=300.06338810399996" "SMILES=COC1=C(C(=C2C(=C1)OC(=CC2=O)C3=CC=C(C=C3)O)O)O"
Num Peaks: 19
 108 12.012012; 
 110 11.111111; 
 116 12.312312; 
 117 100.000000; 
 118 9.609610; 
 119 11.411411; 
 130 8.408408; 
 135 7.507508; 
 136 36.136136; 
 139 14.014014; 
 155 7.407407; 
 158 12.912913; 
 164 7.607608; 
 183 20.520521; 
 185 9.509510; 
 199 8.808809; 
 227 20.620621; 
 255 8.508509; 
 283 10.710711; 


Name: Sorbifolin
SYNON: $:00in-source
DB#: MetaboBASE0682
InChIKey: UWARRXZVZDFPQU-UHFFFAOYSA-N
Precursor_type: [M-H]-
Spectrum_type: MS2
PrecursorMZ: 299.1
Instrument_type: LC-ESI-TOF
Instrument: impact HD
Ion_mode: N
Collision_energy: 40
InChIKey: UWARRXZVZDFPQU-UHFFFAOYSA-N
Formula: C16H12O6
MW: 300
ExactMass: 300.06338810399996
Comments: "license=License CC-BY-NC-SA 4.0 International" "author=Plant Biology, The Noble Foundation, Ardmore, OK, US/Dennis Fine, Daniel Wherritt, and Lloyd Sumner" "instrument type=LC-ESI-TOF" "instrument=impact HD" "ionization=ESI" "ionization mode=negative" "ms level=MS2" "precursor m/z=299.1" "isolation width=5" "collision gas=Nitrogen" "collision energy=40" "peak width=0.017" "date=2014-01-04 05:15:34+01:00" "column=Waters Acquity BEH C18 1.7um x 2.1 x 150 mm" "retention time=538.8" "raw data file=C:\Data\Confirmed Standards\Confirmed stds MSMS 2Jan14\Sorbifolin (v 299)_MSMS_2403.d" "precursor type=[M-H]-" "mass accuracy=146.7331862255364" "mass error=0.043887896000057935" "cas number=23130-22-5" "SMILES=COc1cc2c(c(=O)cc(o2)c3ccc(cc3)O)c(c1O)O" "InChI=InChI=1S/C16H12O6/c1-21-13-7-12-14(16(20)15(13)19)10(18)6-11(22-12)8-2-4-9(17)5-3-8/h2-7,17,19-20H,1H3" "InChIKey=UWARRXZVZDFPQU-UHFFFAOYSA-N" "molecular formula=C16H12O6" "total exact mass=300.06338810399996" "SMILES=COC1=C(C(=C2C(=C1)OC(=CC2=O)C3=CC=C(C=C3)O)O)O"
Num Peaks: 27
 110 5.905906; 
 116 6.606607; 
 117 74.974975; 
 119 6.506507; 
 134 8.208208; 
 136 6.606607; 
 136 100.000000; 
 137 9.909910; 
 139 8.408408; 
 143 5.805806; 
 156 6.406406; 
 164 14.314314; 
 165 8.508509; 
 183 9.009009; 
 184 11.311311; 
 185 8.208208; 
 186 14.614615; 
 200 11.711712; 
 211 13.713714; 
 212 14.314314; 
 227 42.742743; 
 228 17.917918; 
 255 15.315315; 
 256 8.508509; 
 283 27.127127; 
 284 56.556557; 
 285 5.305305; 


Name: Silychristin
SYNON: $:00in-source
DB#: MetaboBASE0683
InChIKey: BMLIIPOXVWESJG-LMBCONBSSA-N
Instrument_type: LC-ESI-TOF
Instrument: impact HD
Ion_mode: N
InChIKey: BMLIIPOXVWESJG-LMBCONBSSA-N
Formula: C25H22O10
MW: 482
ExactMass: 482.121296904
Comments: "license=License CC-BY-NC-SA 4.0 International" "author=Plant Biology, The Noble Foundation, Ardmore, OK, US/Dennis Fine, Daniel Wherritt, and Lloyd Sumner" "instrument type=LC-ESI-TOF" "instrument=impact HD" "ionization=ESI" "ionization mode=negative" "collision gas=Nitrogen" "peak width=0.011" "date=2014-01-04 15:26:30+01:00" "column=Waters Acquity BEH C18 1.7um x 2.1 x 150 mm" "retention time=447" "raw data file=C:\Data\Confirmed Standards\Confirmed stds MSMS 2Jan14\Silychristin (vial 334)_MSMS_2418.d" "cas number=33889-69-9" "SMILES=COc1cc(ccc1O)[C@H]2[C@@H](c3cc(cc(c3O2)O)[C@@H]4[C@H](C(=O)c5c(cc(cc5O4)O)O)O)CO" "InChI=InChI=1S/C25H22O10/c1-33-18-6-10(2-3-15(18)28)23-14(9-26)13-4-11(5-17(30)25(13)35-23)24-22(32)21(31)20-16(29)7-12(27)8-19(20)34-24/h2-8,14,22-24,26-30,32H,9H2,1H3/t14-,22+,23+,24-/m1/s1" "InChIKey=BMLIIPOXVWESJG-LMBCONBSSA-N" "molecular formula=C25H22O10" "total exact mass=482.121296904" "SMILES=COC1=C(C=CC(=C1)C2C(C3=C(O2)C(=CC(=C3)C4C(C(=O)C5=C(C=C(C=C5O4)O)O)O)O)CO)O"
Num Peaks: 11
 451 1.201201; 
 481 100.000000; 
 482 21.521522; 
 483 3.503504; 
 549 3.503504; 
 550 1.101101; 
 617 0.800801; 
 666 2.002002; 
 963 11.911912; 
 964 5.705706; 
 965 2.002002; 


Name: Silychristin
SYNON: $:00in-source
DB#: MetaboBASE0684
InChIKey: BMLIIPOXVWESJG-LMBCONBSSA-N
Precursor_type: [M-H]-
Spectrum_type: MS2
PrecursorMZ: 481.1183
Instrument_type: LC-ESI-TOF
Instrument: impact HD
Ion_mode: N
Collision_energy: 10
InChIKey: BMLIIPOXVWESJG-LMBCONBSSA-N
Formula: C25H22O10
MW: 482
ExactMass: 482.121296904
Comments: "license=License CC-BY-NC-SA 4.0 International" "author=Plant Biology, The Noble Foundation, Ardmore, OK, US/Dennis Fine, Daniel Wherritt, and Lloyd Sumner" "instrument type=LC-ESI-TOF" "instrument=impact HD" "ionization=ESI" "ionization mode=negative" "ms level=MS2" "precursor m/z=481.1183" "isolation width=5" "collision gas=Nitrogen" "collision energy=10" "peak width=0.015" "date=2014-01-04 15:26:30+01:00" "column=Waters Acquity BEH C18 1.7um x 2.1 x 150 mm" "retention time=447" "raw data file=C:\Data\Confirmed Standards\Confirmed stds MSMS 2Jan14\Silychristin (vial 334)_MSMS_2418.d" "precursor type=[M-H]-" "mass accuracy=8.894062021643977" "mass error=0.004279095999947913" "cas number=33889-69-9" "SMILES=COc1cc(ccc1O)[C@H]2[C@@H](c3cc(cc(c3O2)O)[C@@H]4[C@H](C(=O)c5c(cc(cc5O4)O)O)O)CO" "InChI=InChI=1S/C25H22O10/c1-33-18-6-10(2-3-15(18)28)23-14(9-26)13-4-11(5-17(30)25(13)35-23)24-22(32)21(31)20-16(29)7-12(27)8-19(20)34-24/h2-8,14,22-24,26-30,32H,9H2,1H3/t14-,22+,23+,24-/m1/s1" "InChIKey=BMLIIPOXVWESJG-LMBCONBSSA-N" "molecular formula=C25H22O10" "total exact mass=482.121296904" "SMILES=COC1=C(C=CC(=C1)C2C(C3=C(O2)C(=CC(=C3)C4C(C(=O)C5=C(C=C(C=C5O4)O)O)O)O)CO)O"
Num Peaks: 6
 355 3.003003; 
 451 18.518519; 
 452 3.403403; 
 481 100.000000; 
 482 23.323323; 
 483 4.404404; 


Name: Silychristin
SYNON: $:00in-source
DB#: MetaboBASE0685
InChIKey: BMLIIPOXVWESJG-LMBCONBSSA-N
Precursor_type: [M-H]-
Spectrum_type: MS2
PrecursorMZ: 481.1148
Instrument_type: LC-ESI-TOF
Instrument: impact HD
Ion_mode: N
Collision_energy: 20
InChIKey: BMLIIPOXVWESJG-LMBCONBSSA-N
Formula: C25H22O10
MW: 482
ExactMass: 482.12129690399996
Comments: "license=License CC-BY-NC-SA 4.0 International" "author=Plant Biology, The Noble Foundation, Ardmore, OK, US/Dennis Fine, Daniel Wherritt, and Lloyd Sumner" "instrument type=LC-ESI-TOF" "instrument=impact HD" "ionization=ESI" "ionization mode=negative" "ms level=MS2" "precursor m/z=481.1148" "isolation width=5" "collision gas=Nitrogen" "collision energy=20" "peak width=0.011" "date=2014-01-04 15:26:30+01:00" "column=Waters Acquity BEH C18 1.7um x 2.1 x 150 mm" "retention time=447" "raw data file=C:\Data\Confirmed Standards\Confirmed stds MSMS 2Jan14\Silychristin (vial 334)_MSMS_2418.d" "precursor type=[M-H]-" "mass accuracy=1.6193557130869323" "mass error=7.790960000306768E-4" "cas number=33889-69-9" "SMILES=COc1cc(ccc1O)[C@H]2[C@@H](c3cc(cc(c3O2)O)[C@@H]4[C@H](C(=O)c5c(cc(cc5O4)O)O)O)CO" "InChI=InChI=1S/C25H22O10/c1-33-18-6-10(2-3-15(18)28)23-14(9-26)13-4-11(5-17(30)25(13)35-23)24-22(32)21(31)20-16(29)7-12(27)8-19(20)34-24/h2-8,14,22-24,26-30,32H,9H2,1H3/t14-,22+,23+,24-/m1/s1" "InChIKey=BMLIIPOXVWESJG-LMBCONBSSA-N" "molecular formula=C25H22O10" "total exact mass=482.12129690399996" "SMILES=COC1=C(C=CC(=C1)C2C(C3=C(O2)C(=CC(=C3)C4C(C(=O)C5=C(C=C(C=C5O4)O)O)O)O)CO)O"
Num Peaks: 22
 125 35.835836; 
 179 14.114114; 
 325 45.945946; 
 326 9.609610; 
 337 22.722723; 
 355 46.046046; 
 356 9.909910; 
 407 13.313313; 
 419 18.718719; 
 423 10.110110; 
 433 37.637638; 
 434 21.421421; 
 435 17.217217; 
 436 9.109109; 
 437 11.111111; 
 451 53.653654; 
 452 12.012012; 
 453 31.831832; 
 463 39.039039; 
 464 14.914915; 
 481 100.000000; 
 482 34.734735; 


Name: Silychristin
SYNON: $:00in-source
DB#: MetaboBASE0686
InChIKey: BMLIIPOXVWESJG-LMBCONBSSA-N
Precursor_type: [M-H]-
Spectrum_type: MS2
PrecursorMZ: 481.1
Instrument_type: LC-ESI-TOF
Instrument: impact HD
Ion_mode: N
Collision_energy: 40
InChIKey: BMLIIPOXVWESJG-LMBCONBSSA-N
Formula: C25H22O10
MW: 482
ExactMass: 482.12129690399996
Comments: "license=License CC-BY-NC-SA 4.0 International" "author=Plant Biology, The Noble Foundation, Ardmore, OK, US/Dennis Fine, Daniel Wherritt, and Lloyd Sumner" "instrument type=LC-ESI-TOF" "instrument=impact HD" "ionization=ESI" "ionization mode=negative" "ms level=MS2" "precursor m/z=481.1" "isolation width=5" "collision gas=Nitrogen" "collision energy=40" "peak width=0.012" "date=2014-01-04 15:26:30+01:00" "column=Waters Acquity BEH C18 1.7um x 2.1 x 150 mm" "retention time=447" "raw data file=C:\Data\Confirmed Standards\Confirmed stds MSMS 2Jan14\Silychristin (vial 334)_MSMS_2418.d" "precursor type=[M-H]-" "mass accuracy=29.143429640301477" "mass error=-0.014020903999949041" "cas number=33889-69-9" "SMILES=COc1cc(ccc1O)[C@H]2[C@@H](c3cc(cc(c3O2)O)[C@@H]4[C@H](C(=O)c5c(cc(cc5O4)O)O)O)CO" "InChI=InChI=1S/C25H22O10/c1-33-18-6-10(2-3-15(18)28)23-14(9-26)13-4-11(5-17(30)25(13)35-23)24-22(32)21(31)20-16(29)7-12(27)8-19(20)34-24/h2-8,14,22-24,26-30,32H,9H2,1H3/t14-,22+,23+,24-/m1/s1" "InChIKey=BMLIIPOXVWESJG-LMBCONBSSA-N" "molecular formula=C25H22O10" "total exact mass=482.12129690399996" "SMILES=COC1=C(C=CC(=C1)C2C(C3=C(O2)C(=CC(=C3)C4C(C(=O)C5=C(C=C(C=C5O4)O)O)O)O)CO)O"
Num Peaks: 7
 125 100.000000; 
 151 27.927928; 
 152 17.217217; 
 153 20.220220; 
 179 28.028028; 
 325 24.124124; 
 365 21.421421; 


Name: Silychristin
SYNON: $:00in-source
DB#: MetaboBASE0687
InChIKey: BMLIIPOXVWESJG-LMBCONBSSA-N
Precursor_type: [M-H]-
Spectrum_type: MS2
PrecursorMZ: 481.1
Instrument_type: LC-ESI-TOF
Instrument: impact HD
Ion_mode: N
Collision_energy: 30
InChIKey: BMLIIPOXVWESJG-LMBCONBSSA-N
Formula: C25H22O10
MW: 482
ExactMass: 482.121296904
Comments: "license=License CC-BY-NC-SA 4.0 International" "author=Plant Biology, The Noble Foundation, Ardmore, OK, US/Dennis Fine, Daniel Wherritt, and Lloyd Sumner" "instrument type=LC-ESI-TOF" "instrument=impact HD" "ionization=ESI" "ionization mode=negative" "ms level=MS2" "precursor m/z=481.1" "isolation width=5" "collision gas=Nitrogen" "collision energy=30" "peak width=0.013" "date=2014-01-04 15:26:30+01:00" "column=Waters Acquity BEH C18 1.7um x 2.1 x 150 mm" "retention time=447" "raw data file=C:\Data\Confirmed Standards\Confirmed stds MSMS 2Jan14\Silychristin (vial 334)_MSMS_2418.d" "precursor type=[M-H]-" "mass accuracy=29.143429640419633" "mass error=-0.014020904000005885" "cas number=33889-69-9" "SMILES=COc1cc(ccc1O)[C@H]2[C@@H](c3cc(cc(c3O2)O)[C@@H]4[C@H](C(=O)c5c(cc(cc5O4)O)O)O)CO" "InChI=InChI=1S/C25H22O10/c1-33-18-6-10(2-3-15(18)28)23-14(9-26)13-4-11(5-17(30)25(13)35-23)24-22(32)21(31)20-16(29)7-12(27)8-19(20)34-24/h2-8,14,22-24,26-30,32H,9H2,1H3/t14-,22+,23+,24-/m1/s1" "InChIKey=BMLIIPOXVWESJG-LMBCONBSSA-N" "molecular formula=C25H22O10" "total exact mass=482.121296904" "SMILES=COC1=C(C=CC(=C1)C2C(C3=C(O2)C(=CC(=C3)C4C(C(=O)C5=C(C=C(C=C5O4)O)O)O)O)CO)O"
Num Peaks: 19
 125 100.000000; 
 151 17.317317; 
 152 18.218218; 
 178 45.545546; 
 256 16.416416; 
 297 18.518519; 
 308 16.416416; 
 325 52.152152; 
 326 20.920921; 
 337 24.824825; 
 355 19.919920; 
 389 20.520521; 
 407 23.223223; 
 419 23.423423; 
 423 30.830831; 
 433 19.719720; 
 435 27.427427; 
 453 17.417417; 
 463 15.215215; 


Name: Glycitein
SYNON: $:00in-source
DB#: MetaboBASE0688
InChIKey: DXYUAIFZCFRPTH-UHFFFAOYSA-N
Instrument_type: LC-ESI-TOF
Instrument: impact HD
Ion_mode: N
InChIKey: DXYUAIFZCFRPTH-UHFFFAOYSA-N
Formula: C16H12O5
MW: 284
ExactMass: 284.068473484
Comments: "license=License CC-BY-NC-SA 4.0 International" "author=Plant Biology, The Noble Foundation, Ardmore, OK, US/Dennis Fine, Daniel Wherritt, and Lloyd Sumner" "instrument type=LC-ESI-TOF" "instrument=impact HD" "ionization=ESI" "ionization mode=negative" "collision gas=Nitrogen" "peak width=0.011" "date=2014-01-09 02:46:54+01:00" "column=Waters Acquity BEH C18 1.7um x 2.1 x 150 mm" "retention time=499.2" "raw data file=C:\Data\Confirmed Standards\Confirmed stds MSMS 8Jan14\Glycitein (vial 336)_MSMS.d" "cas number=40957-83-3" "SMILES=COc1cc2c(cc1O)occ(c2=O)c3ccc(cc3)O" "InChI=InChI=1S/C16H12O5/c1-20-15-6-11-14(7-13(15)18)21-8-12(16(11)19)9-2-4-10(17)5-3-9/h2-8,17-18H,1H3" "InChIKey=DXYUAIFZCFRPTH-UHFFFAOYSA-N" "molecular formula=C16H12O5" "total exact mass=284.068473484" "SMILES=COC1=C(C=C2C(=C1)C(=O)C(=CO2)C3=CC=C(C=C3)O)O"
Num Peaks: 4
 283 100.000000; 
 284 11.811812; 
 351 3.203203; 
 589 3.303303; 


Name: Glycitein
SYNON: $:00in-source
DB#: MetaboBASE0689
InChIKey: DXYUAIFZCFRPTH-UHFFFAOYSA-N
Precursor_type: [M-H]-
Spectrum_type: MS2
PrecursorMZ: 283.0616
Instrument_type: LC-ESI-TOF
Instrument: impact HD
Ion_mode: N
Collision_energy: 10
InChIKey: DXYUAIFZCFRPTH-UHFFFAOYSA-N
Formula: C16H12O5
MW: 284
ExactMass: 284.068473484
Comments: "license=License CC-BY-NC-SA 4.0 International" "author=Plant Biology, The Noble Foundation, Ardmore, OK, US/Dennis Fine, Daniel Wherritt, and Lloyd Sumner" "instrument type=LC-ESI-TOF" "instrument=impact HD" "ionization=ESI" "ionization mode=negative" "ms level=MS2" "precursor m/z=283.0616" "isolation width=5" "collision gas=Nitrogen" "collision energy=10" "peak width=0.011" "date=2014-01-09 02:46:54+01:00" "column=Waters Acquity BEH C18 1.7um x 2.1 x 150 mm" "retention time=499.2" "raw data file=C:\Data\Confirmed Standards\Confirmed stds MSMS 8Jan14\Glycitein (vial 336)_MSMS.d" "precursor type=[M-H]-" "mass accuracy=1.422008495706555" "mass error=4.025160000082906E-4" "cas number=40957-83-3" "SMILES=COc1cc2c(cc1O)occ(c2=O)c3ccc(cc3)O" "InChI=InChI=1S/C16H12O5/c1-20-15-6-11-14(7-13(15)18)21-8-12(16(11)19)9-2-4-10(17)5-3-9/h2-8,17-18H,1H3" "InChIKey=DXYUAIFZCFRPTH-UHFFFAOYSA-N" "molecular formula=C16H12O5" "total exact mass=284.068473484" "SMILES=COC1=C(C=C2C(=C1)C(=O)C(=CO2)C3=CC=C(C=C3)O)O"
Num Peaks: 3
 268 8.308308; 
 283 100.000000; 
 284 9.409409; 


Name: Glycitein
SYNON: $:00in-source
DB#: MetaboBASE0690
InChIKey: DXYUAIFZCFRPTH-UHFFFAOYSA-N
Precursor_type: [M-H]-
Spectrum_type: MS2
PrecursorMZ: 283.1
Instrument_type: LC-ESI-TOF
Instrument: impact HD
Ion_mode: N
Collision_energy: 40
InChIKey: DXYUAIFZCFRPTH-UHFFFAOYSA-N
Formula: C16H12O5
MW: 284
ExactMass: 284.068473484
Comments: "license=License CC-BY-NC-SA 4.0 International" "author=Plant Biology, The Noble Foundation, Ardmore, OK, US/Dennis Fine, Daniel Wherritt, and Lloyd Sumner" "instrument type=LC-ESI-TOF" "instrument=impact HD" "ionization=ESI" "ionization mode=negative" "ms level=MS2" "precursor m/z=283.1" "isolation width=5" "collision gas=Nitrogen" "collision energy=40" "peak width=0.013" "date=2014-01-09 02:46:54+01:00" "column=Waters Acquity BEH C18 1.7um x 2.1 x 150 mm" "retention time=499.2" "raw data file=C:\Data\Confirmed Standards\Confirmed stds MSMS 8Jan14\Glycitein (vial 336)_MSMS.d" "precursor type=[M-H]-" "mass accuracy=137.06293182632453" "mass error=0.03880251600003248" "cas number=40957-83-3" "SMILES=COc1cc2c(cc1O)occ(c2=O)c3ccc(cc3)O" "InChI=InChI=1S/C16H12O5/c1-20-15-6-11-14(7-13(15)18)21-8-12(16(11)19)9-2-4-10(17)5-3-9/h2-8,17-18H,1H3" "InChIKey=DXYUAIFZCFRPTH-UHFFFAOYSA-N" "molecular formula=C16H12O5" "total exact mass=284.068473484" "SMILES=COC1=C(C=C2C(=C1)C(=O)C(=CO2)C3=CC=C(C=C3)O)O"
Num Peaks: 9
 184 19.719720; 
 196 25.325325; 
 211 30.130130; 
 239 33.533534; 
 240 100.000000; 
 241 15.915916; 
 267 14.514515; 
 268 20.920921; 
 1089 11.911912; 


Name: Glycitein
SYNON: $:00in-source
DB#: MetaboBASE0691
InChIKey: DXYUAIFZCFRPTH-UHFFFAOYSA-N
Precursor_type: [M-H]-
Spectrum_type: MS2
PrecursorMZ: 283.1
Instrument_type: LC-ESI-TOF
Instrument: impact HD
Ion_mode: N
Collision_energy: 50
InChIKey: DXYUAIFZCFRPTH-UHFFFAOYSA-N
Formula: C16H12O5
MW: 284
ExactMass: 284.068473484
Comments: "license=License CC-BY-NC-SA 4.0 International" "author=Plant Biology, The Noble Foundation, Ardmore, OK, US/Dennis Fine, Daniel Wherritt, and Lloyd Sumner" "instrument type=LC-ESI-TOF" "instrument=impact HD" "ionization=ESI" "ionization mode=negative" "ms level=MS2" "precursor m/z=283.1" "isolation width=5" "collision gas=Nitrogen" "collision energy=50" "peak width=0.01" "date=2014-01-09 02:46:54+01:00" "column=Waters Acquity BEH C18 1.7um x 2.1 x 150 mm" "retention time=499.2" "raw data file=C:\Data\Confirmed Standards\Confirmed stds MSMS 8Jan14\Glycitein (vial 336)_MSMS.d" "precursor type=[M-H]-" "mass accuracy=137.06293182632453" "mass error=0.03880251600003248" "cas number=40957-83-3" "SMILES=COc1cc2c(cc1O)occ(c2=O)c3ccc(cc3)O" "InChI=InChI=1S/C16H12O5/c1-20-15-6-11-14(7-13(15)18)21-8-12(16(11)19)9-2-4-10(17)5-3-9/h2-8,17-18H,1H3" "InChIKey=DXYUAIFZCFRPTH-UHFFFAOYSA-N" "molecular formula=C16H12O5" "total exact mass=284.068473484" "SMILES=COC1=C(C=C2C(=C1)C(=O)C(=CO2)C3=CC=C(C=C3)O)O"
Num Peaks: 3
 147 42.542543; 
 211 100.000000; 
 239 87.687688; 


Name: Glycitein
SYNON: $:00in-source
DB#: MetaboBASE0692
InChIKey: DXYUAIFZCFRPTH-UHFFFAOYSA-N
Precursor_type: [M-H]-
Spectrum_type: MS2
PrecursorMZ: 283.1
Instrument_type: LC-ESI-TOF
Instrument: impact HD
Ion_mode: N
Collision_energy: 30
InChIKey: DXYUAIFZCFRPTH-UHFFFAOYSA-N
Formula: C16H12O5
MW: 284
ExactMass: 284.068473484
Comments: "license=License CC-BY-NC-SA 4.0 International" "author=Plant Biology, The Noble Foundation, Ardmore, OK, US/Dennis Fine, Daniel Wherritt, and Lloyd Sumner" "instrument type=LC-ESI-TOF" "instrument=impact HD" "ionization=ESI" "ionization mode=negative" "ms level=MS2" "precursor m/z=283.1" "isolation width=5" "collision gas=Nitrogen" "collision energy=30" "peak width=0.013" "date=2014-01-09 02:46:54+01:00" "column=Waters Acquity BEH C18 1.7um x 2.1 x 150 mm" "retention time=499.2" "raw data file=C:\Data\Confirmed Standards\Confirmed stds MSMS 8Jan14\Glycitein (vial 336)_MSMS.d" "precursor type=[M-H]-" "mass accuracy=137.06293182632453" "mass error=0.03880251600003248" "cas number=40957-83-3" "SMILES=COc1cc2c(cc1O)occ(c2=O)c3ccc(cc3)O" "InChI=InChI=1S/C16H12O5/c1-20-15-6-11-14(7-13(15)18)21-8-12(16(11)19)9-2-4-10(17)5-3-9/h2-8,17-18H,1H3" "InChIKey=DXYUAIFZCFRPTH-UHFFFAOYSA-N" "molecular formula=C16H12O5" "total exact mass=284.068473484" "SMILES=COC1=C(C=C2C(=C1)C(=O)C(=CO2)C3=CC=C(C=C3)O)O"
Num Peaks: 8
 196 2.702703; 
 211 2.002002; 
 239 4.204204; 
 240 100.000000; 
 241 10.310310; 
 267 2.802803; 
 268 70.770771; 
 269 6.506507; 


Name: Glycitein
SYNON: $:00in-source
DB#: MetaboBASE0693
InChIKey: DXYUAIFZCFRPTH-UHFFFAOYSA-N
Precursor_type: [M-H]-
Spectrum_type: MS2
PrecursorMZ: 283.0614
Instrument_type: LC-ESI-TOF
Instrument: impact HD
Ion_mode: N
Collision_energy: 20
InChIKey: DXYUAIFZCFRPTH-UHFFFAOYSA-N
Formula: C16H12O5
MW: 284
ExactMass: 284.068473484
Comments: "license=License CC-BY-NC-SA 4.0 International" "author=Plant Biology, The Noble Foundation, Ardmore, OK, US/Dennis Fine, Daniel Wherritt, and Lloyd Sumner" "instrument type=LC-ESI-TOF" "instrument=impact HD" "ionization=ESI" "ionization mode=negative" "ms level=MS2" "precursor m/z=283.0614" "isolation width=5" "collision gas=Nitrogen" "collision energy=20" "peak width=0.012" "date=2014-01-09 02:46:54+01:00" "column=Waters Acquity BEH C18 1.7um x 2.1 x 150 mm" "retention time=499.2" "raw data file=C:\Data\Confirmed Standards\Confirmed stds MSMS 8Jan14\Glycitein (vial 336)_MSMS.d" "precursor type=[M-H]-" "mass accuracy=0.7154490156610943" "mass error=2.0251600000165126E-4" "cas number=40957-83-3" "SMILES=COc1cc2c(cc1O)occ(c2=O)c3ccc(cc3)O" "InChI=InChI=1S/C16H12O5/c1-20-15-6-11-14(7-13(15)18)21-8-12(16(11)19)9-2-4-10(17)5-3-9/h2-8,17-18H,1H3" "InChIKey=DXYUAIFZCFRPTH-UHFFFAOYSA-N" "molecular formula=C16H12O5" "total exact mass=284.068473484" "SMILES=COC1=C(C=C2C(=C1)C(=O)C(=CO2)C3=CC=C(C=C3)O)O"
Num Peaks: 5
 240 9.609610; 
 268 100.000000; 
 269 9.409409; 
 283 18.418418; 
 284 3.103103; 


Name: Galangin
SYNON: $:00in-source
DB#: MetaboBASE0694
InChIKey: VCCRNZQBSJXYJD-UHFFFAOYSA-N
Instrument_type: LC-ESI-TOF
Instrument: impact HD
Ion_mode: N
InChIKey: VCCRNZQBSJXYJD-UHFFFAOYSA-N
Formula: C15H10O5
MW: 270
ExactMass: 270.05282342
Comments: "license=License CC-BY-NC-SA 4.0 International" "author=Plant Biology, The Noble Foundation, Ardmore, OK, US/Dennis Fine, Daniel Wherritt, and Lloyd Sumner" "instrument type=LC-ESI-TOF" "instrument=impact HD" "ionization=ESI" "ionization mode=negative" "collision gas=Nitrogen" "peak width=0.015" "date=2014-01-04 09:19:58+01:00" "column=Waters Acquity BEH C18 1.7um x 2.1 x 150 mm" "retention time=868.2" "raw data file=C:\Data\Confirmed Standards\Confirmed stds MSMS 2Jan14\Galangin (vial 317)_MSMS_2409.d" "cas number=548-83-4" "SMILES=c1ccc(cc1)c2c(c(=O)c3c(cc(cc3o2)O)O)O" "InChI=InChI=1S/C15H10O5/c16-9-6-10(17)12-11(7-9)20-15(14(19)13(12)18)8-4-2-1-3-5-8/h1-7,16-17,19H" "InChIKey=VCCRNZQBSJXYJD-UHFFFAOYSA-N" "molecular formula=C15H10O5" "total exact mass=270.05282342" "SMILES=C1=CC=C(C=C1)C2=C(C(=O)C3=C(C=C(C=C3O2)O)O)O"
Num Peaks: 9
 112 0.800801; 
 242 0.900901; 
 248 1.001001; 
 269 100.000000; 
 270 13.813814; 
 271 1.601602; 
 285 1.001001; 
 539 0.800801; 
 666 3.203203; 


Name: Galangin
SYNON: $:00in-source
DB#: MetaboBASE0695
InChIKey: VCCRNZQBSJXYJD-UHFFFAOYSA-N
Precursor_type: [M-H]-
Spectrum_type: MS2
PrecursorMZ: 269.0466
Instrument_type: LC-ESI-TOF
Instrument: impact HD
Ion_mode: N
Collision_energy: 10
InChIKey: VCCRNZQBSJXYJD-UHFFFAOYSA-N
Formula: C15H10O5
MW: 270
ExactMass: 270.05282342
Comments: "license=License CC-BY-NC-SA 4.0 International" "author=Plant Biology, The Noble Foundation, Ardmore, OK, US/Dennis Fine, Daniel Wherritt, and Lloyd Sumner" "instrument type=LC-ESI-TOF" "instrument=impact HD" "ionization=ESI" "ionization mode=negative" "ms level=MS2" "precursor m/z=269.0466" "isolation width=5" "collision gas=Nitrogen" "collision energy=10" "peak width=0.012" "date=2014-01-04 09:19:58+01:00" "column=Waters Acquity BEH C18 1.7um x 2.1 x 150 mm" "retention time=868.2" "raw data file=C:\Data\Confirmed Standards\Confirmed stds MSMS 2Jan14\Galangin (vial 317)_MSMS_2409.d" "precursor type=[M-H]-" "mass accuracy=3.912259065979473" "mass error=0.0010525800000209529" "cas number=548-83-4" "SMILES=c1ccc(cc1)c2c(c(=O)c3c(cc(cc3o2)O)O)O" "InChI=InChI=1S/C15H10O5/c16-9-6-10(17)12-11(7-9)20-15(14(19)13(12)18)8-4-2-1-3-5-8/h1-7,16-17,19H" "InChIKey=VCCRNZQBSJXYJD-UHFFFAOYSA-N" "molecular formula=C15H10O5" "total exact mass=270.05282342" "SMILES=C1=CC=C(C=C1)C2=C(C(=O)C3=C(C=C(C=C3O2)O)O)O"
Num Peaks: 3
 269 100.000000; 
 270 11.411411; 
 271 1.301301; 


Name: Galangin
SYNON: $:00in-source
DB#: MetaboBASE0696
InChIKey: VCCRNZQBSJXYJD-UHFFFAOYSA-N
Precursor_type: [M-H]-
Spectrum_type: MS2
PrecursorMZ: 269.0454
Instrument_type: LC-ESI-TOF
Instrument: impact HD
Ion_mode: N
Collision_energy: 40
InChIKey: VCCRNZQBSJXYJD-UHFFFAOYSA-N
Formula: C15H10O5
MW: 270
ExactMass: 270.05282342
Comments: "license=License CC-BY-NC-SA 4.0 International" "author=Plant Biology, The Noble Foundation, Ardmore, OK, US/Dennis Fine, Daniel Wherritt, and Lloyd Sumner" "instrument type=LC-ESI-TOF" "instrument=impact HD" "ionization=ESI" "ionization mode=negative" "ms level=MS2" "precursor m/z=269.0454" "isolation width=5" "collision gas=Nitrogen" "collision energy=40" "peak width=0.0098" "date=2014-01-04 09:19:58+01:00" "column=Waters Acquity BEH C18 1.7um x 2.1 x 150 mm" "retention time=868.2" "raw data file=C:\Data\Confirmed Standards\Confirmed stds MSMS 2Jan14\Galangin (vial 317)_MSMS_2409.d" "precursor type=[M-H]-" "mass accuracy=0.5479372627031833" "mass error=-1.47420000018883E-4" "cas number=548-83-4" "SMILES=c1ccc(cc1)c2c(c(=O)c3c(cc(cc3o2)O)O)O" "InChI=InChI=1S/C15H10O5/c16-9-6-10(17)12-11(7-9)20-15(14(19)13(12)18)8-4-2-1-3-5-8/h1-7,16-17,19H" "InChIKey=VCCRNZQBSJXYJD-UHFFFAOYSA-N" "molecular formula=C15H10O5" "total exact mass=270.05282342" "SMILES=C1=CC=C(C=C1)C2=C(C(=O)C3=C(C=C(C=C3O2)O)O)O"
Num Peaks: 12
 115 84.584585; 
 117 42.342342; 
 135 38.938939; 
 143 55.455455; 
 169 57.957958; 
 171 53.953954; 
 195 41.241241; 
 211 75.675676; 
 223 49.049049; 
 227 64.064064; 
 239 84.284284; 
 269 100.000000; 


Name: Galangin
SYNON: $:00in-source
DB#: MetaboBASE0697
InChIKey: VCCRNZQBSJXYJD-UHFFFAOYSA-N
Precursor_type: [M-H]-
Spectrum_type: MS2
PrecursorMZ: 269.0465
Instrument_type: LC-ESI-TOF
Instrument: impact HD
Ion_mode: N
Collision_energy: 30
InChIKey: VCCRNZQBSJXYJD-UHFFFAOYSA-N
Formula: C15H10O5
MW: 270
ExactMass: 270.05282342
Comments: "license=License CC-BY-NC-SA 4.0 International" "author=Plant Biology, The Noble Foundation, Ardmore, OK, US/Dennis Fine, Daniel Wherritt, and Lloyd Sumner" "instrument type=LC-ESI-TOF" "instrument=impact HD" "ionization=ESI" "ionization mode=negative" "ms level=MS2" "precursor m/z=269.0465" "isolation width=5" "collision gas=Nitrogen" "collision energy=30" "peak width=0.016" "date=2014-01-04 09:19:58+01:00" "column=Waters Acquity BEH C18 1.7um x 2.1 x 150 mm" "retention time=868.2" "raw data file=C:\Data\Confirmed Standards\Confirmed stds MSMS 2Jan14\Galangin (vial 317)_MSMS_2409.d" "precursor type=[M-H]-" "mass accuracy=3.5405775581143466" "mass error=9.525799999892115E-4" "cas number=548-83-4" "SMILES=c1ccc(cc1)c2c(c(=O)c3c(cc(cc3o2)O)O)O" "InChI=InChI=1S/C15H10O5/c16-9-6-10(17)12-11(7-9)20-15(14(19)13(12)18)8-4-2-1-3-5-8/h1-7,16-17,19H" "InChIKey=VCCRNZQBSJXYJD-UHFFFAOYSA-N" "molecular formula=C15H10O5" "total exact mass=270.05282342" "SMILES=C1=CC=C(C=C1)C2=C(C(=O)C3=C(C=C(C=C3O2)O)O)O"
Num Peaks: 6
 169 4.604605; 
 223 8.308308; 
 227 6.606607; 
 239 2.902903; 
 269 100.000000; 
 270 13.513514; 


Name: Galangin
SYNON: $:00in-source
DB#: MetaboBASE0698
InChIKey: VCCRNZQBSJXYJD-UHFFFAOYSA-N
Precursor_type: [M-H]-
Spectrum_type: MS2
PrecursorMZ: 269.0466
Instrument_type: LC-ESI-TOF
Instrument: impact HD
Ion_mode: N
Collision_energy: 20
InChIKey: VCCRNZQBSJXYJD-UHFFFAOYSA-N
Formula: C15H10O5
MW: 270
ExactMass: 270.05282342
Comments: "license=License CC-BY-NC-SA 4.0 International" "author=Plant Biology, The Noble Foundation, Ardmore, OK, US/Dennis Fine, Daniel Wherritt, and Lloyd Sumner" "instrument type=LC-ESI-TOF" "instrument=impact HD" "ionization=ESI" "ionization mode=negative" "ms level=MS2" "precursor m/z=269.0466" "isolation width=5" "collision gas=Nitrogen" "collision energy=20" "peak width=0.013" "date=2014-01-04 09:19:58+01:00" "column=Waters Acquity BEH C18 1.7um x 2.1 x 150 mm" "retention time=868.2" "raw data file=C:\Data\Confirmed Standards\Confirmed stds MSMS 2Jan14\Galangin (vial 317)_MSMS_2409.d" "precursor type=[M-H]-" "mass accuracy=3.912259065979473" "mass error=0.0010525800000209529" "cas number=548-83-4" "SMILES=c1ccc(cc1)c2c(c(=O)c3c(cc(cc3o2)O)O)O" "InChI=InChI=1S/C15H10O5/c16-9-6-10(17)12-11(7-9)20-15(14(19)13(12)18)8-4-2-1-3-5-8/h1-7,16-17,19H" "InChIKey=VCCRNZQBSJXYJD-UHFFFAOYSA-N" "molecular formula=C15H10O5" "total exact mass=270.05282342" "SMILES=C1=CC=C(C=C1)C2=C(C(=O)C3=C(C=C(C=C3O2)O)O)O"
Num Peaks: 5
 224 0.400400; 
 227 0.400400; 
 269 100.000000; 
 270 9.609610; 
 271 1.401401; 


Name: Cauloside C
Synon: 3-Glu(1-2)Ara Hederagenin
SYNON: $:00in-source
DB#: MetaboBASE0699
InChIKey: RROGHRHLBLVQSG-UUWFFIQNSA-N
Precursor_type: [M+FA-H]-
Spectrum_type: MS2
PrecursorMZ: 811.4
Instrument_type: LC-ESI-TOF
Instrument: impact HD
Ion_mode: N
Collision_energy: 50
InChIKey: RROGHRHLBLVQSG-UUWFFIQNSA-N
Formula: C41H66O13
MW: 766
ExactMass: 766.450342172
Comments: "license=License CC-BY-NC-SA 4.0 International" "author=Plant Biology, The Noble Foundation, Ardmore, OK, US/Dennis Fine, Daniel Wherritt, and Lloyd Sumner" "instrument type=LC-ESI-TOF" "instrument=impact HD" "ionization=ESI" "ionization mode=negative" "ms level=MS2" "precursor m/z=811.4" "isolation width=5" "collision gas=Nitrogen" "collision energy=50" "peak width=0.014" "date=2014-01-05 00:16:04+01:00" "column=Waters Acquity BEH C18 1.7um x 2.1 x 150 mm" "retention time=1099.2" "raw data file=C:\Data\Confirmed Standards\Confirmed stds MSMS 2Jan14\Cauloside C (vial 358)_MSMS.d" "precursor type=[M+FA-H]-" "mass accuracy=59.82643825486214" "mass error=-0.04854317199999514" "cas number=20853-58-1" "SMILES=C[C@]12CC[C@@H]([C@@]([C@@H]1CC[C@@]3([C@@H]2CC=C4[C@]3(CC[C@@]5([C@H]4CC(CC5)(C)C)C(=O)O)C)C)(C)CO)O[C@H]6[C@@H]([C@H]([C@H](CO6)O)O)O[C@H]7[C@@H]([C@H]([C@@H]([C@H](O7)CO)O)O)O" "InChIKey=RROGHRHLBLVQSG-UUWFFIQNSA-N" "molecular formula=C41H66O13" "total exact mass=766.450342172" "SMILES=O=C(O)C12C(C3=CCC4C(C)(C3(C)CC1)CCC5C4(C)CCC(OC6OCC(O)C(O)C6OC7OC(CO)C(O)C(O)C7O)C5(C)CO)CC(C)(C)CC2" "InChI=InChI=1S/C41H66O13/c1-36(2)13-15-41(35(49)50)16-14-39(5)21(22(41)17-36)7-8-26-37(3)11-10-27(38(4,20-43)25(37)9-12-40(26,39)6)53-34-32(28(45)23(44)19-51-34)54-33-31(48)30(47)29(46)24(18-42)52-33/h7,22-34,42-48H,8-20H2,1-6H3,(H,49,50)/t22-,23+,24-,25?,26-,27+,28+,29-,30+,31-,32-,33-,34+,37+,38?,39-,40-,41+/m1/s1" "InChIKey=RROGHRHLBLVQSG-QHFDZABRSA-N"
Num Peaks: 8
 471 14.514515; 
 585 4.704705; 
 586 5.605606; 
 603 44.544545; 
 604 15.615616; 
 765 100.000000; 
 766 42.142142; 
 767 4.704705; 


Name: Cauloside C
Synon: 3-Glu(1-2)Ara Hederagenin
SYNON: $:00in-source
DB#: MetaboBASE0700
InChIKey: RROGHRHLBLVQSG-UUWFFIQNSA-N
Precursor_type: [M+FA-H]-
Spectrum_type: MS2
PrecursorMZ: 811.4
Instrument_type: LC-ESI-TOF
Instrument: impact HD
Ion_mode: N
Collision_energy: 30
InChIKey: RROGHRHLBLVQSG-UUWFFIQNSA-N
Formula: C41H66O13
MW: 766
ExactMass: 766.450342172
Comments: "license=License CC-BY-NC-SA 4.0 International" "author=Plant Biology, The Noble Foundation, Ardmore, OK, US/Dennis Fine, Daniel Wherritt, and Lloyd Sumner" "instrument type=LC-ESI-TOF" "instrument=impact HD" "ionization=ESI" "ionization mode=negative" "ms level=MS2" "precursor m/z=811.4" "isolation width=5" "collision gas=Nitrogen" "collision energy=30" "peak width=0.0099" "date=2014-01-05 00:16:04+01:00" "column=Waters Acquity BEH C18 1.7um x 2.1 x 150 mm" "retention time=1099.2" "raw data file=C:\Data\Confirmed Standards\Confirmed stds MSMS 2Jan14\Cauloside C (vial 358)_MSMS.d" "precursor type=[M+FA-H]-" "mass accuracy=59.82643825486214" "mass error=-0.04854317199999514" "cas number=20853-58-1" "SMILES=C[C@]12CC[C@@H]([C@@]([C@@H]1CC[C@@]3([C@@H]2CC=C4[C@]3(CC[C@@]5([C@H]4CC(CC5)(C)C)C(=O)O)C)C)(C)CO)O[C@H]6[C@@H]([C@H]([C@H](CO6)O)O)O[C@H]7[C@@H]([C@H]([C@@H]([C@H](O7)CO)O)O)O" "InChIKey=RROGHRHLBLVQSG-UUWFFIQNSA-N" "molecular formula=C41H66O13" "total exact mass=766.450342172" "SMILES=O=C(O)C12C(C3=CCC4C(C)(C3(C)CC1)CCC5C4(C)CCC(OC6OCC(O)C(O)C6OC7OC(CO)C(O)C(O)C7O)C5(C)CO)CC(C)(C)CC2" "InChI=InChI=1S/C41H66O13/c1-36(2)13-15-41(35(49)50)16-14-39(5)21(22(41)17-36)7-8-26-37(3)11-10-27(38(4,20-43)25(37)9-12-40(26,39)6)53-34-32(28(45)23(44)19-51-34)54-33-31(48)30(47)29(46)24(18-42)52-33/h7,22-34,42-48H,8-20H2,1-6H3,(H,49,50)/t22-,23+,24-,25?,26-,27+,28+,29-,30+,31-,32-,33-,34+,37+,38?,39-,40-,41+/m1/s1" "InChIKey=RROGHRHLBLVQSG-QHFDZABRSA-N"
Num Peaks: 3
 765 100.000000; 
 766 34.734735; 
 767 8.708709; 


Name: Cauloside C
Synon: 3-Glu(1-2)Ara Hederagenin
SYNON: $:00in-source
DB#: MetaboBASE0701
InChIKey: RROGHRHLBLVQSG-UUWFFIQNSA-N
Precursor_type: [M+FA-H]-
Spectrum_type: MS2
PrecursorMZ: 811.4551
Instrument_type: LC-ESI-TOF
Instrument: impact HD
Ion_mode: N
Collision_energy: 10
InChIKey: RROGHRHLBLVQSG-UUWFFIQNSA-N
Formula: C41H66O13
MW: 766
ExactMass: 766.450342172
Comments: "license=License CC-BY-NC-SA 4.0 International" "author=Plant Biology, The Noble Foundation, Ardmore, OK, US/Dennis Fine, Daniel Wherritt, and Lloyd Sumner" "instrument type=LC-ESI-TOF" "instrument=impact HD" "ionization=ESI" "ionization mode=negative" "ms level=MS2" "precursor m/z=811.4551" "isolation width=5" "collision gas=Nitrogen" "collision energy=10" "peak width=0.011" "date=2014-01-05 00:16:04+01:00" "column=Waters Acquity BEH C18 1.7um x 2.1 x 150 mm" "retention time=1099.2" "raw data file=C:\Data\Confirmed Standards\Confirmed stds MSMS 2Jan14\Cauloside C (vial 358)_MSMS.d" "precursor type=[M+FA-H]-" "mass accuracy=8.08033371167847" "mass error=0.006556828000043424" "cas number=20853-58-1" "SMILES=C[C@]12CC[C@@H]([C@@]([C@@H]1CC[C@@]3([C@@H]2CC=C4[C@]3(CC[C@@]5([C@H]4CC(CC5)(C)C)C(=O)O)C)C)(C)CO)O[C@H]6[C@@H]([C@H]([C@H](CO6)O)O)O[C@H]7[C@@H]([C@H]([C@@H]([C@H](O7)CO)O)O)O" "InChIKey=RROGHRHLBLVQSG-UUWFFIQNSA-N" "molecular formula=C41H66O13" "total exact mass=766.450342172" "SMILES=O=C(O)C12C(C3=CCC4C(C)(C3(C)CC1)CCC5C4(C)CCC(OC6OCC(O)C(O)C6OC7OC(CO)C(O)C(O)C7O)C5(C)CO)CC(C)(C)CC2" "InChI=InChI=1S/C41H66O13/c1-36(2)13-15-41(35(49)50)16-14-39(5)21(22(41)17-36)7-8-26-37(3)11-10-27(38(4,20-43)25(37)9-12-40(26,39)6)53-34-32(28(45)23(44)19-51-34)54-33-31(48)30(47)29(46)24(18-42)52-33/h7,22-34,42-48H,8-20H2,1-6H3,(H,49,50)/t22-,23+,24-,25?,26-,27+,28+,29-,30+,31-,32-,33-,34+,37+,38?,39-,40-,41+/m1/s1" "InChIKey=RROGHRHLBLVQSG-QHFDZABRSA-N"
Num Peaks: 5
 765 17.317317; 
 766 8.408408; 
 811 100.000000; 
 812 37.337337; 
 813 6.606607; 


Name: Cauloside C
Synon: 3-Glu(1-2)Ara Hederagenin
SYNON: $:00in-source
DB#: MetaboBASE0702
InChIKey: RROGHRHLBLVQSG-UUWFFIQNSA-N
Precursor_type: [M+FA-H]-
Spectrum_type: MS2
PrecursorMZ: 811.4544
Instrument_type: LC-ESI-TOF
Instrument: impact HD
Ion_mode: N
Collision_energy: 20
InChIKey: RROGHRHLBLVQSG-UUWFFIQNSA-N
Formula: C41H66O13
MW: 766
ExactMass: 766.450342172
Comments: "license=License CC-BY-NC-SA 4.0 International" "author=Plant Biology, The Noble Foundation, Ardmore, OK, US/Dennis Fine, Daniel Wherritt, and Lloyd Sumner" "instrument type=LC-ESI-TOF" "instrument=impact HD" "ionization=ESI" "ionization mode=negative" "ms level=MS2" "precursor m/z=811.4544" "isolation width=5" "collision gas=Nitrogen" "collision energy=20" "peak width=0.014" "date=2014-01-05 00:16:04+01:00" "column=Waters Acquity BEH C18 1.7um x 2.1 x 150 mm" "retention time=1099.2" "raw data file=C:\Data\Confirmed Standards\Confirmed stds MSMS 2Jan14\Cauloside C (vial 358)_MSMS.d" "precursor type=[M+FA-H]-" "mass accuracy=7.217692084720676" "mass error=0.005856827999991765" "cas number=20853-58-1" "SMILES=C[C@]12CC[C@@H]([C@@]([C@@H]1CC[C@@]3([C@@H]2CC=C4[C@]3(CC[C@@]5([C@H]4CC(CC5)(C)C)C(=O)O)C)C)(C)CO)O[C@H]6[C@@H]([C@H]([C@H](CO6)O)O)O[C@H]7[C@@H]([C@H]([C@@H]([C@H](O7)CO)O)O)O" "InChIKey=RROGHRHLBLVQSG-UUWFFIQNSA-N" "molecular formula=C41H66O13" "total exact mass=766.450342172" "SMILES=O=C(O)C12C(C3=CCC4C(C)(C3(C)CC1)CCC5C4(C)CCC(OC6OCC(O)C(O)C6OC7OC(CO)C(O)C(O)C7O)C5(C)CO)CC(C)(C)CC2" "InChI=InChI=1S/C41H66O13/c1-36(2)13-15-41(35(49)50)16-14-39(5)21(22(41)17-36)7-8-26-37(3)11-10-27(38(4,20-43)25(37)9-12-40(26,39)6)53-34-32(28(45)23(44)19-51-34)54-33-31(48)30(47)29(46)24(18-42)52-33/h7,22-34,42-48H,8-20H2,1-6H3,(H,49,50)/t22-,23+,24-,25?,26-,27+,28+,29-,30+,31-,32-,33-,34+,37+,38?,39-,40-,41+/m1/s1" "InChIKey=RROGHRHLBLVQSG-QHFDZABRSA-N"
Num Peaks: 5
 765 100.000000; 
 766 48.448448; 
 767 8.308308; 
 811 26.926927; 
 812 10.510511; 


Name: Cauloside C
Synon: 3-Glu(1-2)Ara Hederagenin
SYNON: $:00in-source
DB#: MetaboBASE0703
InChIKey: RROGHRHLBLVQSG-UUWFFIQNSA-N
Instrument_type: LC-ESI-TOF
Instrument: impact HD
Ion_mode: N
InChIKey: RROGHRHLBLVQSG-UUWFFIQNSA-N
Formula: C41H66O13
MW: 766
ExactMass: 766.450342172
Comments: "license=License CC-BY-NC-SA 4.0 International" "author=Plant Biology, The Noble Foundation, Ardmore, OK, US/Dennis Fine, Daniel Wherritt, and Lloyd Sumner" "instrument type=LC-ESI-TOF" "instrument=impact HD" "ionization=ESI" "ionization mode=negative" "collision gas=Nitrogen" "peak width=0.011" "date=2014-01-05 00:16:04+01:00" "column=Waters Acquity BEH C18 1.7um x 2.1 x 150 mm" "retention time=1099.2" "raw data file=C:\Data\Confirmed Standards\Confirmed stds MSMS 2Jan14\Cauloside C (vial 358)_MSMS.d" "cas number=20853-58-1" "SMILES=C[C@]12CC[C@@H]([C@@]([C@@H]1CC[C@@]3([C@@H]2CC=C4[C@]3(CC[C@@]5([C@H]4CC(CC5)(C)C)C(=O)O)C)C)(C)CO)O[C@H]6[C@@H]([C@H]([C@H](CO6)O)O)O[C@H]7[C@@H]([C@H]([C@@H]([C@H](O7)CO)O)O)O" "InChIKey=RROGHRHLBLVQSG-UUWFFIQNSA-N" "molecular formula=C41H66O13" "total exact mass=766.450342172" "SMILES=O=C(O)C12C(C3=CCC4C(C)(C3(C)CC1)CCC5C4(C)CCC(OC6OCC(O)C(O)C6OC7OC(CO)C(O)C(O)C7O)C5(C)CO)CC(C)(C)CC2" "InChI=InChI=1S/C41H66O13/c1-36(2)13-15-41(35(49)50)16-14-39(5)21(22(41)17-36)7-8-26-37(3)11-10-27(38(4,20-43)25(37)9-12-40(26,39)6)53-34-32(28(45)23(44)19-51-34)54-33-31(48)30(47)29(46)24(18-42)52-33/h7,22-34,42-48H,8-20H2,1-6H3,(H,49,50)/t22-,23+,24-,25?,26-,27+,28+,29-,30+,31-,32-,33-,34+,37+,38?,39-,40-,41+/m1/s1" "InChIKey=RROGHRHLBLVQSG-QHFDZABRSA-N"
Num Peaks: 7
 666 6.706707; 
 811 100.000000; 
 812 40.740741; 
 813 9.209209; 
 879 6.406406; 
 880 3.103103; 
 947 2.502503; 


Name: Cauloside C
Synon: 3-Glu(1-2)Ara Hederagenin
SYNON: $:00in-source
DB#: MetaboBASE0704
InChIKey: RROGHRHLBLVQSG-UUWFFIQNSA-N
Precursor_type: [M+FA-H]-
Spectrum_type: MS2
PrecursorMZ: 811.4
Instrument_type: LC-ESI-TOF
Instrument: impact HD
Ion_mode: N
Collision_energy: 40
InChIKey: RROGHRHLBLVQSG-UUWFFIQNSA-N
Formula: C41H66O13
MW: 766
ExactMass: 766.450342172
Comments: "license=License CC-BY-NC-SA 4.0 International" "author=Plant Biology, The Noble Foundation, Ardmore, OK, US/Dennis Fine, Daniel Wherritt, and Lloyd Sumner" "instrument type=LC-ESI-TOF" "instrument=impact HD" "ionization=ESI" "ionization mode=negative" "ms level=MS2" "precursor m/z=811.4" "isolation width=5" "collision gas=Nitrogen" "collision energy=40" "peak width=0.012" "date=2014-01-05 00:16:04+01:00" "column=Waters Acquity BEH C18 1.7um x 2.1 x 150 mm" "retention time=1099.2" "raw data file=C:\Data\Confirmed Standards\Confirmed stds MSMS 2Jan14\Cauloside C (vial 358)_MSMS.d" "precursor type=[M+FA-H]-" "mass accuracy=59.82643825486214" "mass error=-0.04854317199999514" "cas number=20853-58-1" "SMILES=C[C@]12CC[C@@H]([C@@]([C@@H]1CC[C@@]3([C@@H]2CC=C4[C@]3(CC[C@@]5([C@H]4CC(CC5)(C)C)C(=O)O)C)C)(C)CO)O[C@H]6[C@@H]([C@H]([C@H](CO6)O)O)O[C@H]7[C@@H]([C@H]([C@@H]([C@H](O7)CO)O)O)O" "InChIKey=RROGHRHLBLVQSG-UUWFFIQNSA-N" "molecular formula=C41H66O13" "total exact mass=766.450342172" "SMILES=O=C(O)C12C(C3=CCC4C(C)(C3(C)CC1)CCC5C4(C)CCC(OC6OCC(O)C(O)C6OC7OC(CO)C(O)C(O)C7O)C5(C)CO)CC(C)(C)CC2" "InChI=InChI=1S/C41H66O13/c1-36(2)13-15-41(35(49)50)16-14-39(5)21(22(41)17-36)7-8-26-37(3)11-10-27(38(4,20-43)25(37)9-12-40(26,39)6)53-34-32(28(45)23(44)19-51-34)54-33-31(48)30(47)29(46)24(18-42)52-33/h7,22-34,42-48H,8-20H2,1-6H3,(H,49,50)/t22-,23+,24-,25?,26-,27+,28+,29-,30+,31-,32-,33-,34+,37+,38?,39-,40-,41+/m1/s1" "InChIKey=RROGHRHLBLVQSG-QHFDZABRSA-N"
Num Peaks: 4
 603 5.905906; 
 765 100.000000; 
 766 35.635636; 
 767 5.305305; 


Name: Asiaticoside
SYNON: $:00in-source
DB#: MetaboBASE0705
InChIKey: WYQVAPGDARQUBT-JVGKFWCXSA-N
Instrument_type: LC-ESI-TOF
Instrument: impact HD
Ion_mode: N
InChIKey: WYQVAPGDARQUBT-JVGKFWCXSA-N
Formula: C48H78O19
MW: 958
ExactMass: 958.5137302759999
Comments: "license=License CC-BY-NC-SA 4.0 International" "author=Plant Biology, The Noble Foundation, Ardmore, OK, US/Dennis Fine, Daniel Wherritt, and Lloyd Sumner" "instrument type=LC-ESI-TOF" "instrument=impact HD" "ionization=ESI" "ionization mode=negative" "collision gas=Nitrogen" "peak width=0.01" "date=2014-01-04 22:54:36+01:00" "column=Waters Acquity BEH C18 1.7um x 2.1 x 150 mm" "retention time=663" "raw data file=C:\Data\Confirmed Standards\Confirmed stds MSMS 2Jan14\Asiaticoside (vial 356)_MSMS.d" "SMILES=C[C@@H]1CC[C@@]2(CC[C@@]3(C(=CC[C@H]4[C@]3(CC[C@@H]5[C@@]4(C[C@H]([C@@H]([C@@]5(C)CO)O)O)C)C)[C@@H]2[C@H]1C)C)C(=O)O[C@H]6[C@@H]([C@H]([C@@H]([C@H](O6)CO[C@H]7[C@@H]([C@H]([C@@H]([C@H](O7)CO)O[C@H]8[C@@H]([C@@H]([C@H]([C@H](O8)C)O)O)O)O)O)O)O)O" "InChIKey=WYQVAPGDARQUBT-JVGKFWCXSA-N" "molecular formula=C48H78O19" "total exact mass=958.5137302759999" "SMILES=CC1CCC2(CCC3(C(=CCC4C3(CCC5C4(CC(C(C5(C)CO)O)O)C)C)C2C1C)C)C(=O)OC6C(C(C(C(O6)COC7C(C(C(C(O7)CO)OC8C(C(C(C(O8)C)O)O)O)O)O)O)O)O" "InChI=InChI=1S/C48H78O19/c1-20-10-13-48(15-14-46(6)23(29(48)21(20)2)8-9-28-44(4)16-24(51)39(60)45(5,19-50)27(44)11-12-47(28,46)7)43(61)67-42-36(58)33(55)31(53)26(65-42)18-62-40-37(59)34(56)38(25(17-49)64-40)66-41-35(57)32(54)30(52)22(3)63-41/h8,20-22,24-42,49-60H,9-19H2,1-7H3/t20-,21+,22-,24-,25-,26-,27-,28-,29+,30+,31-,32-,33+,34-,35-,36-,37-,38-,39+,40-,41+,42+,44+,45+,46-,47-,48+/m1/s1"
Num Peaks: 16
 112 0.700701; 
 993 0.800801; 
 1003 100.000000; 
 1004 43.843844; 
 1005 11.911912; 
 1006 2.502503; 
 1055 0.700701; 
 1055 0.600601; 
 1071 6.506507; 
 1072 3.503504; 
 1073 1.101101; 
 1075 1.001001; 
 1133 0.700701; 
 1139 1.301301; 
 1483 0.800801; 
 1484 0.600601; 


Name: Asiaticoside
SYNON: $:00in-source
DB#: MetaboBASE0706
InChIKey: WYQVAPGDARQUBT-JVGKFWCXSA-N
Precursor_type: [M+FA-H]-
Spectrum_type: MS2
PrecursorMZ: 1003.509
Instrument_type: LC-ESI-TOF
Instrument: impact HD
Ion_mode: N
Collision_energy: 10
InChIKey: WYQVAPGDARQUBT-JVGKFWCXSA-N
Formula: C48H78O19
MW: 958
ExactMass: 958.5137302759999
Comments: "license=License CC-BY-NC-SA 4.0 International" "author=Plant Biology, The Noble Foundation, Ardmore, OK, US/Dennis Fine, Daniel Wherritt, and Lloyd Sumner" "instrument type=LC-ESI-TOF" "instrument=impact HD" "ionization=ESI" "ionization mode=negative" "ms level=MS2" "precursor m/z=1003.509" "isolation width=5" "collision gas=Nitrogen" "collision energy=10" "peak width=0.011" "date=2014-01-04 22:54:36+01:00" "column=Waters Acquity BEH C18 1.7um x 2.1 x 150 mm" "retention time=663" "raw data file=C:\Data\Confirmed Standards\Confirmed stds MSMS 2Jan14\Asiaticoside (vial 356)_MSMS.d" "precursor type=[M+FA-H]-" "mass accuracy=2.9210261192604565" "mass error=-0.002931275999912941" "SMILES=C[C@@H]1CC[C@@]2(CC[C@@]3(C(=CC[C@H]4[C@]3(CC[C@@H]5[C@@]4(C[C@H]([C@@H]([C@@]5(C)CO)O)O)C)C)[C@@H]2[C@H]1C)C)C(=O)O[C@H]6[C@@H]([C@H]([C@@H]([C@H](O6)CO[C@H]7[C@@H]([C@H]([C@@H]([C@H](O7)CO)O[C@H]8[C@@H]([C@@H]([C@H]([C@H](O8)C)O)O)O)O)O)O)O)O" "InChIKey=WYQVAPGDARQUBT-JVGKFWCXSA-N" "molecular formula=C48H78O19" "total exact mass=958.5137302759999" "SMILES=CC1CCC2(CCC3(C(=CCC4C3(CCC5C4(CC(C(C5(C)CO)O)O)C)C)C2C1C)C)C(=O)OC6C(C(C(C(O6)COC7C(C(C(C(O7)CO)OC8C(C(C(C(O8)C)O)O)O)O)O)O)O)O" "InChI=InChI=1S/C48H78O19/c1-20-10-13-48(15-14-46(6)23(29(48)21(20)2)8-9-28-44(4)16-24(51)39(60)45(5,19-50)27(44)11-12-47(28,46)7)43(61)67-42-36(58)33(55)31(53)26(65-42)18-62-40-37(59)34(56)38(25(17-49)64-40)66-41-35(57)32(54)30(52)22(3)63-41/h8,20-22,24-42,49-60H,9-19H2,1-7H3/t20-,21+,22-,24-,25-,26-,27-,28-,29+,30+,31-,32-,33+,34-,35-,36-,37-,38-,39+,40-,41+,42+,44+,45+,46-,47-,48+/m1/s1"
Num Peaks: 7
 957 2.302302; 
 958 1.101101; 
 1003 100.000000; 
 1004 44.244244; 
 1005 9.709710; 
 1006 1.401401; 
 1006 1.301301; 


Name: Asiaticoside
SYNON: $:00in-source
DB#: MetaboBASE0707
InChIKey: WYQVAPGDARQUBT-JVGKFWCXSA-N
Precursor_type: [M+FA-H]-
Spectrum_type: MS2
PrecursorMZ: 1003.508
Instrument_type: LC-ESI-TOF
Instrument: impact HD
Ion_mode: N
Collision_energy: 20
InChIKey: WYQVAPGDARQUBT-JVGKFWCXSA-N
Formula: C48H78O19
MW: 958
ExactMass: 958.5137302759999
Comments: "license=License CC-BY-NC-SA 4.0 International" "author=Plant Biology, The Noble Foundation, Ardmore, OK, US/Dennis Fine, Daniel Wherritt, and Lloyd Sumner" "instrument type=LC-ESI-TOF" "instrument=impact HD" "ionization=ESI" "ionization mode=negative" "ms level=MS2" "precursor m/z=1003.508" "isolation width=5" "collision gas=Nitrogen" "collision energy=20" "peak width=0.012" "date=2014-01-04 22:54:36+01:00" "column=Waters Acquity BEH C18 1.7um x 2.1 x 150 mm" "retention time=663" "raw data file=C:\Data\Confirmed Standards\Confirmed stds MSMS 2Jan14\Asiaticoside (vial 356)_MSMS.d" "precursor type=[M+FA-H]-" "mass accuracy=3.9175332930971094" "mass error=-0.003931275999889294" "SMILES=C[C@@H]1CC[C@@]2(CC[C@@]3(C(=CC[C@H]4[C@]3(CC[C@@H]5[C@@]4(C[C@H]([C@@H]([C@@]5(C)CO)O)O)C)C)[C@@H]2[C@H]1C)C)C(=O)O[C@H]6[C@@H]([C@H]([C@@H]([C@H](O6)CO[C@H]7[C@@H]([C@H]([C@@H]([C@H](O7)CO)O[C@H]8[C@@H]([C@@H]([C@H]([C@H](O8)C)O)O)O)O)O)O)O)O" "InChIKey=WYQVAPGDARQUBT-JVGKFWCXSA-N" "molecular formula=C48H78O19" "total exact mass=958.5137302759999" "SMILES=CC1CCC2(CCC3(C(=CCC4C3(CCC5C4(CC(C(C5(C)CO)O)O)C)C)C2C1C)C)C(=O)OC6C(C(C(C(O6)COC7C(C(C(C(O7)CO)OC8C(C(C(C(O8)C)O)O)O)O)O)O)O)O" "InChI=InChI=1S/C48H78O19/c1-20-10-13-48(15-14-46(6)23(29(48)21(20)2)8-9-28-44(4)16-24(51)39(60)45(5,19-50)27(44)11-12-47(28,46)7)43(61)67-42-36(58)33(55)31(53)26(65-42)18-62-40-37(59)34(56)38(25(17-49)64-40)66-41-35(57)32(54)30(52)22(3)63-41/h8,20-22,24-42,49-60H,9-19H2,1-7H3/t20-,21+,22-,24-,25-,26-,27-,28-,29+,30+,31-,32-,33+,34-,35-,36-,37-,38-,39+,40-,41+,42+,44+,45+,46-,47-,48+/m1/s1"
Num Peaks: 11
 469 3.003003; 
 571 1.801802; 
 576 1.901902; 
 957 43.643644; 
 958 16.916917; 
 959 4.304304; 
 1003 100.000000; 
 1004 41.641642; 
 1004 2.202202; 
 1005 6.806807; 
 1006 2.202202; 


Name: Asiaticoside
SYNON: $:00in-source
DB#: MetaboBASE0708
InChIKey: WYQVAPGDARQUBT-JVGKFWCXSA-N
Precursor_type: [M+FA-H]-
Spectrum_type: MS2
PrecursorMZ: 1003.513
Instrument_type: LC-ESI-TOF
Instrument: impact HD
Ion_mode: N
Collision_energy: 30
InChIKey: WYQVAPGDARQUBT-JVGKFWCXSA-N
Formula: C48H78O19
MW: 958
ExactMass: 958.513730276
Comments: "license=License CC-BY-NC-SA 4.0 International" "author=Plant Biology, The Noble Foundation, Ardmore, OK, US/Dennis Fine, Daniel Wherritt, and Lloyd Sumner" "instrument type=LC-ESI-TOF" "instrument=impact HD" "ionization=ESI" "ionization mode=negative" "ms level=MS2" "precursor m/z=1003.513" "isolation width=5" "collision gas=Nitrogen" "collision energy=30" "peak width=0.012" "date=2014-01-04 22:54:36+01:00" "column=Waters Acquity BEH C18 1.7um x 2.1 x 150 mm" "retention time=663" "raw data file=C:\Data\Confirmed Standards\Confirmed stds MSMS 2Jan14\Asiaticoside (vial 356)_MSMS.d" "precursor type=[M+FA-H]-" "mass accuracy=1.0649827157121745" "mass error=0.0010687239999924714" "SMILES=C[C@@H]1CC[C@@]2(CC[C@@]3(C(=CC[C@H]4[C@]3(CC[C@@H]5[C@@]4(C[C@H]([C@@H]([C@@]5(C)CO)O)O)C)C)[C@@H]2[C@H]1C)C)C(=O)O[C@H]6[C@@H]([C@H]([C@@H]([C@H](O6)CO[C@H]7[C@@H]([C@H]([C@@H]([C@H](O7)CO)O[C@H]8[C@@H]([C@@H]([C@H]([C@H](O8)C)O)O)O)O)O)O)O)O" "InChIKey=WYQVAPGDARQUBT-JVGKFWCXSA-N" "molecular formula=C48H78O19" "total exact mass=958.513730276" "SMILES=CC1CCC2(CCC3(C(=CCC4C3(CCC5C4(CC(C(C5(C)CO)O)O)C)C)C2C1C)C)C(=O)OC6C(C(C(C(O6)COC7C(C(C(C(O7)CO)OC8C(C(C(C(O8)C)O)O)O)O)O)O)O)O" "InChI=InChI=1S/C48H78O19/c1-20-10-13-48(15-14-46(6)23(29(48)21(20)2)8-9-28-44(4)16-24(51)39(60)45(5,19-50)27(44)11-12-47(28,46)7)43(61)67-42-36(58)33(55)31(53)26(65-42)18-62-40-37(59)34(56)38(25(17-49)64-40)66-41-35(57)32(54)30(52)22(3)63-41/h8,20-22,24-42,49-60H,9-19H2,1-7H3/t20-,21+,22-,24-,25-,26-,27-,28-,29+,30+,31-,32-,33+,34-,35-,36-,37-,38-,39+,40-,41+,42+,44+,45+,46-,47-,48+/m1/s1"
Num Peaks: 11
 325 1.601602; 
 469 19.619620; 
 470 2.802803; 
 487 2.402402; 
 957 100.000000; 
 958 38.638639; 
 959 10.810811; 
 960 1.401401; 
 1003 8.908909; 
 1004 6.006006; 
 1005 1.901902; 


Name: Asiaticoside
SYNON: $:00in-source
DB#: MetaboBASE0709
InChIKey: WYQVAPGDARQUBT-JVGKFWCXSA-N
Precursor_type: [M+FA-H]-
Spectrum_type: MS2
PrecursorMZ: 1003.5
Instrument_type: LC-ESI-TOF
Instrument: impact HD
Ion_mode: N
Collision_energy: 40
InChIKey: WYQVAPGDARQUBT-JVGKFWCXSA-N
Formula: C48H78O19
MW: 958
ExactMass: 958.513730276
Comments: "license=License CC-BY-NC-SA 4.0 International" "author=Plant Biology, The Noble Foundation, Ardmore, OK, US/Dennis Fine, Daniel Wherritt, and Lloyd Sumner" "instrument type=LC-ESI-TOF" "instrument=impact HD" "ionization=ESI" "ionization mode=negative" "ms level=MS2" "precursor m/z=1003.5" "isolation width=5" "collision gas=Nitrogen" "collision energy=40" "peak width=0.012" "date=2014-01-04 22:54:36+01:00" "column=Waters Acquity BEH C18 1.7um x 2.1 x 150 mm" "retention time=663" "raw data file=C:\Data\Confirmed Standards\Confirmed stds MSMS 2Jan14\Asiaticoside (vial 356)_MSMS.d" "precursor type=[M+FA-H]-" "mass accuracy=11.88966218240277" "mass error=-0.01193127600004118" "SMILES=C[C@@H]1CC[C@@]2(CC[C@@]3(C(=CC[C@H]4[C@]3(CC[C@@H]5[C@@]4(C[C@H]([C@@H]([C@@]5(C)CO)O)O)C)C)[C@@H]2[C@H]1C)C)C(=O)O[C@H]6[C@@H]([C@H]([C@@H]([C@H](O6)CO[C@H]7[C@@H]([C@H]([C@@H]([C@H](O7)CO)O[C@H]8[C@@H]([C@@H]([C@H]([C@H](O8)C)O)O)O)O)O)O)O)O" "InChIKey=WYQVAPGDARQUBT-JVGKFWCXSA-N" "molecular formula=C48H78O19" "total exact mass=958.513730276" "SMILES=CC1CCC2(CCC3(C(=CCC4C3(CCC5C4(CC(C(C5(C)CO)O)O)C)C)C2C1C)C)C(=O)OC6C(C(C(C(O6)COC7C(C(C(C(O7)CO)OC8C(C(C(C(O8)C)O)O)O)O)O)O)O)O" "InChI=InChI=1S/C48H78O19/c1-20-10-13-48(15-14-46(6)23(29(48)21(20)2)8-9-28-44(4)16-24(51)39(60)45(5,19-50)27(44)11-12-47(28,46)7)43(61)67-42-36(58)33(55)31(53)26(65-42)18-62-40-37(59)34(56)38(25(17-49)64-40)66-41-35(57)32(54)30(52)22(3)63-41/h8,20-22,24-42,49-60H,9-19H2,1-7H3/t20-,21+,22-,24-,25-,26-,27-,28-,29+,30+,31-,32-,33+,34-,35-,36-,37-,38-,39+,40-,41+,42+,44+,45+,46-,47-,48+/m1/s1"
Num Peaks: 20
 125 2.002002; 
 161 3.803804; 
 247 3.103103; 
 265 2.602603; 
 323 3.803804; 
 325 2.402402; 
 367 5.605606; 
 368 1.801802; 
 409 4.204204; 
 451 1.501502; 
 469 100.000000; 
 470 13.413413; 
 471 4.304304; 
 487 18.918919; 
 488 6.806807; 
 957 45.245245; 
 958 16.716717; 
 958 1.701702; 
 959 4.204204; 
 960 1.301301; 


Name: Asiaticoside
SYNON: $:00in-source
DB#: MetaboBASE0710
InChIKey: WYQVAPGDARQUBT-JVGKFWCXSA-N
Precursor_type: [M+FA-H]-
Spectrum_type: MS2
PrecursorMZ: 1003.5
Instrument_type: LC-ESI-TOF
Instrument: impact HD
Ion_mode: N
Collision_energy: 50
InChIKey: WYQVAPGDARQUBT-JVGKFWCXSA-N
Formula: C48H78O19
MW: 958
ExactMass: 958.513730276
Comments: "license=License CC-BY-NC-SA 4.0 International" "author=Plant Biology, The Noble Foundation, Ardmore, OK, US/Dennis Fine, Daniel Wherritt, and Lloyd Sumner" "instrument type=LC-ESI-TOF" "instrument=impact HD" "ionization=ESI" "ionization mode=negative" "ms level=MS2" "precursor m/z=1003.5" "isolation width=5" "collision gas=Nitrogen" "collision energy=50" "peak width=0.011" "date=2014-01-04 22:54:36+01:00" "column=Waters Acquity BEH C18 1.7um x 2.1 x 150 mm" "retention time=663" "raw data file=C:\Data\Confirmed Standards\Confirmed stds MSMS 2Jan14\Asiaticoside (vial 356)_MSMS.d" "precursor type=[M+FA-H]-" "mass accuracy=11.88966218240277" "mass error=-0.01193127600004118" "SMILES=C[C@@H]1CC[C@@]2(CC[C@@]3(C(=CC[C@H]4[C@]3(CC[C@@H]5[C@@]4(C[C@H]([C@@H]([C@@]5(C)CO)O)O)C)C)[C@@H]2[C@H]1C)C)C(=O)O[C@H]6[C@@H]([C@H]([C@@H]([C@H](O6)CO[C@H]7[C@@H]([C@H]([C@@H]([C@H](O7)CO)O[C@H]8[C@@H]([C@@H]([C@H]([C@H](O8)C)O)O)O)O)O)O)O)O" "InChIKey=WYQVAPGDARQUBT-JVGKFWCXSA-N" "molecular formula=C48H78O19" "total exact mass=958.513730276" "SMILES=CC1CCC2(CCC3(C(=CCC4C3(CCC5C4(CC(C(C5(C)CO)O)O)C)C)C2C1C)C)C(=O)OC6C(C(C(C(O6)COC7C(C(C(C(O7)CO)OC8C(C(C(C(O8)C)O)O)O)O)O)O)O)O" "InChI=InChI=1S/C48H78O19/c1-20-10-13-48(15-14-46(6)23(29(48)21(20)2)8-9-28-44(4)16-24(51)39(60)45(5,19-50)27(44)11-12-47(28,46)7)43(61)67-42-36(58)33(55)31(53)26(65-42)18-62-40-37(59)34(56)38(25(17-49)64-40)66-41-35(57)32(54)30(52)22(3)63-41/h8,20-22,24-42,49-60H,9-19H2,1-7H3/t20-,21+,22-,24-,25-,26-,27-,28-,29+,30+,31-,32-,33+,34-,35-,36-,37-,38-,39+,40-,41+,42+,44+,45+,46-,47-,48+/m1/s1"
Num Peaks: 25
 125 7.707708; 
 126 3.503504; 
 143 2.702703; 
 161 5.805806; 
 163 5.405405; 
 168 1.901902; 
 247 14.214214; 
 265 3.603604; 
 291 2.002002; 
 323 9.609610; 
 325 2.902903; 
 349 2.102102; 
 367 13.213213; 
 368 2.302302; 
 409 5.905906; 
 469 100.000000; 
 470 13.813814; 
 471 2.002002; 
 472 1.901902; 
 487 81.581582; 
 488 17.417417; 
 489 2.602603; 
 957 6.606607; 
 958 5.705706; 
 959 3.703704; 


Name: Apigenin-7-O-glucoside
Synon: Apigetrin
SYNON: $:00in-source
DB#: MetaboBASE0711
InChIKey: KMOUJOKENFFTPU-QNDFHXLGSA-N
Precursor_type: [M-H]-
Spectrum_type: MS2
PrecursorMZ: 431.0962
Instrument_type: LC-ESI-TOF
Instrument: impact HD
Ion_mode: N
Collision_energy: 20
InChIKey: KMOUJOKENFFTPU-QNDFHXLGSA-N
Formula: C21H20O10
MW: 432
ExactMass: 432.10564683999996
Comments: "license=License CC-BY-NC-SA 4.0 International" "author=Plant Biology, The Noble Foundation, Ardmore, OK, US/Dennis Fine, Daniel Wherritt, and Lloyd Sumner" "instrument type=LC-ESI-TOF" "instrument=impact HD" "ionization=ESI" "ionization mode=negative" "ms level=MS2" "precursor m/z=431.0962" "isolation width=5" "collision gas=Nitrogen" "collision energy=20" "peak width=0.013" "date=2014-01-04 11:22:09+01:00" "column=Waters Acquity BEH C18 1.7um x 2.1 x 150 mm" "retention time=388.2" "raw data file=C:\Data\Confirmed Standards\Confirmed stds MSMS 2Jan14\Apigenin-7-O-glucoside _MSMS_2412.d" "precursor type=[M-H]-" "mass accuracy=5.035627778585108" "mass error=-0.0021708399999624817" "cas number=578-74-5" "SMILES=c1cc(ccc1c2cc(=O)c3c(cc(cc3o2)O[C@H]4[C@@H]([C@H]([C@@H]([C@H](O4)CO)O)O)O)O)O" "InChI=InChI=1S/C21H20O10/c22-8-16-18(26)19(27)20(28)21(31-16)29-11-5-12(24)17-13(25)7-14(30-15(17)6-11)9-1-3-10(23)4-2-9/h1-7,16,18-24,26-28H,8H2/t16-,18-,19+,20-,21-/m1/s1" "InChIKey=KMOUJOKENFFTPU-QNDFHXLGSA-N" "molecular formula=C21H20O10" "total exact mass=432.10564683999996" "SMILES=C1=CC(=CC=C1C2=CC(=O)C3=C(C=C(C=C3O2)OC4C(C(C(C(O4)CO)O)O)O)O)O" "InChI=InChI=1S/C21H20O10/c22-8-16-18(26)19(27)20(28)21(31-16)29-11-5-12(24)17-13(25)7-14(30-15(17)6-11)9-1-3-10(23)4-2-9/h1-7,16,18-24,26-28H,8H2" "InChIKey=KMOUJOKENFFTPU-UHFFFAOYSA-N"
Num Peaks: 6
 268 2.902903; 
 269 6.506507; 
 270 1.601602; 
 431 100.000000; 
 432 16.416416; 
 433 2.302302; 


Name: Apigenin-7-O-glucoside
Synon: Apigetrin
SYNON: $:00in-source
DB#: MetaboBASE0712
InChIKey: KMOUJOKENFFTPU-QNDFHXLGSA-N
Precursor_type: [M-H]-
Spectrum_type: MS2
PrecursorMZ: 431.0958
Instrument_type: LC-ESI-TOF
Instrument: impact HD
Ion_mode: N
Collision_energy: 30
InChIKey: KMOUJOKENFFTPU-QNDFHXLGSA-N
Formula: C21H20O10
MW: 432
ExactMass: 432.10564683999996
Comments: "license=License CC-BY-NC-SA 4.0 International" "author=Plant Biology, The Noble Foundation, Ardmore, OK, US/Dennis Fine, Daniel Wherritt, and Lloyd Sumner" "instrument type=LC-ESI-TOF" "instrument=impact HD" "ionization=ESI" "ionization mode=negative" "ms level=MS2" "precursor m/z=431.0958" "isolation width=5" "collision gas=Nitrogen" "collision energy=30" "peak width=0.015" "date=2014-01-04 11:22:09+01:00" "column=Waters Acquity BEH C18 1.7um x 2.1 x 150 mm" "retention time=388.2" "raw data file=C:\Data\Confirmed Standards\Confirmed stds MSMS 2Jan14\Apigenin-7-O-glucoside _MSMS_2412.d" "precursor type=[M-H]-" "mass accuracy=5.963500456222864" "mass error=-0.0025708399999757603" "cas number=578-74-5" "SMILES=c1cc(ccc1c2cc(=O)c3c(cc(cc3o2)O[C@H]4[C@@H]([C@H]([C@@H]([C@H](O4)CO)O)O)O)O)O" "InChI=InChI=1S/C21H20O10/c22-8-16-18(26)19(27)20(28)21(31-16)29-11-5-12(24)17-13(25)7-14(30-15(17)6-11)9-1-3-10(23)4-2-9/h1-7,16,18-24,26-28H,8H2/t16-,18-,19+,20-,21-/m1/s1" "InChIKey=KMOUJOKENFFTPU-QNDFHXLGSA-N" "molecular formula=C21H20O10" "total exact mass=432.10564683999996" "SMILES=C1=CC(=CC=C1C2=CC(=O)C3=C(C=C(C=C3O2)OC4C(C(C(C(O4)CO)O)O)O)O)O" "InChI=InChI=1S/C21H20O10/c22-8-16-18(26)19(27)20(28)21(31-16)29-11-5-12(24)17-13(25)7-14(30-15(17)6-11)9-1-3-10(23)4-2-9/h1-7,16,18-24,26-28H,8H2" "InChIKey=KMOUJOKENFFTPU-UHFFFAOYSA-N"
Num Peaks: 8
 268 100.000000; 
 269 58.458458; 
 270 7.907908; 
 271 1.301301; 
 311 1.901902; 
 431 89.389389; 
 432 17.117117; 
 433 5.205205; 


Name: Apigenin-7-O-glucoside
Synon: Apigetrin
SYNON: $:00in-source
DB#: MetaboBASE0713
InChIKey: KMOUJOKENFFTPU-QNDFHXLGSA-N
Precursor_type: [M-H]-
Spectrum_type: MS2
PrecursorMZ: 431.0963
Instrument_type: LC-ESI-TOF
Instrument: impact HD
Ion_mode: N
Collision_energy: 10
InChIKey: KMOUJOKENFFTPU-QNDFHXLGSA-N
Formula: C21H20O10
MW: 432
ExactMass: 432.10564683999996
Comments: "license=License CC-BY-NC-SA 4.0 International" "author=Plant Biology, The Noble Foundation, Ardmore, OK, US/Dennis Fine, Daniel Wherritt, and Lloyd Sumner" "instrument type=LC-ESI-TOF" "instrument=impact HD" "ionization=ESI" "ionization mode=negative" "ms level=MS2" "precursor m/z=431.0963" "isolation width=5" "collision gas=Nitrogen" "collision energy=10" "peak width=0.012" "date=2014-01-04 11:22:09+01:00" "column=Waters Acquity BEH C18 1.7um x 2.1 x 150 mm" "retention time=388.2" "raw data file=C:\Data\Confirmed Standards\Confirmed stds MSMS 2Jan14\Apigenin-7-O-glucoside _MSMS_2412.d" "precursor type=[M-H]-" "mass accuracy=4.803659878286091" "mass error=-0.0020708399999875837" "cas number=578-74-5" "SMILES=c1cc(ccc1c2cc(=O)c3c(cc(cc3o2)O[C@H]4[C@@H]([C@H]([C@@H]([C@H](O4)CO)O)O)O)O)O" "InChI=InChI=1S/C21H20O10/c22-8-16-18(26)19(27)20(28)21(31-16)29-11-5-12(24)17-13(25)7-14(30-15(17)6-11)9-1-3-10(23)4-2-9/h1-7,16,18-24,26-28H,8H2/t16-,18-,19+,20-,21-/m1/s1" "InChIKey=KMOUJOKENFFTPU-QNDFHXLGSA-N" "molecular formula=C21H20O10" "total exact mass=432.10564683999996" "SMILES=C1=CC(=CC=C1C2=CC(=O)C3=C(C=C(C=C3O2)OC4C(C(C(C(O4)CO)O)O)O)O)O" "InChI=InChI=1S/C21H20O10/c22-8-16-18(26)19(27)20(28)21(31-16)29-11-5-12(24)17-13(25)7-14(30-15(17)6-11)9-1-3-10(23)4-2-9/h1-7,16,18-24,26-28H,8H2" "InChIKey=KMOUJOKENFFTPU-UHFFFAOYSA-N"
Num Peaks: 3
 431 100.000000; 
 432 16.416416; 
 433 2.002002; 


Name: Apigenin-7-O-glucoside
Synon: Apigetrin
SYNON: $:00in-source
DB#: MetaboBASE0714
InChIKey: KMOUJOKENFFTPU-QNDFHXLGSA-N
Precursor_type: [M-H]-
Spectrum_type: MS2
PrecursorMZ: 431.0956
Instrument_type: LC-ESI-TOF
Instrument: impact HD
Ion_mode: N
Collision_energy: 40
InChIKey: KMOUJOKENFFTPU-QNDFHXLGSA-N
Formula: C21H20O10
MW: 432
ExactMass: 432.10564683999996
Comments: "license=License CC-BY-NC-SA 4.0 International" "author=Plant Biology, The Noble Foundation, Ardmore, OK, US/Dennis Fine, Daniel Wherritt, and Lloyd Sumner" "instrument type=LC-ESI-TOF" "instrument=impact HD" "ionization=ESI" "ionization mode=negative" "ms level=MS2" "precursor m/z=431.0956" "isolation width=5" "collision gas=Nitrogen" "collision energy=40" "peak width=0.014" "date=2014-01-04 11:22:09+01:00" "column=Waters Acquity BEH C18 1.7um x 2.1 x 150 mm" "retention time=388.2" "raw data file=C:\Data\Confirmed Standards\Confirmed stds MSMS 2Jan14\Apigenin-7-O-glucoside _MSMS_2412.d" "precursor type=[M-H]-" "mass accuracy=6.427437440749568" "mass error=-0.0027708399999823996" "cas number=578-74-5" "SMILES=c1cc(ccc1c2cc(=O)c3c(cc(cc3o2)O[C@H]4[C@@H]([C@H]([C@@H]([C@H](O4)CO)O)O)O)O)O" "InChI=InChI=1S/C21H20O10/c22-8-16-18(26)19(27)20(28)21(31-16)29-11-5-12(24)17-13(25)7-14(30-15(17)6-11)9-1-3-10(23)4-2-9/h1-7,16,18-24,26-28H,8H2/t16-,18-,19+,20-,21-/m1/s1" "InChIKey=KMOUJOKENFFTPU-QNDFHXLGSA-N" "molecular formula=C21H20O10" "total exact mass=432.10564683999996" "SMILES=C1=CC(=CC=C1C2=CC(=O)C3=C(C=C(C=C3O2)OC4C(C(C(C(O4)CO)O)O)O)O)O" "InChI=InChI=1S/C21H20O10/c22-8-16-18(26)19(27)20(28)21(31-16)29-11-5-12(24)17-13(25)7-14(30-15(17)6-11)9-1-3-10(23)4-2-9/h1-7,16,18-24,26-28H,8H2" "InChIKey=KMOUJOKENFFTPU-UHFFFAOYSA-N"
Num Peaks: 8
 239 0.600601; 
 240 1.201201; 
 267 0.600601; 
 268 100.000000; 
 269 23.123123; 
 270 3.403403; 
 431 3.803804; 
 432 0.900901; 


Name: Apigenin-7-O-glucoside
Synon: Apigetrin
SYNON: $:00in-source
DB#: MetaboBASE0715
InChIKey: KMOUJOKENFFTPU-QNDFHXLGSA-N
Precursor_type: [M-H]-
Spectrum_type: MS2
PrecursorMZ: 431.1
Instrument_type: LC-ESI-TOF
Instrument: impact HD
Ion_mode: N
Collision_energy: 50
InChIKey: KMOUJOKENFFTPU-QNDFHXLGSA-N
Formula: C21H20O10
MW: 432
ExactMass: 432.10564683999996
Comments: "license=License CC-BY-NC-SA 4.0 International" "author=Plant Biology, The Noble Foundation, Ardmore, OK, US/Dennis Fine, Daniel Wherritt, and Lloyd Sumner" "instrument type=LC-ESI-TOF" "instrument=impact HD" "ionization=ESI" "ionization mode=negative" "ms level=MS2" "precursor m/z=431.1" "isolation width=5" "collision gas=Nitrogen" "collision energy=50" "peak width=0.013" "date=2014-01-04 11:22:09+01:00" "column=Waters Acquity BEH C18 1.7um x 2.1 x 150 mm" "retention time=388.2" "raw data file=C:\Data\Confirmed Standards\Confirmed stds MSMS 2Jan14\Apigenin-7-O-glucoside _MSMS_2412.d" "precursor type=[M-H]-" "mass accuracy=3.779076780445322" "mass error=0.0016291600000499784" "cas number=578-74-5" "SMILES=c1cc(ccc1c2cc(=O)c3c(cc(cc3o2)O[C@H]4[C@@H]([C@H]([C@@H]([C@H](O4)CO)O)O)O)O)O" "InChI=InChI=1S/C21H20O10/c22-8-16-18(26)19(27)20(28)21(31-16)29-11-5-12(24)17-13(25)7-14(30-15(17)6-11)9-1-3-10(23)4-2-9/h1-7,16,18-24,26-28H,8H2/t16-,18-,19+,20-,21-/m1/s1" "InChIKey=KMOUJOKENFFTPU-QNDFHXLGSA-N" "molecular formula=C21H20O10" "total exact mass=432.10564683999996" "SMILES=C1=CC(=CC=C1C2=CC(=O)C3=C(C=C(C=C3O2)OC4C(C(C(C(O4)CO)O)O)O)O)O" "InChI=InChI=1S/C21H20O10/c22-8-16-18(26)19(27)20(28)21(31-16)29-11-5-12(24)17-13(25)7-14(30-15(17)6-11)9-1-3-10(23)4-2-9/h1-7,16,18-24,26-28H,8H2" "InChIKey=KMOUJOKENFFTPU-UHFFFAOYSA-N"
Num Peaks: 10
 117 1.301301; 
 151 1.901902; 
 225 1.001001; 
 239 3.703704; 
 240 6.406406; 
 241 1.601602; 
 267 1.401401; 
 268 100.000000; 
 269 18.718719; 
 270 2.302302; 


Name: Apigenin-7-O-glucoside
Synon: Apigetrin
SYNON: $:00in-source
DB#: MetaboBASE0716
InChIKey: KMOUJOKENFFTPU-QNDFHXLGSA-N
Instrument_type: LC-ESI-TOF
Instrument: impact HD
Ion_mode: N
InChIKey: KMOUJOKENFFTPU-QNDFHXLGSA-N
Formula: C21H20O10
MW: 432
ExactMass: 432.10564683999996
Comments: "license=License CC-BY-NC-SA 4.0 International" "author=Plant Biology, The Noble Foundation, Ardmore, OK, US/Dennis Fine, Daniel Wherritt, and Lloyd Sumner" "instrument type=LC-ESI-TOF" "instrument=impact HD" "ionization=ESI" "ionization mode=negative" "collision gas=Nitrogen" "peak width=0.013" "date=2014-01-04 11:22:09+01:00" "column=Waters Acquity BEH C18 1.7um x 2.1 x 150 mm" "retention time=388.2" "raw data file=C:\Data\Confirmed Standards\Confirmed stds MSMS 2Jan14\Apigenin-7-O-glucoside _MSMS_2412.d" "cas number=578-74-5" "SMILES=c1cc(ccc1c2cc(=O)c3c(cc(cc3o2)O[C@H]4[C@@H]([C@H]([C@@H]([C@H](O4)CO)O)O)O)O)O" "InChI=InChI=1S/C21H20O10/c22-8-16-18(26)19(27)20(28)21(31-16)29-11-5-12(24)17-13(25)7-14(30-15(17)6-11)9-1-3-10(23)4-2-9/h1-7,16,18-24,26-28H,8H2/t16-,18-,19+,20-,21-/m1/s1" "InChIKey=KMOUJOKENFFTPU-QNDFHXLGSA-N" "molecular formula=C21H20O10" "total exact mass=432.10564683999996" "SMILES=C1=CC(=CC=C1C2=CC(=O)C3=C(C=C(C=C3O2)OC4C(C(C(C(O4)CO)O)O)O)O)O" "InChI=InChI=1S/C21H20O10/c22-8-16-18(26)19(27)20(28)21(31-16)29-11-5-12(24)17-13(25)7-14(30-15(17)6-11)9-1-3-10(23)4-2-9/h1-7,16,18-24,26-28H,8H2" "InChIKey=KMOUJOKENFFTPU-UHFFFAOYSA-N"
Num Peaks: 12
 112 0.800801; 
 431 100.000000; 
 432 19.719720; 
 433 3.303303; 
 499 5.805806; 
 500 1.001001; 
 556 1.001001; 
 567 1.401401; 
 666 3.703704; 
 863 6.206206; 
 864 2.502503; 
 865 0.800801; 


Name: Apigenin-7-neohesperidoside
Synon: Rhoifolin
SYNON: $:00in-source
DB#: MetaboBASE0717
InChIKey: RPMNUQRUHXIGHK-PYXJVEIZSA-N
Precursor_type: [M-H]-
Spectrum_type: MS2
PrecursorMZ: 577.1615
Instrument_type: LC-ESI-TOF
Instrument: impact HD
Ion_mode: N
Collision_energy: 10
InChIKey: RPMNUQRUHXIGHK-PYXJVEIZSA-N
Formula: C27H30O14
MW: 578
ExactMass: 578.1635556399999
Comments: "license=License CC-BY-NC-SA 4.0 International" "author=Plant Biology, The Noble Foundation, Ardmore, OK, US/Dennis Fine, Daniel Wherritt, and Lloyd Sumner" "instrument type=LC-ESI-TOF" "instrument=impact HD" "ionization=ESI" "ionization mode=negative" "ms level=MS2" "precursor m/z=577.1615" "isolation width=5" "collision gas=Nitrogen" "collision energy=10" "peak width=0.013" "date=2014-01-11 07:21:22+01:00" "column=Waters Acquity BEH C18 1.7um x 2.1 x 150 mm" "retention time=404.4" "raw data file=C:\Data\Confirmed Standards\14Jan10 Confirmed stds MSMS\Apigenin7neohesperidoside_MSMS.d" "precursor type=[M-H]-" "mass accuracy=9.04488605040415" "mass error=0.005220360000180335" "cas number=17306-46-6" "SMILES=C[C@H]1[C@@H]([C@H]([C@H]([C@@H](O1)O[C@@H]2[C@H]([C@@H]([C@H](O[C@H]2Oc3cc(c4c(=O)cc(oc4c3)c5ccc(cc5)O)O)CO)O)O)O)O)O" "InChI=InChI=1S/C27H30O14/c1-10-20(32)22(34)24(36)26(37-10)41-25-23(35)21(33)18(9-28)40-27(25)38-13-6-14(30)19-15(31)8-16(39-17(19)7-13)11-2-4-12(29)5-3-11/h2-8,10,18,20-30,32-36H,9H2,1H3/t10-,18+,20-,21+,22+,23-,24+,25+,26-,27+/m0/s1" "InChIKey=RPMNUQRUHXIGHK-PYXJVEIZSA-N" "molecular formula=C27H30O14" "total exact mass=578.1635556399999" "SMILES=CC1C(C(C(C(O1)OC2C(C(C(OC2OC3=CC(=C4C(=C3)OC(=CC4=O)C5=CC=C(C=C5)O)O)CO)O)O)O)O)O"
Num Peaks: 4
 386 5.305305; 
 577 100.000000; 
 578 25.125125; 
 579 5.405405; 


Name: Apigenin-7-neohesperidoside
Synon: Rhoifolin
SYNON: $:00in-source
DB#: MetaboBASE0718
InChIKey: RPMNUQRUHXIGHK-PYXJVEIZSA-N
Precursor_type: [M-H]-
Spectrum_type: MS2
PrecursorMZ: 577.161
Instrument_type: LC-ESI-TOF
Instrument: impact HD
Ion_mode: N
Collision_energy: 20
InChIKey: RPMNUQRUHXIGHK-PYXJVEIZSA-N
Formula: C27H30O14
MW: 578
ExactMass: 578.1635556399999
Comments: "license=License CC-BY-NC-SA 4.0 International" "author=Plant Biology, The Noble Foundation, Ardmore, OK, US/Dennis Fine, Daniel Wherritt, and Lloyd Sumner" "instrument type=LC-ESI-TOF" "instrument=impact HD" "ionization=ESI" "ionization mode=negative" "ms level=MS2" "precursor m/z=577.161" "isolation width=5" "collision gas=Nitrogen" "collision energy=20" "peak width=0.012" "date=2014-01-11 07:21:22+01:00" "column=Waters Acquity BEH C18 1.7um x 2.1 x 150 mm" "retention time=404.4" "raw data file=C:\Data\Confirmed Standards\14Jan10 Confirmed stds MSMS\Apigenin7neohesperidoside_MSMS.d" "precursor type=[M-H]-" "mass accuracy=8.178584485227645" "mass error=0.004720360000078472" "cas number=17306-46-6" "SMILES=C[C@H]1[C@@H]([C@H]([C@H]([C@@H](O1)O[C@@H]2[C@H]([C@@H]([C@H](O[C@H]2Oc3cc(c4c(=O)cc(oc4c3)c5ccc(cc5)O)O)CO)O)O)O)O)O" "InChI=InChI=1S/C27H30O14/c1-10-20(32)22(34)24(36)26(37-10)41-25-23(35)21(33)18(9-28)40-27(25)38-13-6-14(30)19-15(31)8-16(39-17(19)7-13)11-2-4-12(29)5-3-11/h2-8,10,18,20-30,32-36H,9H2,1H3/t10-,18+,20-,21+,22+,23-,24+,25+,26-,27+/m0/s1" "InChIKey=RPMNUQRUHXIGHK-PYXJVEIZSA-N" "molecular formula=C27H30O14" "total exact mass=578.1635556399999" "SMILES=CC1C(C(C(C(O1)OC2C(C(C(OC2OC3=CC(=C4C(=C3)OC(=CC4=O)C5=CC=C(C=C5)O)O)CO)O)O)O)O)O"
Num Peaks: 5
 269 9.209209; 
 577 100.000000; 
 578 42.542543; 
 579 9.509510; 
 1200 5.205205; 


Name: Apigenin-7-neohesperidoside
Synon: Rhoifolin
SYNON: $:00in-source
DB#: MetaboBASE0719
InChIKey: RPMNUQRUHXIGHK-PYXJVEIZSA-N
Instrument_type: LC-ESI-TOF
Instrument: impact HD
Ion_mode: N
InChIKey: RPMNUQRUHXIGHK-PYXJVEIZSA-N
Formula: C27H30O14
MW: 578
ExactMass: 578.16355564
Comments: "license=License CC-BY-NC-SA 4.0 International" "author=Plant Biology, The Noble Foundation, Ardmore, OK, US/Dennis Fine, Daniel Wherritt, and Lloyd Sumner" "instrument type=LC-ESI-TOF" "instrument=impact HD" "ionization=ESI" "ionization mode=negative" "collision gas=Nitrogen" "peak width=0.012" "date=2014-01-04 07:58:30+01:00" "column=Waters Acquity BEH C18 1.7um x 2.1 x 150 mm" "retention time=404.4" "raw data file=C:\Data\Confirmed Standards\Confirmed stds MSMS 2Jan14\Apigenin7neohesperidoside_MSMS_2407.d" "cas number=17306-46-6" "SMILES=C[C@H]1[C@@H]([C@H]([C@H]([C@@H](O1)O[C@@H]2[C@H]([C@@H]([C@H](O[C@H]2Oc3cc(c4c(=O)cc(oc4c3)c5ccc(cc5)O)O)CO)O)O)O)O)O" "InChI=InChI=1S/C27H30O14/c1-10-20(32)22(34)24(36)26(37-10)41-25-23(35)21(33)18(9-28)40-27(25)38-13-6-14(30)19-15(31)8-16(39-17(19)7-13)11-2-4-12(29)5-3-11/h2-8,10,18,20-30,32-36H,9H2,1H3/t10-,18+,20-,21+,22+,23-,24+,25+,26-,27+/m0/s1" "InChIKey=RPMNUQRUHXIGHK-PYXJVEIZSA-N" "molecular formula=C27H30O14" "total exact mass=578.16355564" "SMILES=CC1C(C(C(C(O1)OC2C(C(C(OC2OC3=CC(=C4C(=C3)OC(=CC4=O)C5=CC=C(C=C5)O)O)CO)O)O)O)O)O"
Num Peaks: 20
 556 1.201201; 
 577 100.000000; 
 577 7.607608; 
 578 23.523524; 
 579 3.603604; 
 623 14.214214; 
 624 4.204204; 
 625 1.201201; 
 645 5.705706; 
 646 1.601602; 
 666 4.404404; 
 691 2.102102; 
 695 1.501502; 
 866 5.205205; 
 866 4.504505; 
 867 2.202202; 
 867 1.001001; 
 1155 1.801802; 
 1155 1.501502; 
 1156 1.301301; 


Name: Apigenin-7-neohesperidoside
Synon: Rhoifolin
SYNON: $:00in-source
DB#: MetaboBASE0720
InChIKey: RPMNUQRUHXIGHK-PYXJVEIZSA-N
Precursor_type: [M-H]-
Spectrum_type: MS2
PrecursorMZ: 577.1622
Instrument_type: LC-ESI-TOF
Instrument: impact HD
Ion_mode: N
Collision_energy: 30
InChIKey: RPMNUQRUHXIGHK-PYXJVEIZSA-N
Formula: C27H30O14
MW: 578
ExactMass: 578.1635556399999
Comments: "license=License CC-BY-NC-SA 4.0 International" "author=Plant Biology, The Noble Foundation, Ardmore, OK, US/Dennis Fine, Daniel Wherritt, and Lloyd Sumner" "instrument type=LC-ESI-TOF" "instrument=impact HD" "ionization=ESI" "ionization mode=negative" "ms level=MS2" "precursor m/z=577.1622" "isolation width=5" "collision gas=Nitrogen" "collision energy=30" "peak width=0.015" "date=2014-01-11 07:21:22+01:00" "column=Waters Acquity BEH C18 1.7um x 2.1 x 150 mm" "retention time=404.4" "raw data file=C:\Data\Confirmed Standards\14Jan10 Confirmed stds MSMS\Apigenin7neohesperidoside_MSMS.d" "precursor type=[M-H]-" "mass accuracy=10.25770571967171" "mass error=0.005920360000118308" "cas number=17306-46-6" "SMILES=C[C@H]1[C@@H]([C@H]([C@H]([C@@H](O1)O[C@@H]2[C@H]([C@@H]([C@H](O[C@H]2Oc3cc(c4c(=O)cc(oc4c3)c5ccc(cc5)O)O)CO)O)O)O)O)O" "InChI=InChI=1S/C27H30O14/c1-10-20(32)22(34)24(36)26(37-10)41-25-23(35)21(33)18(9-28)40-27(25)38-13-6-14(30)19-15(31)8-16(39-17(19)7-13)11-2-4-12(29)5-3-11/h2-8,10,18,20-30,32-36H,9H2,1H3/t10-,18+,20-,21+,22+,23-,24+,25+,26-,27+/m0/s1" "InChIKey=RPMNUQRUHXIGHK-PYXJVEIZSA-N" "molecular formula=C27H30O14" "total exact mass=578.1635556399999" "SMILES=CC1C(C(C(C(O1)OC2C(C(C(OC2OC3=CC(=C4C(=C3)OC(=CC4=O)C5=CC=C(C=C5)O)O)CO)O)O)O)O)O"
Num Peaks: 5
 269 76.776777; 
 270 9.709710; 
 577 100.000000; 
 578 38.838839; 
 579 10.710711; 


Name: Apigenin-7-neohesperidoside
Synon: Rhoifolin
SYNON: $:00in-source
DB#: MetaboBASE0721
InChIKey: RPMNUQRUHXIGHK-PYXJVEIZSA-N
Precursor_type: [M-H]-
Spectrum_type: MS2
PrecursorMZ: 577.1603
Instrument_type: LC-ESI-TOF
Instrument: impact HD
Ion_mode: N
Collision_energy: 40
InChIKey: RPMNUQRUHXIGHK-PYXJVEIZSA-N
Formula: C27H30O14
MW: 578
ExactMass: 578.16355564
Comments: "license=License CC-BY-NC-SA 4.0 International" "author=Plant Biology, The Noble Foundation, Ardmore, OK, US/Dennis Fine, Daniel Wherritt, and Lloyd Sumner" "instrument type=LC-ESI-TOF" "instrument=impact HD" "ionization=ESI" "ionization mode=negative" "ms level=MS2" "precursor m/z=577.1603" "isolation width=5" "collision gas=Nitrogen" "collision energy=40" "peak width=0.015" "date=2014-01-11 07:21:22+01:00" "column=Waters Acquity BEH C18 1.7um x 2.1 x 150 mm" "retention time=404.4" "raw data file=C:\Data\Confirmed Standards\14Jan10 Confirmed stds MSMS\Apigenin7neohesperidoside_MSMS.d" "precursor type=[M-H]-" "mass accuracy=6.965759772504818" "mass error=0.0040203600000268125" "cas number=17306-46-6" "SMILES=C[C@H]1[C@@H]([C@H]([C@H]([C@@H](O1)O[C@@H]2[C@H]([C@@H]([C@H](O[C@H]2Oc3cc(c4c(=O)cc(oc4c3)c5ccc(cc5)O)O)CO)O)O)O)O)O" "InChI=InChI=1S/C27H30O14/c1-10-20(32)22(34)24(36)26(37-10)41-25-23(35)21(33)18(9-28)40-27(25)38-13-6-14(30)19-15(31)8-16(39-17(19)7-13)11-2-4-12(29)5-3-11/h2-8,10,18,20-30,32-36H,9H2,1H3/t10-,18+,20-,21+,22+,23-,24+,25+,26-,27+/m0/s1" "InChIKey=RPMNUQRUHXIGHK-PYXJVEIZSA-N" "molecular formula=C27H30O14" "total exact mass=578.16355564" "SMILES=CC1C(C(C(C(O1)OC2C(C(C(OC2OC3=CC(=C4C(=C3)OC(=CC4=O)C5=CC=C(C=C5)O)O)CO)O)O)O)O)O"
Num Peaks: 6
 268 7.307307; 
 269 100.000000; 
 270 15.715716; 
 271 2.502503; 
 577 10.510511; 
 578 3.303303; 


Name: Apigenin-7-neohesperidoside
Synon: Rhoifolin
SYNON: $:00in-source
DB#: MetaboBASE0722
InChIKey: RPMNUQRUHXIGHK-PYXJVEIZSA-N
Instrument_type: LC-ESI-TOF
Instrument: impact HD
Ion_mode: N
InChIKey: RPMNUQRUHXIGHK-PYXJVEIZSA-N
Formula: C27H30O14
MW: 578
ExactMass: 578.16355564
Comments: "license=License CC-BY-NC-SA 4.0 International" "author=Plant Biology, The Noble Foundation, Ardmore, OK, US/Dennis Fine, Daniel Wherritt, and Lloyd Sumner" "instrument type=LC-ESI-TOF" "instrument=impact HD" "ionization=ESI" "ionization mode=negative" "collision gas=Nitrogen" "peak width=0.0092" "date=2014-01-11 07:21:22+01:00" "column=Waters Acquity BEH C18 1.7um x 2.1 x 150 mm" "retention time=404.4" "raw data file=C:\Data\Confirmed Standards\14Jan10 Confirmed stds MSMS\Apigenin7neohesperidoside_MSMS.d" "cas number=17306-46-6" "SMILES=C[C@H]1[C@@H]([C@H]([C@H]([C@@H](O1)O[C@@H]2[C@H]([C@@H]([C@H](O[C@H]2Oc3cc(c4c(=O)cc(oc4c3)c5ccc(cc5)O)O)CO)O)O)O)O)O" "InChI=InChI=1S/C27H30O14/c1-10-20(32)22(34)24(36)26(37-10)41-25-23(35)21(33)18(9-28)40-27(25)38-13-6-14(30)19-15(31)8-16(39-17(19)7-13)11-2-4-12(29)5-3-11/h2-8,10,18,20-30,32-36H,9H2,1H3/t10-,18+,20-,21+,22+,23-,24+,25+,26-,27+/m0/s1" "InChIKey=RPMNUQRUHXIGHK-PYXJVEIZSA-N" "molecular formula=C27H30O14" "total exact mass=578.16355564" "SMILES=CC1C(C(C(C(O1)OC2C(C(C(OC2OC3=CC(=C4C(=C3)OC(=CC4=O)C5=CC=C(C=C5)O)O)CO)O)O)O)O)O"
Num Peaks: 6
 268 7.207207; 
 269 100.000000; 
 270 11.411411; 
 577 66.366366; 
 578 16.916917; 
 579 2.902903; 


Name: Acacetin-5-O-xyloside
SYNON: $:00in-source
DB#: MetaboBASE0723
InChIKey: NCCOYBTYDAMVTO-ZQEFQCJFSA-N
Spectrum_type: MS2
PrecursorMZ: 415.1048
Instrument_type: LC-ESI-TOF
Instrument: impact HD
Ion_mode: N
Collision_energy: 10
InChIKey: NCCOYBTYDAMVTO-ZQEFQCJFSA-N
Formula: C21H20O9
MW: 416
ExactMass: 416.11073222
Comments: "license=License CC-BY-NC-SA 4.0 International" "author=Plant Biology, The Noble Foundation, Ardmore, OK, US/Dennis Fine, Daniel Wherritt, and Lloyd Sumner" "instrument type=LC-ESI-TOF" "instrument=impact HD" "ionization=ESI" "ionization mode=negative" "ms level=MS2" "precursor m/z=415.1048" "isolation width=5" "collision gas=Nitrogen" "collision energy=10" "peak width=0.011" "date=2014-01-04 05:56:17+01:00" "column=Waters Acquity BEH C18 1.7um x 2.1 x 150 mm" "retention time=623.4" "raw data file=C:\Data\Confirmed Standards\Confirmed stds MSMS 2Jan14\Acacetin-5-O-xyloside v301_MSM_2404.d" "Last Auto-Curation=1505110158930" "molecular formula=C21H20O9" "total exact mass=416.11073222" "SMILES=[H]OC=1C([H])=C2OC(=C([H])C(=O)C2=C(OC3([H])OC([H])([H])C([H])(O[H])C([H])(O[H])C3([H])O[H])C1[H])C=4C([H])=C([H])C(OC([H])([H])[H])=C([H])C4[H]" "InChI=InChI=1S/C21H20O9/c1-27-12-4-2-10(3-5-12)15-8-13(23)18-16(29-15)6-11(22)7-17(18)30-21-20(26)19(25)14(24)9-28-21/h2-8,14,19-22,24-26H,9H2,1H3/t14-,19+,20-,21+/m1/s1" "InChIKey=NCCOYBTYDAMVTO-ZQEFQCJFSA-N"
Num Peaks: 4
 283 1.201201; 
 415 100.000000; 
 416 15.115115; 
 417 2.502503; 


Name: Acacetin-5-O-xyloside
SYNON: $:00in-source
DB#: MetaboBASE0724
InChIKey: NCCOYBTYDAMVTO-ZQEFQCJFSA-N
Spectrum_type: MS2
PrecursorMZ: 415.1039
Instrument_type: LC-ESI-TOF
Instrument: impact HD
Ion_mode: N
Collision_energy: 20
InChIKey: NCCOYBTYDAMVTO-ZQEFQCJFSA-N
Formula: C21H20O9
MW: 416
ExactMass: 416.11073222
Comments: "license=License CC-BY-NC-SA 4.0 International" "author=Plant Biology, The Noble Foundation, Ardmore, OK, US/Dennis Fine, Daniel Wherritt, and Lloyd Sumner" "instrument type=LC-ESI-TOF" "instrument=impact HD" "ionization=ESI" "ionization mode=negative" "ms level=MS2" "precursor m/z=415.1039" "isolation width=5" "collision gas=Nitrogen" "collision energy=20" "peak width=0.012" "date=2014-01-04 05:56:17+01:00" "column=Waters Acquity BEH C18 1.7um x 2.1 x 150 mm" "retention time=623.4" "raw data file=C:\Data\Confirmed Standards\Confirmed stds MSMS 2Jan14\Acacetin-5-O-xyloside v301_MSM_2404.d" "Last Auto-Curation=1505110935069" "molecular formula=C21H20O9" "total exact mass=416.11073222" "SMILES=[H]OC=1C([H])=C2OC(=C([H])C(=O)C2=C(OC3([H])OC([H])([H])C([H])(O[H])C([H])(O[H])C3([H])O[H])C1[H])C=4C([H])=C([H])C(OC([H])([H])[H])=C([H])C4[H]" "InChI=InChI=1S/C21H20O9/c1-27-12-4-2-10(3-5-12)15-8-13(23)18-16(29-15)6-11(22)7-17(18)30-21-20(26)19(25)14(24)9-28-21/h2-8,14,19-22,24-26H,9H2,1H3/t14-,19+,20-,21+/m1/s1" "InChIKey=NCCOYBTYDAMVTO-ZQEFQCJFSA-N"
Num Peaks: 8
 268 1.301301; 
 283 42.342342; 
 284 5.905906; 
 285 1.401401; 
 325 0.600601; 
 415 100.000000; 
 416 11.811812; 
 417 1.501502; 


Name: Acacetin-5-O-xyloside
SYNON: $:00in-source
DB#: MetaboBASE0725
InChIKey: NCCOYBTYDAMVTO-ZQEFQCJFSA-N
Spectrum_type: MS2
PrecursorMZ: 415.1034
Instrument_type: LC-ESI-TOF
Instrument: impact HD
Ion_mode: N
Collision_energy: 30
InChIKey: NCCOYBTYDAMVTO-ZQEFQCJFSA-N
Formula: C21H20O9
MW: 416
ExactMass: 416.11073222
Comments: "license=License CC-BY-NC-SA 4.0 International" "author=Plant Biology, The Noble Foundation, Ardmore, OK, US/Dennis Fine, Daniel Wherritt, and Lloyd Sumner" "instrument type=LC-ESI-TOF" "instrument=impact HD" "ionization=ESI" "ionization mode=negative" "ms level=MS2" "precursor m/z=415.1034" "isolation width=5" "collision gas=Nitrogen" "collision energy=30" "peak width=0.011" "date=2014-01-04 05:56:17+01:00" "column=Waters Acquity BEH C18 1.7um x 2.1 x 150 mm" "retention time=623.4" "raw data file=C:\Data\Confirmed Standards\Confirmed stds MSMS 2Jan14\Acacetin-5-O-xyloside v301_MSM_2404.d" "Last Auto-Curation=1505110935368" "molecular formula=C21H20O9" "total exact mass=416.11073222" "SMILES=[H]OC=1C([H])=C2OC(=C([H])C(=O)C2=C(OC3([H])OC([H])([H])C([H])(O[H])C([H])(O[H])C3([H])O[H])C1[H])C=4C([H])=C([H])C(OC([H])([H])[H])=C([H])C4[H]" "InChI=InChI=1S/C21H20O9/c1-27-12-4-2-10(3-5-12)15-8-13(23)18-16(29-15)6-11(22)7-17(18)30-21-20(26)19(25)14(24)9-28-21/h2-8,14,19-22,24-26H,9H2,1H3/t14-,19+,20-,21+/m1/s1" "InChIKey=NCCOYBTYDAMVTO-ZQEFQCJFSA-N"
Num Peaks: 13
 225 0.500501; 
 239 0.900901; 
 268 8.308308; 
 269 1.601602; 
 282 0.800801; 
 283 100.000000; 
 284 11.311311; 
 285 1.601602; 
 325 1.201201; 
 400 0.900901; 
 415 10.010010; 
 416 1.401401; 
 417 0.400400; 


Name: Acacetin-5-O-xyloside
SYNON: $:00in-source
DB#: MetaboBASE0726
InChIKey: NCCOYBTYDAMVTO-ZQEFQCJFSA-N
Spectrum_type: MS2
PrecursorMZ: 415.1041
Instrument_type: LC-ESI-TOF
Instrument: impact HD
Ion_mode: N
Collision_energy: 40
InChIKey: NCCOYBTYDAMVTO-ZQEFQCJFSA-N
Formula: C21H20O9
MW: 416
ExactMass: 416.11073222
Comments: "license=License CC-BY-NC-SA 4.0 International" "author=Plant Biology, The Noble Foundation, Ardmore, OK, US/Dennis Fine, Daniel Wherritt, and Lloyd Sumner" "instrument type=LC-ESI-TOF" "instrument=impact HD" "ionization=ESI" "ionization mode=negative" "ms level=MS2" "precursor m/z=415.1041" "isolation width=5" "collision gas=Nitrogen" "collision energy=40" "peak width=0.015" "date=2014-01-04 05:56:17+01:00" "column=Waters Acquity BEH C18 1.7um x 2.1 x 150 mm" "retention time=623.4" "raw data file=C:\Data\Confirmed Standards\Confirmed stds MSMS 2Jan14\Acacetin-5-O-xyloside v301_MSM_2404.d" "Last Auto-Curation=1505110159444" "molecular formula=C21H20O9" "total exact mass=416.11073222" "SMILES=[H]OC=1C([H])=C2OC(=C([H])C(=O)C2=C(OC3([H])OC([H])([H])C([H])(O[H])C([H])(O[H])C3([H])O[H])C1[H])C=4C([H])=C([H])C(OC([H])([H])[H])=C([H])C4[H]" "InChI=InChI=1S/C21H20O9/c1-27-12-4-2-10(3-5-12)15-8-13(23)18-16(29-15)6-11(22)7-17(18)30-21-20(26)19(25)14(24)9-28-21/h2-8,14,19-22,24-26H,9H2,1H3/t14-,19+,20-,21+/m1/s1" "InChIKey=NCCOYBTYDAMVTO-ZQEFQCJFSA-N"
Num Peaks: 16
 224 1.801802; 
 239 4.404404; 
 239 3.403403; 
 240 1.501502; 
 252 1.401401; 
 254 1.801802; 
 255 1.301301; 
 267 3.303303; 
 268 75.075075; 
 269 10.010010; 
 270 1.701702; 
 282 2.502503; 
 283 100.000000; 
 284 13.613614; 
 285 1.301301; 
 415 1.001001; 


Name: Acacetin-5-O-xyloside
SYNON: $:00in-source
DB#: MetaboBASE0727
InChIKey: NCCOYBTYDAMVTO-ZQEFQCJFSA-N
Spectrum_type: MS2
PrecursorMZ: 415.2
Instrument_type: LC-ESI-TOF
Instrument: impact HD
Ion_mode: N
Collision_energy: 50
InChIKey: NCCOYBTYDAMVTO-ZQEFQCJFSA-N
Formula: C21H20O9
MW: 416
ExactMass: 416.11073222
Comments: "license=License CC-BY-NC-SA 4.0 International" "author=Plant Biology, The Noble Foundation, Ardmore, OK, US/Dennis Fine, Daniel Wherritt, and Lloyd Sumner" "instrument type=LC-ESI-TOF" "instrument=impact HD" "ionization=ESI" "ionization mode=negative" "ms level=MS2" "precursor m/z=415.2" "isolation width=5" "collision gas=Nitrogen" "collision energy=50" "peak width=0.015" "date=2014-01-04 05:56:17+01:00" "column=Waters Acquity BEH C18 1.7um x 2.1 x 150 mm" "retention time=623.4" "raw data file=C:\Data\Confirmed Standards\Confirmed stds MSMS 2Jan14\Acacetin-5-O-xyloside v301_MSM_2404.d" "Last Auto-Curation=1505110159644" "molecular formula=C21H20O9" "total exact mass=416.11073222" "SMILES=[H]OC=1C([H])=C2OC(=C([H])C(=O)C2=C(OC3([H])OC([H])([H])C([H])(O[H])C([H])(O[H])C3([H])O[H])C1[H])C=4C([H])=C([H])C(OC([H])([H])[H])=C([H])C4[H]" "InChI=InChI=1S/C21H20O9/c1-27-12-4-2-10(3-5-12)15-8-13(23)18-16(29-15)6-11(22)7-17(18)30-21-20(26)19(25)14(24)9-28-21/h2-8,14,19-22,24-26H,9H2,1H3/t14-,19+,20-,21+/m1/s1" "InChIKey=NCCOYBTYDAMVTO-ZQEFQCJFSA-N"
Num Peaks: 12
 151 1.401401; 
 224 3.103103; 
 239 13.013013; 
 239 4.504505; 
 240 4.604605; 
 254 1.201201; 
 267 9.909910; 
 268 100.000000; 
 269 16.516517; 
 270 1.201201; 
 283 21.321321; 
 284 3.003003; 


Name: Acacetin-5-O-xyloside
SYNON: $:00in-source
DB#: MetaboBASE0728
InChIKey: NCCOYBTYDAMVTO-ZQEFQCJFSA-N
Instrument_type: LC-ESI-TOF
Instrument: impact HD
Ion_mode: N
InChIKey: NCCOYBTYDAMVTO-ZQEFQCJFSA-N
Formula: C21H20O9
MW: 416
ExactMass: 416.11073222
Comments: "license=License CC-BY-NC-SA 4.0 International" "author=Plant Biology, The Noble Foundation, Ardmore, OK, US/Dennis Fine, Daniel Wherritt, and Lloyd Sumner" "instrument type=LC-ESI-TOF" "instrument=impact HD" "ionization=ESI" "ionization mode=negative" "collision gas=Nitrogen" "peak width=0.014" "date=2014-01-04 05:56:17+01:00" "column=Waters Acquity BEH C18 1.7um x 2.1 x 150 mm" "retention time=623.4" "raw data file=C:\Data\Confirmed Standards\Confirmed stds MSMS 2Jan14\Acacetin-5-O-xyloside v301_MSM_2404.d" "Last Auto-Curation=1505111294391" "molecular formula=C21H20O9" "total exact mass=416.11073222" "SMILES=[H]OC=1C([H])=C2OC(=C([H])C(=O)C2=C(OC3([H])OC([H])([H])C([H])(O[H])C([H])(O[H])C3([H])O[H])C1[H])C=4C([H])=C([H])C(OC([H])([H])[H])=C([H])C4[H]" "InChI=InChI=1S/C21H20O9/c1-27-12-4-2-10(3-5-12)15-8-13(23)18-16(29-15)6-11(22)7-17(18)30-21-20(26)19(25)14(24)9-28-21/h2-8,14,19-22,24-26H,9H2,1H3/t14-,19+,20-,21+/m1/s1" "InChIKey=NCCOYBTYDAMVTO-ZQEFQCJFSA-N"
Num Peaks: 15
 116 0.900901; 
 415 100.000000; 
 416 17.417417; 
 417 2.402402; 
 483 5.605606; 
 484 0.900901; 
 551 1.101101; 
 666 7.207207; 
 667 1.001001; 
 831 17.517518; 
 832 6.506507; 
 833 1.801802; 
 899 0.900901; 
 1247 2.302302; 
 1248 1.301301; 


Name: 3,7,4'-Trihydroxyflavone
Synon: 5-Deoxykampferol
SYNON: $:00in-source
DB#: MetaboBASE0729
InChIKey: OBWHQJYOOCRPST-UHFFFAOYSA-N
Precursor_type: [M-H]-
Spectrum_type: MS2
PrecursorMZ: 269
Instrument_type: LC-ESI-TOF
Instrument: impact HD
Ion_mode: N
Collision_energy: 40
InChIKey: OBWHQJYOOCRPST-UHFFFAOYSA-N
Formula: C15H10O5
MW: 270
ExactMass: 270.05282342
Comments: "license=License CC-BY-NC-SA 4.0 International" "author=Plant Biology, The Noble Foundation, Ardmore, OK, US/Dennis Fine, Daniel Wherritt, and Lloyd Sumner" "instrument type=LC-ESI-TOF" "instrument=impact HD" "ionization=ESI" "ionization mode=negative" "ms level=MS2" "precursor m/z=269" "isolation width=5" "collision gas=Nitrogen" "collision energy=40" "peak width=0.012" "date=2014-01-04 17:28:45+01:00" "column=Waters Acquity BEH C18 1.7um x 2.1 x 150 mm" "retention time=478.2" "raw data file=C:\Data\Confirmed Standards\Confirmed stds MSMS 2Jan14\374'Trihydroxyflavone _MSMS.d" "precursor type=[M-H]-" "mass accuracy=169.32126394048785" "mass error=-0.045547419999991234" "cas number=2034-65-3" "SMILES=c1cc(ccc1c2c(c(=O)c3ccc(cc3o2)O)O)O" "InChI=InChI=1S/C15H10O5/c16-9-3-1-8(2-4-9)15-14(19)13(18)11-6-5-10(17)7-12(11)20-15/h1-7,16-17,19H" "InChIKey=OBWHQJYOOCRPST-UHFFFAOYSA-N" "molecular formula=C15H10O5" "total exact mass=270.05282342" "SMILES=C1=CC(=CC=C1C2=C(C(=O)C3=C(O2)C=C(C=C3)O)O)O"
Num Peaks: 5
 195 36.936937; 
 211 49.149149; 
 223 100.000000; 
 224 61.761762; 
 239 51.251251; 


Name: 3,7,4'-Trihydroxyflavone
Synon: 5-Deoxykampferol
SYNON: $:00in-source
DB#: MetaboBASE0730
InChIKey: OBWHQJYOOCRPST-UHFFFAOYSA-N
Precursor_type: [M-H]-
Spectrum_type: MS2
PrecursorMZ: 269.0444
Instrument_type: LC-ESI-TOF
Instrument: impact HD
Ion_mode: N
Collision_energy: 10
InChIKey: OBWHQJYOOCRPST-UHFFFAOYSA-N
Formula: C15H10O5
MW: 270
ExactMass: 270.05282342
Comments: "license=License CC-BY-NC-SA 4.0 International" "author=Plant Biology, The Noble Foundation, Ardmore, OK, US/Dennis Fine, Daniel Wherritt, and Lloyd Sumner" "instrument type=LC-ESI-TOF" "instrument=impact HD" "ionization=ESI" "ionization mode=negative" "ms level=MS2" "precursor m/z=269.0444" "isolation width=5" "collision gas=Nitrogen" "collision energy=10" "peak width=0.015" "date=2014-01-04 17:28:45+01:00" "column=Waters Acquity BEH C18 1.7um x 2.1 x 150 mm" "retention time=478.2" "raw data file=C:\Data\Confirmed Standards\Confirmed stds MSMS 2Jan14\374'Trihydroxyflavone _MSMS.d" "precursor type=[M-H]-" "mass accuracy=4.264797929246014" "mass error=-0.0011474199999952361" "cas number=2034-65-3" "SMILES=c1cc(ccc1c2c(c(=O)c3ccc(cc3o2)O)O)O" "InChI=InChI=1S/C15H10O5/c16-9-3-1-8(2-4-9)15-14(19)13(18)11-6-5-10(17)7-12(11)20-15/h1-7,16-17,19H" "InChIKey=OBWHQJYOOCRPST-UHFFFAOYSA-N" "molecular formula=C15H10O5" "total exact mass=270.05282342" "SMILES=C1=CC(=CC=C1C2=C(C(=O)C3=C(O2)C=C(C=C3)O)O)O"
Num Peaks: 3
 269 100.000000; 
 270 12.612613; 
 271 1.701702; 


Name: 3,7,4'-Trihydroxyflavone
Synon: 5-Deoxykampferol
SYNON: $:00in-source
DB#: MetaboBASE0731
InChIKey: OBWHQJYOOCRPST-UHFFFAOYSA-N
Precursor_type: [M-H]-
Spectrum_type: MS2
PrecursorMZ: 269.0408
Instrument_type: LC-ESI-TOF
Instrument: impact HD
Ion_mode: N
Collision_energy: 20
InChIKey: OBWHQJYOOCRPST-UHFFFAOYSA-N
Formula: C15H10O5
MW: 270
ExactMass: 270.05282342
Comments: "license=License CC-BY-NC-SA 4.0 International" "author=Plant Biology, The Noble Foundation, Ardmore, OK, US/Dennis Fine, Daniel Wherritt, and Lloyd Sumner" "instrument type=LC-ESI-TOF" "instrument=impact HD" "ionization=ESI" "ionization mode=negative" "ms level=MS2" "precursor m/z=269.0408" "isolation width=5" "collision gas=Nitrogen" "collision energy=20" "peak width=0.014" "date=2014-01-04 17:28:45+01:00" "column=Waters Acquity BEH C18 1.7um x 2.1 x 150 mm" "retention time=478.2" "raw data file=C:\Data\Confirmed Standards\Confirmed stds MSMS 2Jan14\374'Trihydroxyflavone _MSMS.d" "precursor type=[M-H]-" "mass accuracy=17.645725109355375" "mass error=-0.004747420000001057" "cas number=2034-65-3" "SMILES=c1cc(ccc1c2c(c(=O)c3ccc(cc3o2)O)O)O" "InChI=InChI=1S/C15H10O5/c16-9-3-1-8(2-4-9)15-14(19)13(18)11-6-5-10(17)7-12(11)20-15/h1-7,16-17,19H" "InChIKey=OBWHQJYOOCRPST-UHFFFAOYSA-N" "molecular formula=C15H10O5" "total exact mass=270.05282342" "SMILES=C1=CC(=CC=C1C2=C(C(=O)C3=C(O2)C=C(C=C3)O)O)O"
Num Peaks: 5
 224 1.701702; 
 239 2.302302; 
 269 100.000000; 
 270 10.410410; 
 271 2.302302; 


Name: 3,7,4'-Trihydroxyflavone
Synon: 5-Deoxykampferol
SYNON: $:00in-source
DB#: MetaboBASE0732
InChIKey: OBWHQJYOOCRPST-UHFFFAOYSA-N
Precursor_type: [M-H]-
Spectrum_type: MS2
PrecursorMZ: 269.0439
Instrument_type: LC-ESI-TOF
Instrument: impact HD
Ion_mode: N
Collision_energy: 30
InChIKey: OBWHQJYOOCRPST-UHFFFAOYSA-N
Formula: C15H10O5
MW: 270
ExactMass: 270.05282342
Comments: "license=License CC-BY-NC-SA 4.0 International" "author=Plant Biology, The Noble Foundation, Ardmore, OK, US/Dennis Fine, Daniel Wherritt, and Lloyd Sumner" "instrument type=LC-ESI-TOF" "instrument=impact HD" "ionization=ESI" "ionization mode=negative" "ms level=MS2" "precursor m/z=269.0439" "isolation width=5" "collision gas=Nitrogen" "collision energy=30" "peak width=0.015" "date=2014-01-04 17:28:45+01:00" "column=Waters Acquity BEH C18 1.7um x 2.1 x 150 mm" "retention time=478.2" "raw data file=C:\Data\Confirmed Standards\Confirmed stds MSMS 2Jan14\374'Trihydroxyflavone _MSMS.d" "precursor type=[M-H]-" "mass accuracy=6.123238623820918" "mass error=-0.0016474199999834127" "cas number=2034-65-3" "SMILES=c1cc(ccc1c2c(c(=O)c3ccc(cc3o2)O)O)O" "InChI=InChI=1S/C15H10O5/c16-9-3-1-8(2-4-9)15-14(19)13(18)11-6-5-10(17)7-12(11)20-15/h1-7,16-17,19H" "InChIKey=OBWHQJYOOCRPST-UHFFFAOYSA-N" "molecular formula=C15H10O5" "total exact mass=270.05282342" "SMILES=C1=CC(=CC=C1C2=C(C(=O)C3=C(O2)C=C(C=C3)O)O)O"
Num Peaks: 9
 121 6.806807; 
 197 6.606607; 
 223 18.918919; 
 224 30.030030; 
 239 11.711712; 
 240 7.507508; 
 252 9.009009; 
 269 100.000000; 
 270 14.314314; 


Name: 3,7,4'-Trihydroxyflavone
Synon: 5-Deoxykampferol
SYNON: $:00in-source
DB#: MetaboBASE0733
InChIKey: OBWHQJYOOCRPST-UHFFFAOYSA-N
Instrument_type: LC-ESI-TOF
Instrument: impact HD
Ion_mode: N
InChIKey: OBWHQJYOOCRPST-UHFFFAOYSA-N
Formula: C15H10O5
MW: 270
ExactMass: 270.05282342
Comments: "license=License CC-BY-NC-SA 4.0 International" "author=Plant Biology, The Noble Foundation, Ardmore, OK, US/Dennis Fine, Daniel Wherritt, and Lloyd Sumner" "instrument type=LC-ESI-TOF" "instrument=impact HD" "ionization=ESI" "ionization mode=negative" "collision gas=Nitrogen" "peak width=0.015" "date=2014-01-04 17:28:45+01:00" "column=Waters Acquity BEH C18 1.7um x 2.1 x 150 mm" "retention time=478.2" "raw data file=C:\Data\Confirmed Standards\Confirmed stds MSMS 2Jan14\374'Trihydroxyflavone _MSMS.d" "cas number=2034-65-3" "SMILES=c1cc(ccc1c2c(c(=O)c3ccc(cc3o2)O)O)O" "InChI=InChI=1S/C15H10O5/c16-9-3-1-8(2-4-9)15-14(19)13(18)11-6-5-10(17)7-12(11)20-15/h1-7,16-17,19H" "InChIKey=OBWHQJYOOCRPST-UHFFFAOYSA-N" "molecular formula=C15H10O5" "total exact mass=270.05282342" "SMILES=C1=CC(=CC=C1C2=C(C(=O)C3=C(O2)C=C(C=C3)O)O)O"
Num Peaks: 18
 235 1.001001; 
 242 0.700701; 
 257 3.603604; 
 267 2.702703; 
 269 100.000000; 
 270 12.112112; 
 271 1.501502; 
 285 29.829830; 
 286 5.005005; 
 287 0.700701; 
 331 2.102102; 
 337 1.601602; 
 353 0.800801; 
 539 1.801802; 
 555 1.401401; 
 571 2.402402; 
 572 1.101101; 
 666 1.901902; 


Name: 3',4',7-Trihydroxyisoflavone
SYNON: $:00in-source
DB#: MetaboBASE0734
InChIKey: DDKGKOOLFLYZDL-UHFFFAOYSA-N
Precursor_type: [M-H]-
Spectrum_type: MS2
PrecursorMZ: 269
Instrument_type: LC-ESI-TOF
Instrument: impact HD
Ion_mode: N
Collision_energy: 40
InChIKey: DDKGKOOLFLYZDL-UHFFFAOYSA-N
Formula: C15H10O5
MW: 270
ExactMass: 270.05282342
Comments: "license=License CC-BY-NC-SA 4.0 International" "author=Plant Biology, The Noble Foundation, Ardmore, OK, US/Dennis Fine, Daniel Wherritt, and Lloyd Sumner" "instrument type=LC-ESI-TOF" "instrument=impact HD" "ionization=ESI" "ionization mode=negative" "ms level=MS2" "precursor m/z=269" "isolation width=5" "collision gas=Nitrogen" "collision energy=40" "peak width=0.013" "date=2014-01-05 03:39:43+01:00" "column=Waters Acquity BEH C18 1.7um x 2.1 x 150 mm" "retention time=362.4" "raw data file=C:\Data\Confirmed Standards\Confirmed stds MSMS 2Jan14\73'4'Trihydroxyisoflavone_MSMS.d" "precursor type=[M-H]-" "mass accuracy=169.32126394048785" "mass error=-0.045547419999991234" "cas number=485-63-2" "SMILES=c1cc(c(cc1c2coc3cc(ccc3c2=O)O)O)O" "InChI=InChI=1S/C15H10O5/c16-9-2-3-10-14(6-9)20-7-11(15(10)19)8-1-4-12(17)13(18)5-8/h1-7,16-18H" "InChIKey=DDKGKOOLFLYZDL-UHFFFAOYSA-N" "molecular formula=C15H10O5" "total exact mass=270.05282342" "SMILES=C1=CC(=C(C=C1C2=COC3=C(C2=O)C=CC(=C3)O)O)O"
Num Peaks: 10
 119 58.358358; 
 135 80.980981; 
 195 41.241241; 
 211 69.969970; 
 213 40.540541; 
 223 49.149149; 
 224 41.241241; 
 225 37.637638; 
 226 35.335335; 
 239 100.000000; 


Name: 3',4',7-Trihydroxyisoflavone
SYNON: $:00in-source
DB#: MetaboBASE0735
InChIKey: DDKGKOOLFLYZDL-UHFFFAOYSA-N
Instrument_type: LC-ESI-TOF
Instrument: impact HD
Ion_mode: N
InChIKey: DDKGKOOLFLYZDL-UHFFFAOYSA-N
Formula: C15H10O5
MW: 270
ExactMass: 270.05282342
Comments: "license=License CC-BY-NC-SA 4.0 International" "author=Plant Biology, The Noble Foundation, Ardmore, OK, US/Dennis Fine, Daniel Wherritt, and Lloyd Sumner" "instrument type=LC-ESI-TOF" "instrument=impact HD" "ionization=ESI" "ionization mode=negative" "collision gas=Nitrogen" "peak width=0.012" "date=2014-01-05 03:39:43+01:00" "column=Waters Acquity BEH C18 1.7um x 2.1 x 150 mm" "retention time=362.4" "raw data file=C:\Data\Confirmed Standards\Confirmed stds MSMS 2Jan14\73'4'Trihydroxyisoflavone_MSMS.d" "cas number=485-63-2" "SMILES=c1cc(c(cc1c2coc3cc(ccc3c2=O)O)O)O" "InChI=InChI=1S/C15H10O5/c16-9-2-3-10-14(6-9)20-7-11(15(10)19)8-1-4-12(17)13(18)5-8/h1-7,16-18H" "InChIKey=DDKGKOOLFLYZDL-UHFFFAOYSA-N" "molecular formula=C15H10O5" "total exact mass=270.05282342" "SMILES=C1=CC(=C(C=C1C2=COC3=C(C2=O)C=CC(=C3)O)O)O"
Num Peaks: 17
 235 1.701702; 
 239 1.901902; 
 242 1.101101; 
 248 1.001001; 
 267 100.000000; 
 268 12.912913; 
 269 89.189189; 
 270 11.211211; 
 271 1.701702; 
 283 1.201201; 
 285 2.402402; 
 337 2.502503; 
 535 3.403403; 
 536 1.301301; 
 537 1.401401; 
 539 2.002002; 
 666 1.501502; 


Name: 3',4',7-Trihydroxyisoflavone
SYNON: $:00in-source
DB#: MetaboBASE0736
InChIKey: DDKGKOOLFLYZDL-UHFFFAOYSA-N
Precursor_type: [M-H]-
Spectrum_type: MS2
PrecursorMZ: 269.0458
Instrument_type: LC-ESI-TOF
Instrument: impact HD
Ion_mode: N
Collision_energy: 30
InChIKey: DDKGKOOLFLYZDL-UHFFFAOYSA-N
Formula: C15H10O5
MW: 270
ExactMass: 270.05282342
Comments: "license=License CC-BY-NC-SA 4.0 International" "author=Plant Biology, The Noble Foundation, Ardmore, OK, US/Dennis Fine, Daniel Wherritt, and Lloyd Sumner" "instrument type=LC-ESI-TOF" "instrument=impact HD" "ionization=ESI" "ionization mode=negative" "ms level=MS2" "precursor m/z=269.0458" "isolation width=5" "collision gas=Nitrogen" "collision energy=30" "peak width=0.014" "date=2014-01-05 03:39:43+01:00" "column=Waters Acquity BEH C18 1.7um x 2.1 x 150 mm" "retention time=362.4" "raw data file=C:\Data\Confirmed Standards\Confirmed stds MSMS 2Jan14\73'4'Trihydroxyisoflavone_MSMS.d" "precursor type=[M-H]-" "mass accuracy=0.9387992676131559" "mass error=2.525799999943956E-4" "cas number=485-63-2" "SMILES=c1cc(c(cc1c2coc3cc(ccc3c2=O)O)O)O" "InChI=InChI=1S/C15H10O5/c16-9-2-3-10-14(6-9)20-7-11(15(10)19)8-1-4-12(17)13(18)5-8/h1-7,16-18H" "InChIKey=DDKGKOOLFLYZDL-UHFFFAOYSA-N" "molecular formula=C15H10O5" "total exact mass=270.05282342" "SMILES=C1=CC(=C(C=C1C2=COC3=C(C2=O)C=CC(=C3)O)O)O"
Num Peaks: 17
 133 7.307307; 
 135 15.215215; 
 211 12.812813; 
 213 17.717718; 
 223 6.906907; 
 224 6.906907; 
 225 8.908909; 
 226 14.114114; 
 239 100.000000; 
 240 19.819820; 
 241 39.739740; 
 242 6.906907; 
 252 7.607608; 
 268 8.908909; 
 269 52.052052; 
 270 8.708709; 
 294 5.605606; 


Name: 3',4',7-Trihydroxyisoflavone
SYNON: $:00in-source
DB#: MetaboBASE0737
InChIKey: DDKGKOOLFLYZDL-UHFFFAOYSA-N
Precursor_type: [M-H]-
Spectrum_type: MS2
PrecursorMZ: 269.0449
Instrument_type: LC-ESI-TOF
Instrument: impact HD
Ion_mode: N
Collision_energy: 20
InChIKey: DDKGKOOLFLYZDL-UHFFFAOYSA-N
Formula: C15H10O5
MW: 270
ExactMass: 270.05282342
Comments: "license=License CC-BY-NC-SA 4.0 International" "author=Plant Biology, The Noble Foundation, Ardmore, OK, US/Dennis Fine, Daniel Wherritt, and Lloyd Sumner" "instrument type=LC-ESI-TOF" "instrument=impact HD" "ionization=ESI" "ionization mode=negative" "ms level=MS2" "precursor m/z=269.0449" "isolation width=5" "collision gas=Nitrogen" "collision energy=20" "peak width=0.014" "date=2014-01-05 03:39:43+01:00" "column=Waters Acquity BEH C18 1.7um x 2.1 x 150 mm" "retention time=362.4" "raw data file=C:\Data\Confirmed Standards\Confirmed stds MSMS 2Jan14\73'4'Trihydroxyisoflavone_MSMS.d" "precursor type=[M-H]-" "mass accuracy=2.406364142219606" "mass error=-6.474200000070596E-4" "cas number=485-63-2" "SMILES=c1cc(c(cc1c2coc3cc(ccc3c2=O)O)O)O" "InChI=InChI=1S/C15H10O5/c16-9-2-3-10-14(6-9)20-7-11(15(10)19)8-1-4-12(17)13(18)5-8/h1-7,16-18H" "InChIKey=DDKGKOOLFLYZDL-UHFFFAOYSA-N" "molecular formula=C15H10O5" "total exact mass=270.05282342" "SMILES=C1=CC(=C(C=C1C2=COC3=C(C2=O)C=CC(=C3)O)O)O"
Num Peaks: 12
 213 1.601602; 
 223 2.702703; 
 225 2.702703; 
 226 2.002002; 
 239 71.471471; 
 240 11.111111; 
 241 9.909910; 
 242 2.502503; 
 267 8.408408; 
 269 100.000000; 
 270 11.211211; 
 271 1.801802; 


Name: 3',4',7-Trihydroxyisoflavone
SYNON: $:00in-source
DB#: MetaboBASE0738
InChIKey: DDKGKOOLFLYZDL-UHFFFAOYSA-N
Precursor_type: [M-H]-
Spectrum_type: MS2
PrecursorMZ: 269.0451
Instrument_type: LC-ESI-TOF
Instrument: impact HD
Ion_mode: N
Collision_energy: 10
InChIKey: DDKGKOOLFLYZDL-UHFFFAOYSA-N
Formula: C15H10O5
MW: 270
ExactMass: 270.05282342
Comments: "license=License CC-BY-NC-SA 4.0 International" "author=Plant Biology, The Noble Foundation, Ardmore, OK, US/Dennis Fine, Daniel Wherritt, and Lloyd Sumner" "instrument type=LC-ESI-TOF" "instrument=impact HD" "ionization=ESI" "ionization mode=negative" "ms level=MS2" "precursor m/z=269.0451" "isolation width=5" "collision gas=Nitrogen" "collision energy=10" "peak width=0.014" "date=2014-01-05 03:39:43+01:00" "column=Waters Acquity BEH C18 1.7um x 2.1 x 150 mm" "retention time=362.4" "raw data file=C:\Data\Confirmed Standards\Confirmed stds MSMS 2Jan14\73'4'Trihydroxyisoflavone_MSMS.d" "precursor type=[M-H]-" "mass accuracy=1.6629925614717394" "mass error=-4.4742000000042026E-4" "cas number=485-63-2" "SMILES=c1cc(c(cc1c2coc3cc(ccc3c2=O)O)O)O" "InChI=InChI=1S/C15H10O5/c16-9-2-3-10-14(6-9)20-7-11(15(10)19)8-1-4-12(17)13(18)5-8/h1-7,16-18H" "InChIKey=DDKGKOOLFLYZDL-UHFFFAOYSA-N" "molecular formula=C15H10O5" "total exact mass=270.05282342" "SMILES=C1=CC(=C(C=C1C2=COC3=C(C2=O)C=CC(=C3)O)O)O"
Num Peaks: 7
 239 11.611612; 
 240 4.104104; 
 267 47.747748; 
 268 7.607608; 
 269 100.000000; 
 270 15.015015; 
 271 2.102102; 


Name: 5,7-Dimethoxy-4'-hydroxyflavanone
SYNON: $:00in-source
DB#: MetaboBASE0739
InChIKey: REBBZOCNEVVAPX-UHFFFAOYSA-N
Instrument_type: LC-ESI-TOF
Instrument: impact HD
Ion_mode: N
InChIKey: REBBZOCNEVVAPX-UHFFFAOYSA-N
Formula: C17H16O5
MW: 300
ExactMass: 300.099773612
Comments: "license=License CC-BY-NC-SA 4.0 International" "author=Plant Biology, The Noble Foundation, Ardmore, OK, US/Dennis Fine, Daniel Wherritt, and Lloyd Sumner" "instrument type=LC-ESI-TOF" "instrument=impact HD" "ionization=ESI" "ionization mode=negative" "collision gas=Nitrogen" "peak width=0.012" "date=2014-01-05 02:58:59+01:00" "column=Waters Acquity BEH C18 1.7um x 2.1 x 150 mm" "retention time=638.4" "raw data file=C:\Data\Confirmed Standards\Confirmed stds MSMS 2Jan14\57Dimethyl4'hydroxyfla_MSMS.d" "cas number=26207-67-0" "SMILES=COc1cc2c(c(c1)OC)C(=O)CC(O2)c3ccc(cc3)O" "InChI=InChI=1S/C17H16O5/c1-20-12-7-15(21-2)17-13(19)9-14(22-16(17)8-12)10-3-5-11(18)6-4-10/h3-8,14,18H,9H2,1-2H3" "InChIKey=REBBZOCNEVVAPX-UHFFFAOYSA-N" "molecular formula=C17H16O5" "total exact mass=300.099773612" "SMILES=COC=1C=C2C(=C(C1)OC)C(=O)CC(O2)C=3C=CC(=CC3)O"
Num Peaks: 21
 112 0.800801; 
 174 0.800801; 
 180 0.500501; 
 235 1.601602; 
 239 0.600601; 
 242 1.601602; 
 248 1.601602; 
 299 100.000000; 
 300 16.016016; 
 301 1.801802; 
 304 0.700701; 
 310 1.201201; 
 316 1.001001; 
 335 0.800801; 
 345 6.106106; 
 346 1.001001; 
 378 1.001001; 
 490 0.500501; 
 599 0.900901; 
 655 0.500501; 
 666 3.903904; 


Name: 5,7-Dimethoxy-4'-hydroxyflavanone
SYNON: $:00in-source
DB#: MetaboBASE0740
InChIKey: REBBZOCNEVVAPX-UHFFFAOYSA-N
Precursor_type: [M-H]-
Spectrum_type: MS2
PrecursorMZ: 299.0899
Instrument_type: LC-ESI-TOF
Instrument: impact HD
Ion_mode: N
Collision_energy: 20
InChIKey: REBBZOCNEVVAPX-UHFFFAOYSA-N
Formula: C17H16O5
MW: 300
ExactMass: 300.099773612
Comments: "license=License CC-BY-NC-SA 4.0 International" "author=Plant Biology, The Noble Foundation, Ardmore, OK, US/Dennis Fine, Daniel Wherritt, and Lloyd Sumner" "instrument type=LC-ESI-TOF" "instrument=impact HD" "ionization=ESI" "ionization mode=negative" "ms level=MS2" "precursor m/z=299.0899" "isolation width=5" "collision gas=Nitrogen" "collision energy=20" "peak width=0.013" "date=2014-01-05 02:58:59+01:00" "column=Waters Acquity BEH C18 1.7um x 2.1 x 150 mm" "retention time=638.4" "raw data file=C:\Data\Confirmed Standards\Confirmed stds MSMS 2Jan14\57Dimethyl4'hydroxyfla_MSMS.d" "precursor type=[M-H]-" "mass accuracy=8.685054226131351" "mass error=-0.002597611999988203" "cas number=26207-67-0" "SMILES=COc1cc2c(c(c1)OC)C(=O)CC(O2)c3ccc(cc3)O" "InChI=InChI=1S/C17H16O5/c1-20-12-7-15(21-2)17-13(19)9-14(22-16(17)8-12)10-3-5-11(18)6-4-10/h3-8,14,18H,9H2,1-2H3" "InChIKey=REBBZOCNEVVAPX-UHFFFAOYSA-N" "molecular formula=C17H16O5" "total exact mass=300.099773612" "SMILES=COC=1C=C2C(=C(C1)OC)C(=O)CC(O2)C=3C=CC(=CC3)O"
Num Peaks: 3
 119 100.000000; 
 120 6.806807; 
 299 5.805806; 


Name: 5,7-Dimethoxy-4'-hydroxyflavanone
SYNON: $:00in-source
DB#: MetaboBASE0741
InChIKey: REBBZOCNEVVAPX-UHFFFAOYSA-N
Precursor_type: [M-H]-
Spectrum_type: MS2
PrecursorMZ: 299.0919
Instrument_type: LC-ESI-TOF
Instrument: impact HD
Ion_mode: N
Collision_energy: 10
InChIKey: REBBZOCNEVVAPX-UHFFFAOYSA-N
Formula: C17H16O5
MW: 300
ExactMass: 300.099773612
Comments: "license=License CC-BY-NC-SA 4.0 International" "author=Plant Biology, The Noble Foundation, Ardmore, OK, US/Dennis Fine, Daniel Wherritt, and Lloyd Sumner" "instrument type=LC-ESI-TOF" "instrument=impact HD" "ionization=ESI" "ionization mode=negative" "ms level=MS2" "precursor m/z=299.0919" "isolation width=5" "collision gas=Nitrogen" "collision energy=10" "peak width=0.016" "date=2014-01-05 02:58:59+01:00" "column=Waters Acquity BEH C18 1.7um x 2.1 x 150 mm" "retention time=638.4" "raw data file=C:\Data\Confirmed Standards\Confirmed stds MSMS 2Jan14\57Dimethyl4'hydroxyfla_MSMS.d" "precursor type=[M-H]-" "mass accuracy=1.9980882129494422" "mass error=-5.976119999786533E-4" "cas number=26207-67-0" "SMILES=COc1cc2c(c(c1)OC)C(=O)CC(O2)c3ccc(cc3)O" "InChI=InChI=1S/C17H16O5/c1-20-12-7-15(21-2)17-13(19)9-14(22-16(17)8-12)10-3-5-11(18)6-4-10/h3-8,14,18H,9H2,1-2H3" "InChIKey=REBBZOCNEVVAPX-UHFFFAOYSA-N" "molecular formula=C17H16O5" "total exact mass=300.099773612" "SMILES=COC=1C=C2C(=C(C1)OC)C(=O)CC(O2)C=3C=CC(=CC3)O"
Num Peaks: 4
 119 22.622623; 
 299 100.000000; 
 300 20.320320; 
 301 5.505506; 


Name: 5,7-Dimethoxy-4'-hydroxyflavanone
SYNON: $:00in-source
DB#: MetaboBASE0742
InChIKey: REBBZOCNEVVAPX-UHFFFAOYSA-N
Precursor_type: [M-H]-
Spectrum_type: MS2
PrecursorMZ: 299.1
Instrument_type: LC-ESI-TOF
Instrument: impact HD
Ion_mode: N
Collision_energy: 30
InChIKey: REBBZOCNEVVAPX-UHFFFAOYSA-N
Formula: C17H16O5
MW: 300
ExactMass: 300.09977361200004
Comments: "license=License CC-BY-NC-SA 4.0 International" "author=Plant Biology, The Noble Foundation, Ardmore, OK, US/Dennis Fine, Daniel Wherritt, and Lloyd Sumner" "instrument type=LC-ESI-TOF" "instrument=impact HD" "ionization=ESI" "ionization mode=negative" "ms level=MS2" "precursor m/z=299.1" "isolation width=5" "collision gas=Nitrogen" "collision energy=30" "peak width=0.015" "date=2014-01-05 02:58:59+01:00" "column=Waters Acquity BEH C18 1.7um x 2.1 x 150 mm" "retention time=638.4" "raw data file=C:\Data\Confirmed Standards\Confirmed stds MSMS 2Jan14\57Dimethyl4'hydroxyfla_MSMS.d" "precursor type=[M-H]-" "mass accuracy=25.083209628811765" "mass error=0.0075023879999776" "cas number=26207-67-0" "SMILES=COc1cc2c(c(c1)OC)C(=O)CC(O2)c3ccc(cc3)O" "InChI=InChI=1S/C17H16O5/c1-20-12-7-15(21-2)17-13(19)9-14(22-16(17)8-12)10-3-5-11(18)6-4-10/h3-8,14,18H,9H2,1-2H3" "InChIKey=REBBZOCNEVVAPX-UHFFFAOYSA-N" "molecular formula=C17H16O5" "total exact mass=300.09977361200004" "SMILES=COC=1C=C2C(=C(C1)OC)C(=O)CC(O2)C=3C=CC(=CC3)O"
Num Peaks: 2
 119 100.000000; 
 120 8.008008; 


Name: 5,7-Dimethoxy-4'-hydroxyflavanone
SYNON: $:00in-source
DB#: MetaboBASE0743
InChIKey: REBBZOCNEVVAPX-UHFFFAOYSA-N
Precursor_type: [M-H]-
Spectrum_type: MS2
PrecursorMZ: 299.0919
Instrument_type: LC-ESI-TOF
Instrument: impact HD
Ion_mode: N
Collision_energy: 10
InChIKey: REBBZOCNEVVAPX-UHFFFAOYSA-N
Formula: C17H16O5
MW: 300
ExactMass: 300.09977361200004
Comments: "license=License CC-BY-NC-SA 4.0 International" "author=Plant Biology, The Noble Foundation, Ardmore, OK, US/Dennis Fine, Daniel Wherritt, and Lloyd Sumner" "instrument type=LC-ESI-TOF" "instrument=impact HD" "ionization=ESI" "ionization mode=negative" "ms level=MS2" "precursor m/z=299.0919" "isolation width=5" "collision gas=Nitrogen" "collision energy=10" "peak width=0.016" "date=2014-01-05 02:58:59+01:00" "column=Waters Acquity BEH C18 1.7um x 2.1 x 150 mm" "retention time=639" "raw data file=C:\Data\Confirmed Standards\Confirmed stds MSMS 2Jan14\57Dimethyl4'hydroxyfla_MSMS.d" "precursor type=[M-H]-" "mass accuracy=1.9980882131394957" "mass error=-5.976120000354967E-4" "cas number=26207-67-0" "SMILES=COc1cc2c(c(c1)OC)C(=O)CC(O2)c3ccc(cc3)O" "InChI=InChI=1S/C17H16O5/c1-20-12-7-15(21-2)17-13(19)9-14(22-16(17)8-12)10-3-5-11(18)6-4-10/h3-8,14,18H,9H2,1-2H3" "InChIKey=REBBZOCNEVVAPX-UHFFFAOYSA-N" "molecular formula=C17H16O5" "total exact mass=300.09977361200004" "SMILES=O=C1C=2C(OC(C=3C=CC(O)=CC3)C1)=CC(OC)=CC2OC"
Num Peaks: 4
 119 22.622623; 
 299 100.000000; 
 300 20.320320; 
 301 5.505506; 


Name: 5,7-Dimethoxy-4'-hydroxyflavanone
SYNON: $:00in-source
DB#: MetaboBASE0744
InChIKey: REBBZOCNEVVAPX-UHFFFAOYSA-N
Precursor_type: [M-H]-
Spectrum_type: MS2
PrecursorMZ: 299.0899
Instrument_type: LC-ESI-TOF
Instrument: impact HD
Ion_mode: N
Collision_energy: 20
InChIKey: REBBZOCNEVVAPX-UHFFFAOYSA-N
Formula: C17H16O5
MW: 300
ExactMass: 300.099773612
Comments: "license=License CC-BY-NC-SA 4.0 International" "author=Plant Biology, The Noble Foundation, Ardmore, OK, US/Dennis Fine, Daniel Wherritt, and Lloyd Sumner" "instrument type=LC-ESI-TOF" "instrument=impact HD" "ionization=ESI" "ionization mode=negative" "ms level=MS2" "precursor m/z=299.0899" "isolation width=5" "collision gas=Nitrogen" "collision energy=20" "peak width=0.013" "date=2014-01-05 02:58:59+01:00" "column=Waters Acquity BEH C18 1.7um x 2.1 x 150 mm" "retention time=639" "raw data file=C:\Data\Confirmed Standards\Confirmed stds MSMS 2Jan14\57Dimethyl4'hydroxyfla_MSMS.d" "precursor type=[M-H]-" "mass accuracy=8.685054226131351" "mass error=-0.002597611999988203" "cas number=26207-67-0" "SMILES=COc1cc2c(c(c1)OC)C(=O)CC(O2)c3ccc(cc3)O" "InChI=InChI=1S/C17H16O5/c1-20-12-7-15(21-2)17-13(19)9-14(22-16(17)8-12)10-3-5-11(18)6-4-10/h3-8,14,18H,9H2,1-2H3" "InChIKey=REBBZOCNEVVAPX-UHFFFAOYSA-N" "molecular formula=C17H16O5" "total exact mass=300.099773612" "SMILES=O=C1C=2C(OC(C=3C=CC(O)=CC3)C1)=CC(OC)=CC2OC"
Num Peaks: 3
 119 100.000000; 
 120 6.806807; 
 299 5.805806; 


Name: 5,7-Dimethoxy-4'-hydroxyflavanone
SYNON: $:00in-source
DB#: MetaboBASE0745
InChIKey: REBBZOCNEVVAPX-UHFFFAOYSA-N
Instrument_type: LC-ESI-TOF
Instrument: impact HD
Ion_mode: N
InChIKey: REBBZOCNEVVAPX-UHFFFAOYSA-N
Formula: C17H16O5
MW: 300
ExactMass: 300.09977361200004
Comments: "license=License CC-BY-NC-SA 4.0 International" "author=Plant Biology, The Noble Foundation, Ardmore, OK, US/Dennis Fine, Daniel Wherritt, and Lloyd Sumner" "instrument type=LC-ESI-TOF" "instrument=impact HD" "ionization=ESI" "ionization mode=negative" "collision gas=Nitrogen" "peak width=0.012" "date=2014-01-05 02:58:59+01:00" "column=Waters Acquity BEH C18 1.7um x 2.1 x 150 mm" "retention time=639" "raw data file=C:\Data\Confirmed Standards\Confirmed stds MSMS 2Jan14\57Dimethyl4'hydroxyfla_MSMS.d" "cas number=26207-67-0" "SMILES=COc1cc2c(c(c1)OC)C(=O)CC(O2)c3ccc(cc3)O" "InChI=InChI=1S/C17H16O5/c1-20-12-7-15(21-2)17-13(19)9-14(22-16(17)8-12)10-3-5-11(18)6-4-10/h3-8,14,18H,9H2,1-2H3" "InChIKey=REBBZOCNEVVAPX-UHFFFAOYSA-N" "molecular formula=C17H16O5" "total exact mass=300.09977361200004" "SMILES=O=C1C=2C(OC(C=3C=CC(O)=CC3)C1)=CC(OC)=CC2OC"
Num Peaks: 21
 112 0.800801; 
 174 0.800801; 
 180 0.500501; 
 235 1.601602; 
 239 0.600601; 
 242 1.601602; 
 248 1.601602; 
 299 100.000000; 
 300 16.016016; 
 301 1.801802; 
 304 0.700701; 
 310 1.201201; 
 316 1.001001; 
 335 0.800801; 
 345 6.106106; 
 346 1.001001; 
 378 1.001001; 
 490 0.500501; 
 599 0.900901; 
 655 0.500501; 
 666 3.903904; 


Name: 5,4'-Dihydroxy-7-methoxyflavone
Synon: Genkwanin, 7-methoxyapigenin
SYNON: $:00in-source
DB#: MetaboBASE0746
InChIKey: JPMYFOBNRRGFNO-UHFFFAOYSA-N
Precursor_type: [M-H]-
Spectrum_type: MS2
PrecursorMZ: 283.0587
Instrument_type: LC-ESI-TOF
Instrument: impact HD
Ion_mode: N
Collision_energy: 20
InChIKey: JPMYFOBNRRGFNO-UHFFFAOYSA-N
Formula: C16H12O5
MW: 284
ExactMass: 284.068473484
Comments: "license=License CC-BY-NC-SA 4.0 International" "author=Plant Biology, The Noble Foundation, Ardmore, OK, US/Dennis Fine, Daniel Wherritt, and Lloyd Sumner" "instrument type=LC-ESI-TOF" "instrument=impact HD" "ionization=ESI" "ionization mode=negative" "ms level=MS2" "precursor m/z=283.0587" "isolation width=5" "collision gas=Nitrogen" "collision energy=20" "peak width=0.015" "date=2014-01-04 18:09:28+01:00" "column=Waters Acquity BEH C18 1.7um x 2.1 x 150 mm" "retention time=874.8" "raw data file=C:\Data\Confirmed Standards\Confirmed stds MSMS 2Jan14\54'Dihydroxy7methoxyfla_MSMS.d" "precursor type=[M-H]-" "mass accuracy=8.82320168927051" "mass error=-0.0024974840000027143" "cas number=437-64-9" "SMILES=COc1cc(c2c(=O)cc(oc2c1)c3ccc(cc3)O)O" "InChI=InChI=1S/C16H12O5/c1-20-11-6-12(18)16-13(19)8-14(21-15(16)7-11)9-2-4-10(17)5-3-9/h2-8,17-18H,1H3" "InChIKey=JPMYFOBNRRGFNO-UHFFFAOYSA-N" "molecular formula=C16H12O5" "total exact mass=284.068473484" "SMILES=COC1=CC(=C2C(=C1)OC(=CC2=O)C3=CC=C(C=C3)O)O"
Num Peaks: 4
 268 89.989990; 
 269 13.813814; 
 283 100.000000; 
 284 11.211211; 


Name: 5,4'-Dihydroxy-7-methoxyflavone
Synon: Genkwanin, 7-methoxyapigenin
SYNON: $:00in-source
DB#: MetaboBASE0747
InChIKey: JPMYFOBNRRGFNO-UHFFFAOYSA-N
Precursor_type: [M-H]-
Spectrum_type: MS2
PrecursorMZ: 283.0583
Instrument_type: LC-ESI-TOF
Instrument: impact HD
Ion_mode: N
Collision_energy: 30
InChIKey: JPMYFOBNRRGFNO-UHFFFAOYSA-N
Formula: C16H12O5
MW: 284
ExactMass: 284.068473484
Comments: "license=License CC-BY-NC-SA 4.0 International" "author=Plant Biology, The Noble Foundation, Ardmore, OK, US/Dennis Fine, Daniel Wherritt, and Lloyd Sumner" "instrument type=LC-ESI-TOF" "instrument=impact HD" "ionization=ESI" "ionization mode=negative" "ms level=MS2" "precursor m/z=283.0583" "isolation width=5" "collision gas=Nitrogen" "collision energy=30" "peak width=0.014" "date=2014-01-04 18:09:28+01:00" "column=Waters Acquity BEH C18 1.7um x 2.1 x 150 mm" "retention time=874.8" "raw data file=C:\Data\Confirmed Standards\Confirmed stds MSMS 2Jan14\54'Dihydroxy7methoxyfla_MSMS.d" "precursor type=[M-H]-" "mass accuracy=10.2363506034481" "mass error=-0.002897484000015993" "cas number=437-64-9" "SMILES=COc1cc(c2c(=O)cc(oc2c1)c3ccc(cc3)O)O" "InChI=InChI=1S/C16H12O5/c1-20-11-6-12(18)16-13(19)8-14(21-15(16)7-11)9-2-4-10(17)5-3-9/h2-8,17-18H,1H3" "InChIKey=JPMYFOBNRRGFNO-UHFFFAOYSA-N" "molecular formula=C16H12O5" "total exact mass=284.068473484" "SMILES=COC1=CC(=C2C(=C1)OC(=CC2=O)C3=CC=C(C=C3)O)O"
Num Peaks: 8
 117 3.103103; 
 239 6.106106; 
 240 5.105105; 
 267 3.503504; 
 268 100.000000; 
 269 11.011011; 
 270 2.802803; 
 283 9.209209; 


Name: 5,4'-Dihydroxy-7-methoxyflavone
Synon: Genkwanin, 7-methoxyapigenin
SYNON: $:00in-source
DB#: MetaboBASE0748
InChIKey: JPMYFOBNRRGFNO-UHFFFAOYSA-N
Instrument_type: LC-ESI-TOF
Instrument: impact HD
Ion_mode: N
InChIKey: JPMYFOBNRRGFNO-UHFFFAOYSA-N
Formula: C16H12O5
MW: 284
ExactMass: 284.068473484
Comments: "license=License CC-BY-NC-SA 4.0 International" "author=Plant Biology, The Noble Foundation, Ardmore, OK, US/Dennis Fine, Daniel Wherritt, and Lloyd Sumner" "instrument type=LC-ESI-TOF" "instrument=impact HD" "ionization=ESI" "ionization mode=negative" "collision gas=Nitrogen" "peak width=0.017" "date=2014-01-04 18:09:28+01:00" "column=Waters Acquity BEH C18 1.7um x 2.1 x 150 mm" "retention time=874.8" "raw data file=C:\Data\Confirmed Standards\Confirmed stds MSMS 2Jan14\54'Dihydroxy7methoxyfla_MSMS.d" "cas number=437-64-9" "SMILES=COc1cc(c2c(=O)cc(oc2c1)c3ccc(cc3)O)O" "InChI=InChI=1S/C16H12O5/c1-20-11-6-12(18)16-13(19)8-14(21-15(16)7-11)9-2-4-10(17)5-3-9/h2-8,17-18H,1H3" "InChIKey=JPMYFOBNRRGFNO-UHFFFAOYSA-N" "molecular formula=C16H12O5" "total exact mass=284.068473484" "SMILES=COC1=CC(=C2C(=C1)OC(=CC2=O)C3=CC=C(C=C3)O)O"
Num Peaks: 14
 112 0.900901; 
 174 0.500501; 
 235 0.900901; 
 242 1.301301; 
 248 1.601602; 
 283 100.000000; 
 284 14.714715; 
 285 1.501502; 
 310 0.600601; 
 316 0.700701; 
 351 1.101101; 
 378 0.400400; 
 567 0.800801; 
 666 3.303303; 


Name: 5,4'-Dihydroxy-7-methoxyflavone
Synon: Genkwanin, 7-methoxyapigenin
SYNON: $:00in-source
DB#: MetaboBASE0749
InChIKey: JPMYFOBNRRGFNO-UHFFFAOYSA-N
Precursor_type: [M-H]-
Spectrum_type: MS2
PrecursorMZ: 283.0592
Instrument_type: LC-ESI-TOF
Instrument: impact HD
Ion_mode: N
Collision_energy: 10
InChIKey: JPMYFOBNRRGFNO-UHFFFAOYSA-N
Formula: C16H12O5
MW: 284
ExactMass: 284.068473484
Comments: "license=License CC-BY-NC-SA 4.0 International" "author=Plant Biology, The Noble Foundation, Ardmore, OK, US/Dennis Fine, Daniel Wherritt, and Lloyd Sumner" "instrument type=LC-ESI-TOF" "instrument=impact HD" "ionization=ESI" "ionization mode=negative" "ms level=MS2" "precursor m/z=283.0592" "isolation width=5" "collision gas=Nitrogen" "collision energy=10" "peak width=0.014" "date=2014-01-04 18:09:28+01:00" "column=Waters Acquity BEH C18 1.7um x 2.1 x 150 mm" "retention time=874.8" "raw data file=C:\Data\Confirmed Standards\Confirmed stds MSMS 2Jan14\54'Dihydroxy7methoxyfla_MSMS.d" "precursor type=[M-H]-" "mass accuracy=7.056771163115482" "mass error=-0.0019974840000145377" "cas number=437-64-9" "SMILES=COc1cc(c2c(=O)cc(oc2c1)c3ccc(cc3)O)O" "InChI=InChI=1S/C16H12O5/c1-20-11-6-12(18)16-13(19)8-14(21-15(16)7-11)9-2-4-10(17)5-3-9/h2-8,17-18H,1H3" "InChIKey=JPMYFOBNRRGFNO-UHFFFAOYSA-N" "molecular formula=C16H12O5" "total exact mass=284.068473484" "SMILES=COC1=CC(=C2C(=C1)OC(=CC2=O)C3=CC=C(C=C3)O)O"
Num Peaks: 5
 268 2.302302; 
 269 1.301301; 
 283 100.000000; 
 284 12.712713; 
 285 1.801802; 


Name: 5,4'-Dihydroxy-7-methoxyflavone
Synon: Genkwanin, 7-methoxyapigenin
SYNON: $:00in-source
DB#: MetaboBASE0750
InChIKey: JPMYFOBNRRGFNO-UHFFFAOYSA-N
Precursor_type: [M-H]-
Spectrum_type: MS2
PrecursorMZ: 283.1
Instrument_type: LC-ESI-TOF
Instrument: impact HD
Ion_mode: N
Collision_energy: 40
InChIKey: JPMYFOBNRRGFNO-UHFFFAOYSA-N
Formula: C16H12O5
MW: 284
ExactMass: 284.068473484
Comments: "license=License CC-BY-NC-SA 4.0 International" "author=Plant Biology, The Noble Foundation, Ardmore, OK, US/Dennis Fine, Daniel Wherritt, and Lloyd Sumner" "instrument type=LC-ESI-TOF" "instrument=impact HD" "ionization=ESI" "ionization mode=negative" "ms level=MS2" "precursor m/z=283.1" "isolation width=5" "collision gas=Nitrogen" "collision energy=40" "peak width=0.016" "date=2014-01-04 18:09:28+01:00" "column=Waters Acquity BEH C18 1.7um x 2.1 x 150 mm" "retention time=874.8" "raw data file=C:\Data\Confirmed Standards\Confirmed stds MSMS 2Jan14\54'Dihydroxy7methoxyfla_MSMS.d" "precursor type=[M-H]-" "mass accuracy=137.06293182632453" "mass error=0.03880251600003248" "cas number=437-64-9" "SMILES=COc1cc(c2c(=O)cc(oc2c1)c3ccc(cc3)O)O" "InChI=InChI=1S/C16H12O5/c1-20-11-6-12(18)16-13(19)8-14(21-15(16)7-11)9-2-4-10(17)5-3-9/h2-8,17-18H,1H3" "InChIKey=JPMYFOBNRRGFNO-UHFFFAOYSA-N" "molecular formula=C16H12O5" "total exact mass=284.068473484" "SMILES=COC1=CC(=C2C(=C1)OC(=CC2=O)C3=CC=C(C=C3)O)O"
Num Peaks: 8
 117 33.433433; 
 151 17.117117; 
 211 17.017017; 
 239 31.531532; 
 240 32.332332; 
 267 16.216216; 
 268 100.000000; 
 269 17.717718; 


Name: 3',4'-Dimethoxy-7-hydroxyflavone
SYNON: $:00in-source
DB#: MetaboBASE0751
InChIKey: MEDOAKSPIIOKFU-UHFFFAOYSA-N
Spectrum_type: MS2
PrecursorMZ: 311.0937
Instrument_type: LC-ESI-TOF
Instrument: impact HD
Ion_mode: N
Collision_energy: 6
InChIKey: MEDOAKSPIIOKFU-UHFFFAOYSA-N
Formula: C17H14O5
MW: 298
ExactMass: 298.084123548
Comments: "license=License CC-BY-NC-SA 4.0 International" "author=Plant Biology, The Noble Foundation, Ardmore, OK, US/Dennis Fine, Daniel Wherritt, and Lloyd Sumner" "instrument type=LC-ESI-TOF" "instrument=impact HD" "ionization=ESI" "ionization mode=negative" "ms level=MS2" "precursor m/z=311.0937" "isolation width=5" "collision gas=Nitrogen" "collision energy=6" "peak width=0.012" "date=2014-01-04 03:13:24+01:00" "column=Waters Acquity BEH C18 1.7um x 2.1 x 150 mm" "retention time=744" "raw data file=C:\Data\Confirmed Standards\Confirmed stds MSMS 2Jan14\34'Dimethoxy7hydroxyflavo_MSMS_2400.d" "cas number=33513-36-9" "SMILES=COc1ccc(cc1OC)c2cc(=O)c3ccc(cc3o2)O" "InChI=InChI=1S/C17H14O5/c1-20-14-6-3-10(7-17(14)21-2)15-9-13(19)12-5-4-11(18)8-16(12)22-15/h3-9,18H,1-2H3" "InChIKey=MEDOAKSPIIOKFU-UHFFFAOYSA-N" "molecular formula=C17H14O5" "total exact mass=298.084123548" "SMILES=COC1=C(C=C(C=C1)C2=CC(=O)C3=C(O2)C=C(C=C3)O)OC"
Num Peaks: 4
 296 0.100100; 
 311 100.000000; 
 312 13.213213; 
 313 1.401401; 


Name: 3',4'-Dimethoxy-7-hydroxyflavone
SYNON: $:00in-source
DB#: MetaboBASE0752
InChIKey: MEDOAKSPIIOKFU-UHFFFAOYSA-N
Spectrum_type: MS2
PrecursorMZ: 311.1
Instrument_type: LC-ESI-TOF
Instrument: impact HD
Ion_mode: N
Collision_energy: 40
InChIKey: MEDOAKSPIIOKFU-UHFFFAOYSA-N
Formula: C17H14O5
MW: 298
ExactMass: 298.084123548
Comments: "license=License CC-BY-NC-SA 4.0 International" "author=Plant Biology, The Noble Foundation, Ardmore, OK, US/Dennis Fine, Daniel Wherritt, and Lloyd Sumner" "instrument type=LC-ESI-TOF" "instrument=impact HD" "ionization=ESI" "ionization mode=negative" "ms level=MS2" "precursor m/z=311.1" "isolation width=5" "collision gas=Nitrogen" "collision energy=40" "peak width=0.016" "date=2014-01-04 03:13:24+01:00" "column=Waters Acquity BEH C18 1.7um x 2.1 x 150 mm" "retention time=744" "raw data file=C:\Data\Confirmed Standards\Confirmed stds MSMS 2Jan14\34'Dimethoxy7hydroxyflavo_MSMS_2400.d" "cas number=33513-36-9" "SMILES=COc1ccc(cc1OC)c2cc(=O)c3ccc(cc3o2)O" "InChI=InChI=1S/C17H14O5/c1-20-14-6-3-10(7-17(14)21-2)15-9-13(19)12-5-4-11(18)8-16(12)22-15/h3-9,18H,1-2H3" "InChIKey=MEDOAKSPIIOKFU-UHFFFAOYSA-N" "molecular formula=C17H14O5" "total exact mass=298.084123548" "SMILES=COC1=C(C=C(C=C1)C2=CC(=O)C3=C(O2)C=C(C=C3)O)OC"
Num Peaks: 16
 149 1.301301; 
 225 3.503504; 
 237 1.101101; 
 253 100.000000; 
 254 10.910911; 
 255 1.001001; 
 265 1.601602; 
 266 1.301301; 
 267 17.117117; 
 268 2.402402; 
 279 1.801802; 
 281 10.910911; 
 282 1.301301; 
 293 1.001001; 
 295 23.323323; 
 296 3.903904; 


Name: 3',4'-Dimethoxy-7-hydroxyflavone
SYNON: $:00in-source
DB#: MetaboBASE0753
InChIKey: MEDOAKSPIIOKFU-UHFFFAOYSA-N
Instrument_type: LC-ESI-TOF
Instrument: impact HD
Ion_mode: N
InChIKey: MEDOAKSPIIOKFU-UHFFFAOYSA-N
Formula: C17H14O5
MW: 298
ExactMass: 298.084123548
Comments: "license=License CC-BY-NC-SA 4.0 International" "author=Plant Biology, The Noble Foundation, Ardmore, OK, US/Dennis Fine, Daniel Wherritt, and Lloyd Sumner" "instrument type=LC-ESI-TOF" "instrument=impact HD" "ionization=ESI" "ionization mode=negative" "collision gas=Nitrogen" "peak width=0.016" "date=2014-01-04 03:13:24+01:00" "column=Waters Acquity BEH C18 1.7um x 2.1 x 150 mm" "retention time=744" "raw data file=C:\Data\Confirmed Standards\Confirmed stds MSMS 2Jan14\34'Dimethoxy7hydroxyflavo_MSMS_2400.d" "cas number=33513-36-9" "SMILES=COc1ccc(cc1OC)c2cc(=O)c3ccc(cc3o2)O" "InChI=InChI=1S/C17H14O5/c1-20-14-6-3-10(7-17(14)21-2)15-9-13(19)12-5-4-11(18)8-16(12)22-15/h3-9,18H,1-2H3" "InChIKey=MEDOAKSPIIOKFU-UHFFFAOYSA-N" "molecular formula=C17H14O5" "total exact mass=298.084123548" "SMILES=COC1=C(C=C(C=C1)C2=CC(=O)C3=C(O2)C=C(C=C3)O)OC"
Num Peaks: 18
 149 0.900901; 
 225 1.901902; 
 253 19.819820; 
 254 2.602603; 
 267 4.304304; 
 281 5.105105; 
 282 0.800801; 
 295 6.306306; 
 296 20.620621; 
 297 3.103103; 
 311 100.000000; 
 312 17.317317; 
 313 2.002002; 
 623 7.007007; 
 624 2.302302; 
 645 2.602603; 
 646 0.900901; 
 935 0.800801; 


Name: 3',4'-Dimethoxy-7-hydroxyflavone
SYNON: $:00in-source
DB#: MetaboBASE0754
InChIKey: MEDOAKSPIIOKFU-UHFFFAOYSA-N
Spectrum_type: MS2
PrecursorMZ: 311.1
Instrument_type: LC-ESI-TOF
Instrument: impact HD
Ion_mode: N
Collision_energy: 50
InChIKey: MEDOAKSPIIOKFU-UHFFFAOYSA-N
Formula: C17H14O5
MW: 298
ExactMass: 298.084123548
Comments: "license=License CC-BY-NC-SA 4.0 International" "author=Plant Biology, The Noble Foundation, Ardmore, OK, US/Dennis Fine, Daniel Wherritt, and Lloyd Sumner" "instrument type=LC-ESI-TOF" "instrument=impact HD" "ionization=ESI" "ionization mode=negative" "ms level=MS2" "precursor m/z=311.1" "isolation width=5" "collision gas=Nitrogen" "collision energy=50" "peak width=0.017" "date=2014-01-11 06:40:36+01:00" "column=Waters Acquity BEH C18 1.7um x 2.1 x 150 mm" "retention time=744.6" "raw data file=C:\Data\Confirmed Standards\14Jan10 Confirmed stds MSMS\3'4'Dimethoxy7hydroxyflavanone.d" "cas number=33513-36-9" "SMILES=COc1ccc(cc1OC)c2cc(=O)c3ccc(cc3o2)O" "InChI=InChI=1S/C17H14O5/c1-20-14-6-3-10(7-17(14)21-2)15-9-13(19)12-5-4-11(18)8-16(12)22-15/h3-9,18H,1-2H3" "InChIKey=MEDOAKSPIIOKFU-UHFFFAOYSA-N" "molecular formula=C17H14O5" "total exact mass=298.084123548" "SMILES=COC1=C(C=C(C=C1)C2=CC(=O)C3=C(O2)C=C(C=C3)O)OC"
Num Peaks: 10
 117 2.002002; 
 149 4.004004; 
 224 2.702703; 
 225 14.214214; 
 237 3.303303; 
 253 100.000000; 
 254 10.310310; 
 265 3.903904; 
 267 9.709710; 
 295 6.406406; 


Name: 3',4'-Dimethoxy-7-hydroxyflavone
SYNON: $:00in-source
DB#: MetaboBASE0755
InChIKey: MEDOAKSPIIOKFU-UHFFFAOYSA-N
Instrument_type: LC-ESI-TOF
Instrument: impact HD
Ion_mode: N
InChIKey: MEDOAKSPIIOKFU-UHFFFAOYSA-N
Formula: C17H14O5
MW: 298
ExactMass: 298.084123548
Comments: "license=License CC-BY-NC-SA 4.0 International" "author=Plant Biology, The Noble Foundation, Ardmore, OK, US/Dennis Fine, Daniel Wherritt, and Lloyd Sumner" "instrument type=LC-ESI-TOF" "instrument=impact HD" "ionization=ESI" "ionization mode=negative" "collision gas=Nitrogen" "peak width=0.013" "date=2014-01-11 06:40:36+01:00" "column=Waters Acquity BEH C18 1.7um x 2.1 x 150 mm" "retention time=744.6" "raw data file=C:\Data\Confirmed Standards\14Jan10 Confirmed stds MSMS\3'4'Dimethoxy7hydroxyflavanone.d" "cas number=33513-36-9" "SMILES=COc1ccc(cc1OC)c2cc(=O)c3ccc(cc3o2)O" "InChI=InChI=1S/C17H14O5/c1-20-14-6-3-10(7-17(14)21-2)15-9-13(19)12-5-4-11(18)8-16(12)22-15/h3-9,18H,1-2H3" "InChIKey=MEDOAKSPIIOKFU-UHFFFAOYSA-N" "molecular formula=C17H14O5" "total exact mass=298.084123548" "SMILES=COC1=C(C=C(C=C1)C2=CC(=O)C3=C(O2)C=C(C=C3)O)OC"
Num Peaks: 7
 311 100.000000; 
 312 16.516517; 
 623 42.742743; 
 624 14.914915; 
 625 3.103103; 
 935 3.903904; 
 936 2.302302; 


Name: 3',4'-Dimethoxy-7-hydroxyflavone
SYNON: $:00in-source
DB#: MetaboBASE0756
InChIKey: MEDOAKSPIIOKFU-UHFFFAOYSA-N
Spectrum_type: MS2
PrecursorMZ: 311.0936
Instrument_type: LC-ESI-TOF
Instrument: impact HD
Ion_mode: N
Collision_energy: 10
InChIKey: MEDOAKSPIIOKFU-UHFFFAOYSA-N
Formula: C17H14O5
MW: 298
ExactMass: 298.084123548
Comments: "license=License CC-BY-NC-SA 4.0 International" "author=Plant Biology, The Noble Foundation, Ardmore, OK, US/Dennis Fine, Daniel Wherritt, and Lloyd Sumner" "instrument type=LC-ESI-TOF" "instrument=impact HD" "ionization=ESI" "ionization mode=negative" "ms level=MS2" "precursor m/z=311.0936" "isolation width=5" "collision gas=Nitrogen" "collision energy=10" "peak width=0.012" "date=2014-01-04 03:13:24+01:00" "column=Waters Acquity BEH C18 1.7um x 2.1 x 150 mm" "retention time=744.6" "raw data file=C:\Data\Confirmed Standards\Confirmed stds MSMS 2Jan14\34'Dimethoxy7hydroxyflavo_MSMS_2400.d" "cas number=33513-36-9" "SMILES=COc1ccc(cc1OC)c2cc(=O)c3ccc(cc3o2)O" "InChI=InChI=1S/C17H14O5/c1-20-14-6-3-10(7-17(14)21-2)15-9-13(19)12-5-4-11(18)8-16(12)22-15/h3-9,18H,1-2H3" "InChIKey=MEDOAKSPIIOKFU-UHFFFAOYSA-N" "molecular formula=C17H14O5" "total exact mass=298.084123548" "SMILES=COC1=C(C=C(C=C1)C2=CC(=O)C3=C(O2)C=C(C=C3)O)OC"
Num Peaks: 8
 267 0.100100; 
 281 0.200200; 
 295 0.200200; 
 296 1.401401; 
 297 0.200200; 
 311 100.000000; 
 312 13.413413; 
 313 1.501502; 


Name: 3',4'-Dimethoxy-7-hydroxyflavone
SYNON: $:00in-source
DB#: MetaboBASE0757
InChIKey: MEDOAKSPIIOKFU-UHFFFAOYSA-N
Spectrum_type: MS2
PrecursorMZ: 311.0935
Instrument_type: LC-ESI-TOF
Instrument: impact HD
Ion_mode: N
Collision_energy: 20
InChIKey: MEDOAKSPIIOKFU-UHFFFAOYSA-N
Formula: C17H14O5
MW: 298
ExactMass: 298.084123548
Comments: "license=License CC-BY-NC-SA 4.0 International" "author=Plant Biology, The Noble Foundation, Ardmore, OK, US/Dennis Fine, Daniel Wherritt, and Lloyd Sumner" "instrument type=LC-ESI-TOF" "instrument=impact HD" "ionization=ESI" "ionization mode=negative" "ms level=MS2" "precursor m/z=311.0935" "isolation width=5" "collision gas=Nitrogen" "collision energy=20" "peak width=0.015" "date=2014-01-04 03:13:24+01:00" "column=Waters Acquity BEH C18 1.7um x 2.1 x 150 mm" "retention time=744" "raw data file=C:\Data\Confirmed Standards\Confirmed stds MSMS 2Jan14\34'Dimethoxy7hydroxyflavo_MSMS_2400.d" "cas number=33513-36-9" "SMILES=COc1ccc(cc1OC)c2cc(=O)c3ccc(cc3o2)O" "InChI=InChI=1S/C17H14O5/c1-20-14-6-3-10(7-17(14)21-2)15-9-13(19)12-5-4-11(18)8-16(12)22-15/h3-9,18H,1-2H3" "InChIKey=MEDOAKSPIIOKFU-UHFFFAOYSA-N" "molecular formula=C17H14O5" "total exact mass=298.084123548" "SMILES=COC1=C(C=C(C=C1)C2=CC(=O)C3=C(O2)C=C(C=C3)O)OC"
Num Peaks: 18
 253 2.802803; 
 254 0.500501; 
 266 0.500501; 
 267 7.007007; 
 268 1.301301; 
 269 0.200200; 
 279 0.400400; 
 281 19.319319; 
 282 2.602603; 
 283 0.400400; 
 294 0.400400; 
 295 14.714715; 
 296 74.374374; 
 297 8.708709; 
 298 0.900901; 
 311 100.000000; 
 312 13.013013; 
 313 1.401401; 


Name: 3',4'-Dimethoxy-7-hydroxyflavone
SYNON: $:00in-source
DB#: MetaboBASE0758
InChIKey: MEDOAKSPIIOKFU-UHFFFAOYSA-N
Spectrum_type: MS2
PrecursorMZ: 311.0934
Instrument_type: LC-ESI-TOF
Instrument: impact HD
Ion_mode: N
Collision_energy: 30
InChIKey: MEDOAKSPIIOKFU-UHFFFAOYSA-N
Formula: C17H14O5
MW: 298
ExactMass: 298.084123548
Comments: "license=License CC-BY-NC-SA 4.0 International" "author=Plant Biology, The Noble Foundation, Ardmore, OK, US/Dennis Fine, Daniel Wherritt, and Lloyd Sumner" "instrument type=LC-ESI-TOF" "instrument=impact HD" "ionization=ESI" "ionization mode=negative" "ms level=MS2" "precursor m/z=311.0934" "isolation width=5" "collision gas=Nitrogen" "collision energy=30" "peak width=0.014" "date=2014-01-04 03:13:24+01:00" "column=Waters Acquity BEH C18 1.7um x 2.1 x 150 mm" "retention time=744" "raw data file=C:\Data\Confirmed Standards\Confirmed stds MSMS 2Jan14\34'Dimethoxy7hydroxyflavo_MSMS_2400.d" "cas number=33513-36-9" "SMILES=COc1ccc(cc1OC)c2cc(=O)c3ccc(cc3o2)O" "InChI=InChI=1S/C17H14O5/c1-20-14-6-3-10(7-17(14)21-2)15-9-13(19)12-5-4-11(18)8-16(12)22-15/h3-9,18H,1-2H3" "InChIKey=MEDOAKSPIIOKFU-UHFFFAOYSA-N" "molecular formula=C17H14O5" "total exact mass=298.084123548" "SMILES=COC1=C(C=C(C=C1)C2=CC(=O)C3=C(O2)C=C(C=C3)O)OC"
Num Peaks: 24
 149 0.500501; 
 225 1.201201; 
 237 0.500501; 
 238 0.900901; 
 253 65.965966; 
 254 8.008008; 
 255 0.700701; 
 265 0.400400; 
 266 5.005005; 
 267 34.134134; 
 268 3.803804; 
 269 0.500501; 
 279 2.302302; 
 280 0.500501; 
 281 100.000000; 
 282 11.511512; 
 283 1.701702; 
 293 0.500501; 
 295 79.979980; 
 296 44.744745; 
 297 5.405405; 
 298 0.800801; 
 311 5.605606; 
 312 1.001001; 


Name: 7-Hydroxy-3(4-methoxyphenyl) coumarin
SYNON: $:00in-source
DB#: MetaboBASE0759
InChIKey: VGYCHSOZFBOOKO-UHFFFAOYSA-N
Spectrum_type: MS2
PrecursorMZ: 267.1
Instrument_type: LC-ESI-TOF
Instrument: impact HD
Ion_mode: N
Collision_energy: 50
InChIKey: VGYCHSOZFBOOKO-UHFFFAOYSA-N
Formula: C16H12O4
MW: 268
ExactMass: 268.073558864
Comments: "license=License CC-BY-NC-SA 4.0 International" "author=Plant Biology, The Noble Foundation, Ardmore, OK, US/Dennis Fine, Daniel Wherritt, and Lloyd Sumner" "instrument type=LC-ESI-TOF" "instrument=impact HD" "ionization=ESI" "ionization mode=negative" "ms level=MS2" "precursor m/z=267.1" "isolation width=5" "collision gas=Nitrogen" "collision energy=50" "peak width=0.017" "date=2014-01-04 20:52:25+01:00" "column=Waters Acquity BEH C18 1.7um x 2.1 x 150 mm" "retention time=808.2" "raw data file=C:\Data\Confirmed Standards\Confirmed stds MSMS 2Jan14\7Hydroxy3(4methoxyphen_MSMS.d" "Last Auto-Curation=1505110165397" "cas number=66267-82-1" "SMILES=COc1ccc(cc1)c2cc3ccc(cc3oc2=O)O" "InChI=InChI=1S/C16H12O4/c1-19-13-6-3-10(4-7-13)14-8-11-2-5-12(17)9-15(11)20-16(14)18/h2-9,17H,1H3" "InChIKey=VGYCHSOZFBOOKO-UHFFFAOYSA-N" "molecular formula=C16H12O4" "total exact mass=268.073558864" "SMILES=[H]OC1=C([H])C([H])=C2C([H])=C(C(=O)OC2=C1[H])C=3C([H])=C([H])C(OC([H])([H])[H])=C([H])C3[H]"
Num Peaks: 9
 167 20.320320; 
 179 3.903904; 
 195 68.168168; 
 196 17.717718; 
 208 3.703704; 
 223 100.000000; 
 224 57.157157; 
 225 7.207207; 
 252 7.707708; 


Name: 7-Hydroxy-3(4-methoxyphenyl) coumarin
SYNON: $:00in-source
DB#: MetaboBASE0760
InChIKey: VGYCHSOZFBOOKO-UHFFFAOYSA-N
Spectrum_type: MS2
PrecursorMZ: 267.0658
Instrument_type: LC-ESI-TOF
Instrument: impact HD
Ion_mode: N
Collision_energy: 10
InChIKey: VGYCHSOZFBOOKO-UHFFFAOYSA-N
Formula: C16H12O4
MW: 268
ExactMass: 268.073558864
Comments: "license=License CC-BY-NC-SA 4.0 International" "author=Plant Biology, The Noble Foundation, Ardmore, OK, US/Dennis Fine, Daniel Wherritt, and Lloyd Sumner" "instrument type=LC-ESI-TOF" "instrument=impact HD" "ionization=ESI" "ionization mode=negative" "ms level=MS2" "precursor m/z=267.0658" "isolation width=5" "collision gas=Nitrogen" "collision energy=10" "peak width=0.01" "date=2014-01-04 20:52:25+01:00" "column=Waters Acquity BEH C18 1.7um x 2.1 x 150 mm" "retention time=808.2" "raw data file=C:\Data\Confirmed Standards\Confirmed stds MSMS 2Jan14\7Hydroxy3(4methoxyphen_MSMS.d" "Last Auto-Curation=1505111297809" "cas number=66267-82-1" "SMILES=COc1ccc(cc1)c2cc3ccc(cc3oc2=O)O" "InChI=InChI=1S/C16H12O4/c1-19-13-6-3-10(4-7-13)14-8-11-2-5-12(17)9-15(11)20-16(14)18/h2-9,17H,1H3" "InChIKey=VGYCHSOZFBOOKO-UHFFFAOYSA-N" "molecular formula=C16H12O4" "total exact mass=268.073558864" "SMILES=[H]OC1=C([H])C([H])=C2C([H])=C(C(=O)OC2=C1[H])C=3C([H])=C([H])C(OC([H])([H])[H])=C([H])C3[H]"
Num Peaks: 7
 224 0.300300; 
 252 10.510511; 
 253 1.701702; 
 254 0.200200; 
 267 100.000000; 
 268 8.708709; 
 269 1.101101; 


Name: 7-Hydroxy-3(4-methoxyphenyl) coumarin
SYNON: $:00in-source
DB#: MetaboBASE0761
InChIKey: VGYCHSOZFBOOKO-UHFFFAOYSA-N
Spectrum_type: MS2
PrecursorMZ: 267.0656
Instrument_type: LC-ESI-TOF
Instrument: impact HD
Ion_mode: N
Collision_energy: 20
InChIKey: VGYCHSOZFBOOKO-UHFFFAOYSA-N
Formula: C16H12O4
MW: 268
ExactMass: 268.073558864
Comments: "license=License CC-BY-NC-SA 4.0 International" "author=Plant Biology, The Noble Foundation, Ardmore, OK, US/Dennis Fine, Daniel Wherritt, and Lloyd Sumner" "instrument type=LC-ESI-TOF" "instrument=impact HD" "ionization=ESI" "ionization mode=negative" "ms level=MS2" "precursor m/z=267.0656" "isolation width=5" "collision gas=Nitrogen" "collision energy=20" "peak width=0.014" "date=2014-01-04 20:52:25+01:00" "column=Waters Acquity BEH C18 1.7um x 2.1 x 150 mm" "retention time=808.2" "raw data file=C:\Data\Confirmed Standards\Confirmed stds MSMS 2Jan14\7Hydroxy3(4methoxyphen_MSMS.d" "Last Auto-Curation=1505111298014" "cas number=66267-82-1" "SMILES=COc1ccc(cc1)c2cc3ccc(cc3oc2=O)O" "InChI=InChI=1S/C16H12O4/c1-19-13-6-3-10(4-7-13)14-8-11-2-5-12(17)9-15(11)20-16(14)18/h2-9,17H,1H3" "InChIKey=VGYCHSOZFBOOKO-UHFFFAOYSA-N" "molecular formula=C16H12O4" "total exact mass=268.073558864" "SMILES=[H]OC1=C([H])C([H])=C2C([H])=C(C(=O)OC2=C1[H])C=3C([H])=C([H])C(OC([H])([H])[H])=C([H])C3[H]"
Num Peaks: 10
 151 0.200200; 
 223 1.001001; 
 224 2.202202; 
 225 0.300300; 
 252 100.000000; 
 253 10.510511; 
 254 1.001001; 
 267 14.714715; 
 268 1.401401; 
 269 0.200200; 


Name: 7-Hydroxy-3(4-methoxyphenyl) coumarin
SYNON: $:00in-source
DB#: MetaboBASE0762
InChIKey: VGYCHSOZFBOOKO-UHFFFAOYSA-N
Spectrum_type: MS2
PrecursorMZ: 267.0656
Instrument_type: LC-ESI-TOF
Instrument: impact HD
Ion_mode: N
Collision_energy: 30
InChIKey: VGYCHSOZFBOOKO-UHFFFAOYSA-N
Formula: C16H12O4
MW: 268
ExactMass: 268.073558864
Comments: "license=License CC-BY-NC-SA 4.0 International" "author=Plant Biology, The Noble Foundation, Ardmore, OK, US/Dennis Fine, Daniel Wherritt, and Lloyd Sumner" "instrument type=LC-ESI-TOF" "instrument=impact HD" "ionization=ESI" "ionization mode=negative" "ms level=MS2" "precursor m/z=267.0656" "isolation width=5" "collision gas=Nitrogen" "collision energy=30" "peak width=0.015" "date=2014-01-04 20:52:25+01:00" "column=Waters Acquity BEH C18 1.7um x 2.1 x 150 mm" "retention time=808.2" "raw data file=C:\Data\Confirmed Standards\Confirmed stds MSMS 2Jan14\7Hydroxy3(4methoxyphen_MSMS.d" "Last Auto-Curation=1505110165812" "cas number=66267-82-1" "SMILES=COc1ccc(cc1)c2cc3ccc(cc3oc2=O)O" "InChI=InChI=1S/C16H12O4/c1-19-13-6-3-10(4-7-13)14-8-11-2-5-12(17)9-15(11)20-16(14)18/h2-9,17H,1H3" "InChIKey=VGYCHSOZFBOOKO-UHFFFAOYSA-N" "molecular formula=C16H12O4" "total exact mass=268.073558864" "SMILES=[H]OC1=C([H])C([H])=C2C([H])=C(C(=O)OC2=C1[H])C=3C([H])=C([H])C(OC([H])([H])[H])=C([H])C3[H]"
Num Peaks: 11
 195 0.400400; 
 196 0.300300; 
 208 0.300300; 
 223 9.909910; 
 224 23.923924; 
 225 2.602603; 
 226 0.400400; 
 252 100.000000; 
 253 9.309309; 
 254 1.001001; 
 267 0.500501; 


Name: 7-Hydroxy-3(4-methoxyphenyl) coumarin
SYNON: $:00in-source
DB#: MetaboBASE0763
InChIKey: VGYCHSOZFBOOKO-UHFFFAOYSA-N
Spectrum_type: MS2
PrecursorMZ: 267.1
Instrument_type: LC-ESI-TOF
Instrument: impact HD
Ion_mode: N
Collision_energy: 40
InChIKey: VGYCHSOZFBOOKO-UHFFFAOYSA-N
Formula: C16H12O4
MW: 268
ExactMass: 268.073558864
Comments: "license=License CC-BY-NC-SA 4.0 International" "author=Plant Biology, The Noble Foundation, Ardmore, OK, US/Dennis Fine, Daniel Wherritt, and Lloyd Sumner" "instrument type=LC-ESI-TOF" "instrument=impact HD" "ionization=ESI" "ionization mode=negative" "ms level=MS2" "precursor m/z=267.1" "isolation width=5" "collision gas=Nitrogen" "collision energy=40" "peak width=0.015" "date=2014-01-04 20:52:25+01:00" "column=Waters Acquity BEH C18 1.7um x 2.1 x 150 mm" "retention time=808.2" "raw data file=C:\Data\Confirmed Standards\Confirmed stds MSMS 2Jan14\7Hydroxy3(4methoxyphen_MSMS.d" "Last Auto-Curation=1505110166017" "cas number=66267-82-1" "SMILES=COc1ccc(cc1)c2cc3ccc(cc3oc2=O)O" "InChI=InChI=1S/C16H12O4/c1-19-13-6-3-10(4-7-13)14-8-11-2-5-12(17)9-15(11)20-16(14)18/h2-9,17H,1H3" "InChIKey=VGYCHSOZFBOOKO-UHFFFAOYSA-N" "molecular formula=C16H12O4" "total exact mass=268.073558864" "SMILES=[H]OC1=C([H])C([H])=C2C([H])=C(C(=O)OC2=C1[H])C=3C([H])=C([H])C(OC([H])([H])[H])=C([H])C3[H]"
Num Peaks: 14
 167 1.701702; 
 168 1.501502; 
 180 1.301301; 
 195 11.211211; 
 196 6.706707; 
 196 1.001001; 
 197 1.301301; 
 208 1.201201; 
 223 88.888889; 
 224 100.000000; 
 225 10.210210; 
 226 1.501502; 
 252 43.743744; 
 253 5.305305; 


Name: 7-Hydroxy-3(4-methoxyphenyl) coumarin
SYNON: $:00in-source
DB#: MetaboBASE0764
InChIKey: VGYCHSOZFBOOKO-UHFFFAOYSA-N
Instrument_type: LC-ESI-TOF
Instrument: impact HD
Ion_mode: N
InChIKey: VGYCHSOZFBOOKO-UHFFFAOYSA-N
Formula: C16H12O4
MW: 268
ExactMass: 268.073558864
Comments: "license=License CC-BY-NC-SA 4.0 International" "author=Plant Biology, The Noble Foundation, Ardmore, OK, US/Dennis Fine, Daniel Wherritt, and Lloyd Sumner" "instrument type=LC-ESI-TOF" "instrument=impact HD" "ionization=ESI" "ionization mode=negative" "collision gas=Nitrogen" "peak width=0.015" "date=2014-01-04 20:52:25+01:00" "column=Waters Acquity BEH C18 1.7um x 2.1 x 150 mm" "retention time=808.2" "raw data file=C:\Data\Confirmed Standards\Confirmed stds MSMS 2Jan14\7Hydroxy3(4methoxyphen_MSMS.d" "Last Auto-Curation=1505110944230" "cas number=66267-82-1" "SMILES=COc1ccc(cc1)c2cc3ccc(cc3oc2=O)O" "InChI=InChI=1S/C16H12O4/c1-19-13-6-3-10(4-7-13)14-8-11-2-5-12(17)9-15(11)20-16(14)18/h2-9,17H,1H3" "InChIKey=VGYCHSOZFBOOKO-UHFFFAOYSA-N" "molecular formula=C16H12O4" "total exact mass=268.073558864" "SMILES=[H]OC1=C([H])C([H])=C2C([H])=C(C(=O)OC2=C1[H])C=3C([H])=C([H])C(OC([H])([H])[H])=C([H])C3[H]"
Num Peaks: 17
 112 0.400400; 
 174 0.200200; 
 235 0.200200; 
 242 0.300300; 
 248 0.300300; 
 252 1.301301; 
 253 0.200200; 
 267 100.000000; 
 268 11.611612; 
 269 1.201201; 
 310 0.200200; 
 316 0.100100; 
 335 0.700701; 
 397 0.200200; 
 535 0.400400; 
 555 0.200200; 
 666 0.500501; 


Name: 4-Hydroxy-2',4',6'-trimethoxychalcone
Synon: Flavokawain A
SYNON: $:00in-source
DB#: MetaboBASE0765
InChIKey: ZWNLSRDFHQCTQW-RMKNXTFCSA-N
Precursor_type: [M-H]-
Spectrum_type: MS2
PrecursorMZ: 313.1092
Instrument_type: LC-ESI-TOF
Instrument: impact HD
Ion_mode: N
Collision_energy: 10
InChIKey: ZWNLSRDFHQCTQW-RMKNXTFCSA-N
Formula: C18H18O5
MW: 314
ExactMass: 314.115423676
Comments: "license=License CC-BY-NC-SA 4.0 International" "author=Plant Biology, The Noble Foundation, Ardmore, OK, US/Dennis Fine, Daniel Wherritt, and Lloyd Sumner" "instrument type=LC-ESI-TOF" "instrument=impact HD" "ionization=ESI" "ionization mode=negative" "ms level=MS2" "precursor m/z=313.1092" "isolation width=5" "collision gas=Nitrogen" "collision energy=10" "peak width=0.0093" "date=2014-01-04 22:13:53+01:00" "column=Waters Acquity BEH C18 1.7um x 2.1 x 150 mm" "retention time=742.2" "raw data file=C:\Data\Confirmed Standards\Confirmed stds MSMS 2Jan14\4Hydroxy2'4'6'trimethoxy_MSMS.d" "precursor type=[M-H]-" "mass accuracy=3.360884956429806" "mass error=0.0010523239999997713" "molecular formula=C18H18O5" "total exact mass=314.115423676" "SMILES=O=C(C=1C(OC)=CC(OC)=CC1OC)C=CC=2C=CC(O)=CC2" "InChI=InChI=1S/C18H18O5/c1-21-14-10-16(22-2)18(17(11-14)23-3)15(20)9-6-12-4-7-13(19)8-5-12/h4-11,19H,1-3H3/b9-6+" "InChIKey=ZWNLSRDFHQCTQW-RMKNXTFCSA-N"
Num Peaks: 8
 283 0.300300; 
 298 0.200200; 
 299 0.200200; 
 313 0.200200; 
 313 100.000000; 
 314 13.013013; 
 315 1.201201; 
 877 0.200200; 


Name: 4-Hydroxy-2',4',6'-trimethoxychalcone
Synon: Flavokawain A
SYNON: $:00in-source
DB#: MetaboBASE0766
InChIKey: ZWNLSRDFHQCTQW-RMKNXTFCSA-N
Precursor_type: [M-H]-
Spectrum_type: MS2
PrecursorMZ: 313.1094
Instrument_type: LC-ESI-TOF
Instrument: impact HD
Ion_mode: N
Collision_energy: 20
InChIKey: ZWNLSRDFHQCTQW-RMKNXTFCSA-N
Formula: C18H18O5
MW: 314
ExactMass: 314.115423676
Comments: "license=License CC-BY-NC-SA 4.0 International" "author=Plant Biology, The Noble Foundation, Ardmore, OK, US/Dennis Fine, Daniel Wherritt, and Lloyd Sumner" "instrument type=LC-ESI-TOF" "instrument=impact HD" "ionization=ESI" "ionization mode=negative" "ms level=MS2" "precursor m/z=313.1094" "isolation width=5" "collision gas=Nitrogen" "collision energy=20" "peak width=0.012" "date=2014-01-04 22:13:53+01:00" "column=Waters Acquity BEH C18 1.7um x 2.1 x 150 mm" "retention time=742.2" "raw data file=C:\Data\Confirmed Standards\Confirmed stds MSMS 2Jan14\4Hydroxy2'4'6'trimethoxy_MSMS.d" "precursor type=[M-H]-" "mass accuracy=3.999637187533848" "mass error=0.0012523240000064106" "molecular formula=C18H18O5" "total exact mass=314.115423676" "SMILES=O=C(C=1C(OC)=CC(OC)=CC1OC)C=CC=2C=CC(O)=CC2" "InChI=InChI=1S/C18H18O5/c1-21-14-10-16(22-2)18(17(11-14)23-3)15(20)9-6-12-4-7-13(19)8-5-12/h4-11,19H,1-3H3/b9-6+" "InChIKey=ZWNLSRDFHQCTQW-RMKNXTFCSA-N"
Num Peaks: 32
 139 0.400400; 
 145 0.700701; 
 158 0.300300; 
 165 0.300300; 
 166 0.400400; 
 223 0.400400; 
 237 0.400400; 
 238 0.500501; 
 251 0.400400; 
 252 0.600601; 
 252 0.500501; 
 255 2.002002; 
 256 0.400400; 
 257 0.900901; 
 266 3.103103; 
 267 12.512513; 
 268 1.501502; 
 268 1.401401; 
 269 0.300300; 
 270 0.700701; 
 280 0.400400; 
 281 3.403403; 
 282 0.600601; 
 283 9.709710; 
 284 1.101101; 
 297 0.600601; 
 298 9.609610; 
 299 1.701702; 
 300 0.300300; 
 313 100.000000; 
 314 12.212212; 
 315 1.801802; 


Name: 4-Hydroxy-2',4',6'-trimethoxychalcone
Synon: Flavokawain A
SYNON: $:00in-source
DB#: MetaboBASE0767
InChIKey: ZWNLSRDFHQCTQW-RMKNXTFCSA-N
Precursor_type: [M-H]-
Spectrum_type: MS2
PrecursorMZ: 313.1093
Instrument_type: LC-ESI-TOF
Instrument: impact HD
Ion_mode: N
Collision_energy: 30
InChIKey: ZWNLSRDFHQCTQW-RMKNXTFCSA-N
Formula: C18H18O5
MW: 314
ExactMass: 314.115423676
Comments: "license=License CC-BY-NC-SA 4.0 International" "author=Plant Biology, The Noble Foundation, Ardmore, OK, US/Dennis Fine, Daniel Wherritt, and Lloyd Sumner" "instrument type=LC-ESI-TOF" "instrument=impact HD" "ionization=ESI" "ionization mode=negative" "ms level=MS2" "precursor m/z=313.1093" "isolation width=5" "collision gas=Nitrogen" "collision energy=30" "peak width=0.013" "date=2014-01-04 22:13:53+01:00" "column=Waters Acquity BEH C18 1.7um x 2.1 x 150 mm" "retention time=742.2" "raw data file=C:\Data\Confirmed Standards\Confirmed stds MSMS 2Jan14\4Hydroxy2'4'6'trimethoxy_MSMS.d" "precursor type=[M-H]-" "mass accuracy=3.6802611740740776" "mass error=0.0011523240000315127" "molecular formula=C18H18O5" "total exact mass=314.115423676" "SMILES=O=C(C=1C(OC)=CC(OC)=CC1OC)C=CC=2C=CC(O)=CC2" "InChI=InChI=1S/C18H18O5/c1-21-14-10-16(22-2)18(17(11-14)23-3)15(20)9-6-12-4-7-13(19)8-5-12/h4-11,19H,1-3H3/b9-6+" "InChIKey=ZWNLSRDFHQCTQW-RMKNXTFCSA-N"
Num Peaks: 58
 109 3.603604; 
 117 9.009009; 
 119 3.403403; 
 124 2.602603; 
 132 2.402402; 
 133 2.902903; 
 137 4.204204; 
 138 4.804805; 
 139 8.208208; 
 145 10.010010; 
 149 2.502503; 
 159 2.602603; 
 164 3.403403; 
 165 4.304304; 
 166 2.702703; 
 177 4.804805; 
 179 2.702703; 
 192 2.402402; 
 223 7.907908; 
 224 3.403403; 
 225 2.602603; 
 227 2.902903; 
 237 5.205205; 
 238 6.206206; 
 239 6.606607; 
 239 2.502503; 
 240 6.506507; 
 241 3.503504; 
 249 3.303303; 
 251 2.902903; 
 251 3.103103; 
 252 32.132132; 
 252 3.003003; 
 253 6.106106; 
 254 3.403403; 
 255 22.822823; 
 256 3.303303; 
 257 11.111111; 
 265 3.103103; 
 266 23.623624; 
 267 100.000000; 
 268 64.764765; 
 268 13.913914; 
 269 10.610611; 
 269 2.902903; 
 270 2.302302; 
 279 3.403403; 
 281 30.230230; 
 282 4.904905; 
 282 5.505506; 
 283 94.994995; 
 284 14.814815; 
 285 2.302302; 
 297 6.406406; 
 298 15.015015; 
 299 3.103103; 
 313 22.922923; 
 314 6.906907; 


Name: 4-Hydroxy-2',4',6'-trimethoxychalcone
Synon: Flavokawain A
SYNON: $:00in-source
DB#: MetaboBASE0768
InChIKey: ZWNLSRDFHQCTQW-RMKNXTFCSA-N
Precursor_type: [M-H]-
Spectrum_type: MS2
PrecursorMZ: 313.1
Instrument_type: LC-ESI-TOF
Instrument: impact HD
Ion_mode: N
Collision_energy: 40
InChIKey: ZWNLSRDFHQCTQW-RMKNXTFCSA-N
Formula: C18H18O5
MW: 314
ExactMass: 314.115423676
Comments: "license=License CC-BY-NC-SA 4.0 International" "author=Plant Biology, The Noble Foundation, Ardmore, OK, US/Dennis Fine, Daniel Wherritt, and Lloyd Sumner" "instrument type=LC-ESI-TOF" "instrument=impact HD" "ionization=ESI" "ionization mode=negative" "ms level=MS2" "precursor m/z=313.1" "isolation width=5" "collision gas=Nitrogen" "collision energy=40" "peak width=0.013" "date=2014-01-04 22:13:53+01:00" "column=Waters Acquity BEH C18 1.7um x 2.1 x 150 mm" "retention time=742.2" "raw data file=C:\Data\Confirmed Standards\Confirmed stds MSMS 2Jan14\4Hydroxy2'4'6'trimethoxy_MSMS.d" "precursor type=[M-H]-" "mass accuracy=26.022599808254792" "mass error=-0.008147675999964576" "molecular formula=C18H18O5" "total exact mass=314.115423676" "SMILES=O=C(C=1C(OC)=CC(OC)=CC1OC)C=CC=2C=CC(O)=CC2" "InChI=InChI=1S/C18H18O5/c1-21-14-10-16(22-2)18(17(11-14)23-3)15(20)9-6-12-4-7-13(19)8-5-12/h4-11,19H,1-3H3/b9-6+" "InChIKey=ZWNLSRDFHQCTQW-RMKNXTFCSA-N"
Num Peaks: 43
 116 8.208208; 
 117 28.528529; 
 119 6.306306; 
 121 8.608609; 
 124 11.911912; 
 132 4.904905; 
 137 8.208208; 
 138 7.107107; 
 145 15.115115; 
 149 5.905906; 
 164 9.909910; 
 179 6.606607; 
 207 4.804805; 
 212 6.006006; 
 222 6.706707; 
 223 35.435435; 
 223 7.207207; 
 224 16.316316; 
 225 5.205205; 
 227 15.715716; 
 237 14.514515; 
 238 10.910911; 
 239 47.947948; 
 240 36.836837; 
 241 10.110110; 
 251 5.205205; 
 252 72.572573; 
 253 17.317317; 
 254 5.705706; 
 255 13.313313; 
 257 5.805806; 
 265 10.010010; 
 266 28.928929; 
 267 5.605606; 
 267 23.323323; 
 268 100.000000; 
 268 5.005005; 
 269 12.512513; 
 270 5.605606; 
 281 19.019019; 
 282 12.112112; 
 283 16.516517; 
 297 4.704705; 


Name: 4-Hydroxy-2',4',6'-trimethoxychalcone
Synon: Flavokawain A
SYNON: $:00in-source
DB#: MetaboBASE0769
InChIKey: ZWNLSRDFHQCTQW-RMKNXTFCSA-N
Precursor_type: [M-H]-
Spectrum_type: MS2
PrecursorMZ: 313.1
Instrument_type: LC-ESI-TOF
Instrument: impact HD
Ion_mode: N
Collision_energy: 50
InChIKey: ZWNLSRDFHQCTQW-RMKNXTFCSA-N
Formula: C18H18O5
MW: 314
ExactMass: 314.115423676
Comments: "license=License CC-BY-NC-SA 4.0 International" "author=Plant Biology, The Noble Foundation, Ardmore, OK, US/Dennis Fine, Daniel Wherritt, and Lloyd Sumner" "instrument type=LC-ESI-TOF" "instrument=impact HD" "ionization=ESI" "ionization mode=negative" "ms level=MS2" "precursor m/z=313.1" "isolation width=5" "collision gas=Nitrogen" "collision energy=50" "peak width=0.014" "date=2014-01-04 22:13:53+01:00" "column=Waters Acquity BEH C18 1.7um x 2.1 x 150 mm" "retention time=742.2" "raw data file=C:\Data\Confirmed Standards\Confirmed stds MSMS 2Jan14\4Hydroxy2'4'6'trimethoxy_MSMS.d" "precursor type=[M-H]-" "mass accuracy=26.022599808254792" "mass error=-0.008147675999964576" "molecular formula=C18H18O5" "total exact mass=314.115423676" "SMILES=O=C(C=1C(OC)=CC(OC)=CC1OC)C=CC=2C=CC(O)=CC2" "InChI=InChI=1S/C18H18O5/c1-21-14-10-16(22-2)18(17(11-14)23-3)15(20)9-6-12-4-7-13(19)8-5-12/h4-11,19H,1-3H3/b9-6+" "InChIKey=ZWNLSRDFHQCTQW-RMKNXTFCSA-N"
Num Peaks: 21
 117 81.281281; 
 119 11.311311; 
 121 16.116116; 
 124 10.910911; 
 138 12.012012; 
 145 13.313313; 
 196 9.709710; 
 211 21.821822; 
 212 15.315315; 
 221 11.211211; 
 223 35.135135; 
 224 28.828829; 
 237 15.215215; 
 239 100.000000; 
 239 8.308308; 
 240 33.233233; 
 241 13.913914; 
 251 9.409409; 
 252 40.840841; 
 268 32.032032; 
 269 10.410410; 


Name: 4-Hydroxy-2',4',6'-trimethoxychalcone
Synon: Flavokawain A
SYNON: $:00in-source
DB#: MetaboBASE0770
InChIKey: ZWNLSRDFHQCTQW-RMKNXTFCSA-N
Instrument_type: LC-ESI-TOF
Instrument: impact HD
Ion_mode: N
InChIKey: ZWNLSRDFHQCTQW-RMKNXTFCSA-N
Formula: C18H18O5
MW: 314
ExactMass: 314.115423676
Comments: "license=License CC-BY-NC-SA 4.0 International" "author=Plant Biology, The Noble Foundation, Ardmore, OK, US/Dennis Fine, Daniel Wherritt, and Lloyd Sumner" "instrument type=LC-ESI-TOF" "instrument=impact HD" "ionization=ESI" "ionization mode=negative" "collision gas=Nitrogen" "peak width=0.014" "date=2014-01-04 22:13:53+01:00" "column=Waters Acquity BEH C18 1.7um x 2.1 x 150 mm" "retention time=742.2" "raw data file=C:\Data\Confirmed Standards\Confirmed stds MSMS 2Jan14\4Hydroxy2'4'6'trimethoxy_MSMS.d" "molecular formula=C18H18O5" "total exact mass=314.115423676" "SMILES=O=C(C=1C(OC)=CC(OC)=CC1OC)C=CC=2C=CC(O)=CC2" "InChI=InChI=1S/C18H18O5/c1-21-14-10-16(22-2)18(17(11-14)23-3)15(20)9-6-12-4-7-13(19)8-5-12/h4-11,19H,1-3H3/b9-6+" "InChIKey=ZWNLSRDFHQCTQW-RMKNXTFCSA-N"
Num Peaks: 21
 112 0.600601; 
 116 0.200200; 
 180 0.300300; 
 235 0.300300; 
 242 0.700701; 
 248 0.800801; 
 304 0.200200; 
 310 0.300300; 
 313 100.000000; 
 314 13.213213; 
 315 1.501502; 
 316 0.200200; 
 316 0.400400; 
 378 0.300300; 
 381 0.500501; 
 384 0.200200; 
 627 0.600601; 
 628 0.200200; 
 655 0.200200; 
 666 1.601602; 
 667 0.200200; 


Name: 3'-Hydroxyflavone
SYNON: $:00in-source
DB#: MetaboBASE0771
InChIKey: ISZWRZGKEWQACU-UHFFFAOYSA-N
Instrument_type: LC-ESI-TOF
Instrument: impact HD
Ion_mode: N
InChIKey: ISZWRZGKEWQACU-UHFFFAOYSA-N
Formula: C15H10O3
MW: 238
ExactMass: 238.06299417999998
Comments: "license=License CC-BY-NC-SA 4.0 International" "author=Plant Biology, The Noble Foundation, Ardmore, OK, US/Dennis Fine, Daniel Wherritt, and Lloyd Sumner" "instrument type=LC-ESI-TOF" "instrument=impact HD" "ionization=ESI" "ionization mode=negative" "collision gas=Nitrogen" "peak width=0.014" "date=2014-01-05 04:20:30+01:00" "column=Waters Acquity BEH C18 1.7um x 2.1 x 150 mm" "retention time=680.4" "raw data file=C:\Data\Confirmed Standards\Confirmed stds MSMS 2Jan14\3'-Hydroxyflavone _MSMS.d" "cas number=70460-18-3" "SMILES=c1ccc2c(c1)c(=O)cc(o2)c3cccc(c3)O" "InChI=InChI=1S/C15H10O3/c16-11-5-3-4-10(8-11)15-9-13(17)12-6-1-2-7-14(12)18-15/h1-9,16H" "InChIKey=ISZWRZGKEWQACU-UHFFFAOYSA-N" "molecular formula=C15H10O3" "total exact mass=238.06299417999998" "SMILES=C1=CC=C2C(=C1)C(=O)C=C(O2)C3=CC(=CC=C3)O"
Num Peaks: 16
 112 0.300300; 
 174 0.200200; 
 235 0.300300; 
 237 100.000000; 
 238 13.213213; 
 239 1.301301; 
 242 0.300300; 
 248 0.300300; 
 305 0.300300; 
 316 0.200200; 
 427 0.200200; 
 475 3.003003; 
 476 0.800801; 
 477 0.200200; 
 666 0.700701; 
 1004 0.200200; 


Name: 3'-Hydroxyflavone
SYNON: $:00in-source
DB#: MetaboBASE0772
InChIKey: ISZWRZGKEWQACU-UHFFFAOYSA-N
Precursor_type: [M-H]-
Spectrum_type: MS2
PrecursorMZ: 237.0568
Instrument_type: LC-ESI-TOF
Instrument: impact HD
Ion_mode: N
Collision_energy: 10
InChIKey: ISZWRZGKEWQACU-UHFFFAOYSA-N
Formula: C15H10O3
MW: 238
ExactMass: 238.06299417999998
Comments: "license=License CC-BY-NC-SA 4.0 International" "author=Plant Biology, The Noble Foundation, Ardmore, OK, US/Dennis Fine, Daniel Wherritt, and Lloyd Sumner" "instrument type=LC-ESI-TOF" "instrument=impact HD" "ionization=ESI" "ionization mode=negative" "ms level=MS2" "precursor m/z=237.0568" "isolation width=5" "collision gas=Nitrogen" "collision energy=10" "peak width=0.012" "date=2014-01-05 04:20:30+01:00" "column=Waters Acquity BEH C18 1.7um x 2.1 x 150 mm" "retention time=680.4" "raw data file=C:\Data\Confirmed Standards\Confirmed stds MSMS 2Jan14\3'-Hydroxyflavone _MSMS.d" "precursor type=[M-H]-" "mass accuracy=4.563547639318661" "mass error=0.001081820000024436" "cas number=70460-18-3" "SMILES=c1ccc2c(c1)c(=O)cc(o2)c3cccc(c3)O" "InChI=InChI=1S/C15H10O3/c16-11-5-3-4-10(8-11)15-9-13(17)12-6-1-2-7-14(12)18-15/h1-9,16H" "InChIKey=ISZWRZGKEWQACU-UHFFFAOYSA-N" "molecular formula=C15H10O3" "total exact mass=238.06299417999998" "SMILES=C1=CC=C2C(=C1)C(=O)C=C(O2)C3=CC(=CC=C3)O"
Num Peaks: 3
 237 100.000000; 
 238 11.711712; 
 239 1.101101; 


Name: 3'-Hydroxyflavone
SYNON: $:00in-source
DB#: MetaboBASE0773
InChIKey: ISZWRZGKEWQACU-UHFFFAOYSA-N
Precursor_type: [M-H]-
Spectrum_type: MS2
PrecursorMZ: 237.0574
Instrument_type: LC-ESI-TOF
Instrument: impact HD
Ion_mode: N
Collision_energy: 30
InChIKey: ISZWRZGKEWQACU-UHFFFAOYSA-N
Formula: C15H10O3
MW: 238
ExactMass: 238.06299417999998
Comments: "license=License CC-BY-NC-SA 4.0 International" "author=Plant Biology, The Noble Foundation, Ardmore, OK, US/Dennis Fine, Daniel Wherritt, and Lloyd Sumner" "instrument type=LC-ESI-TOF" "instrument=impact HD" "ionization=ESI" "ionization mode=negative" "ms level=MS2" "precursor m/z=237.0574" "isolation width=5" "collision gas=Nitrogen" "collision energy=30" "peak width=0.016" "date=2014-01-05 04:20:30+01:00" "column=Waters Acquity BEH C18 1.7um x 2.1 x 150 mm" "retention time=680.4" "raw data file=C:\Data\Confirmed Standards\Confirmed stds MSMS 2Jan14\3'-Hydroxyflavone _MSMS.d" "precursor type=[M-H]-" "mass accuracy=7.0945686572785" "mass error=0.0016818200000159322" "cas number=70460-18-3" "SMILES=c1ccc2c(c1)c(=O)cc(o2)c3cccc(c3)O" "InChI=InChI=1S/C15H10O3/c16-11-5-3-4-10(8-11)15-9-13(17)12-6-1-2-7-14(12)18-15/h1-9,16H" "InChIKey=ISZWRZGKEWQACU-UHFFFAOYSA-N" "molecular formula=C15H10O3" "total exact mass=238.06299417999998" "SMILES=C1=CC=C2C(=C1)C(=O)C=C(O2)C3=CC(=CC=C3)O"
Num Peaks: 6
 117 100.000000; 
 118 7.107107; 
 209 1.301301; 
 235 1.101101; 
 237 21.421421; 
 238 3.703704; 


Name: 3'-Hydroxyflavone
SYNON: $:00in-source
DB#: MetaboBASE0774
InChIKey: ISZWRZGKEWQACU-UHFFFAOYSA-N
Precursor_type: [M-H]-
Spectrum_type: MS2
PrecursorMZ: 237.057
Instrument_type: LC-ESI-TOF
Instrument: impact HD
Ion_mode: N
Collision_energy: 20
InChIKey: ISZWRZGKEWQACU-UHFFFAOYSA-N
Formula: C15H10O3
MW: 238
ExactMass: 238.06299417999998
Comments: "license=License CC-BY-NC-SA 4.0 International" "author=Plant Biology, The Noble Foundation, Ardmore, OK, US/Dennis Fine, Daniel Wherritt, and Lloyd Sumner" "instrument type=LC-ESI-TOF" "instrument=impact HD" "ionization=ESI" "ionization mode=negative" "ms level=MS2" "precursor m/z=237.057" "isolation width=5" "collision gas=Nitrogen" "collision energy=20" "peak width=0.013" "date=2014-01-05 04:20:30+01:00" "column=Waters Acquity BEH C18 1.7um x 2.1 x 150 mm" "retention time=680.4" "raw data file=C:\Data\Confirmed Standards\Confirmed stds MSMS 2Jan14\3'-Hydroxyflavone _MSMS.d" "precursor type=[M-H]-" "mass accuracy=5.407222735471442" "mass error=0.0012818200000026536" "cas number=70460-18-3" "SMILES=c1ccc2c(c1)c(=O)cc(o2)c3cccc(c3)O" "InChI=InChI=1S/C15H10O3/c16-11-5-3-4-10(8-11)15-9-13(17)12-6-1-2-7-14(12)18-15/h1-9,16H" "InChIKey=ISZWRZGKEWQACU-UHFFFAOYSA-N" "molecular formula=C15H10O3" "total exact mass=238.06299417999998" "SMILES=C1=CC=C2C(=C1)C(=O)C=C(O2)C3=CC(=CC=C3)O"
Num Peaks: 5
 117 6.406406; 
 118 0.700701; 
 237 100.000000; 
 238 8.908909; 
 239 1.201201; 


Name: 3'-Hydroxyflavone
SYNON: $:00in-source
DB#: MetaboBASE0775
InChIKey: ISZWRZGKEWQACU-UHFFFAOYSA-N
Precursor_type: [M-H]-
Spectrum_type: MS2
PrecursorMZ: 237.1
Instrument_type: LC-ESI-TOF
Instrument: impact HD
Ion_mode: N
Collision_energy: 40
InChIKey: ISZWRZGKEWQACU-UHFFFAOYSA-N
Formula: C15H10O3
MW: 238
ExactMass: 238.06299417999998
Comments: "license=License CC-BY-NC-SA 4.0 International" "author=Plant Biology, The Noble Foundation, Ardmore, OK, US/Dennis Fine, Daniel Wherritt, and Lloyd Sumner" "instrument type=LC-ESI-TOF" "instrument=impact HD" "ionization=ESI" "ionization mode=negative" "ms level=MS2" "precursor m/z=237.1" "isolation width=5" "collision gas=Nitrogen" "collision energy=40" "peak width=0.017" "date=2014-01-05 04:20:30+01:00" "column=Waters Acquity BEH C18 1.7um x 2.1 x 150 mm" "retention time=680.4" "raw data file=C:\Data\Confirmed Standards\Confirmed stds MSMS 2Jan14\3'-Hydroxyflavone _MSMS.d" "precursor type=[M-H]-" "mass accuracy=186.76431885284276" "mass error=0.04428182000000902" "cas number=70460-18-3" "SMILES=c1ccc2c(c1)c(=O)cc(o2)c3cccc(c3)O" "InChI=InChI=1S/C15H10O3/c16-11-5-3-4-10(8-11)15-9-13(17)12-6-1-2-7-14(12)18-15/h1-9,16H" "InChIKey=ISZWRZGKEWQACU-UHFFFAOYSA-N" "molecular formula=C15H10O3" "total exact mass=238.06299417999998" "SMILES=C1=CC=C2C(=C1)C(=O)C=C(O2)C3=CC(=CC=C3)O"
Num Peaks: 2
 117 100.000000; 
 118 4.704705; 


Name: 2',4'-Dihydroxychalcone
SYNON: $:00in-source
DB#: MetaboBASE0776
InChIKey: JUMSUVHHUVPSOY-RMKNXTFCSA-N
Precursor_type: [M-H]-
Spectrum_type: MS2
PrecursorMZ: 239.0704
Instrument_type: LC-ESI-TOF
Instrument: impact HD
Ion_mode: N
Collision_energy: 30
InChIKey: JUMSUVHHUVPSOY-RMKNXTFCSA-N
Formula: C15H12O3
MW: 240
ExactMass: 240.07864424399997
Comments: "license=License CC-BY-NC-SA 4.0 International" "author=Plant Biology, The Noble Foundation, Ardmore, OK, US/Dennis Fine, Daniel Wherritt, and Lloyd Sumner" "instrument type=LC-ESI-TOF" "instrument=impact HD" "ionization=ESI" "ionization mode=negative" "ms level=MS2" "precursor m/z=239.0704" "isolation width=5" "collision gas=Nitrogen" "collision energy=30" "peak width=0.015" "date=2014-01-04 21:33:08+01:00" "column=Waters Acquity BEH C18 1.7um x 2.1 x 150 mm" "retention time=984" "raw data file=C:\Data\Confirmed Standards\Confirmed stds MSMS 2Jan14\2'4'Dihydroxychalcone _MSMS.d" "precursor type=[M-H]-" "mass accuracy=4.050037143777975" "mass error=-9.68243999977858E-4" "cas number=25515-43-9" "SMILES=c1ccc(cc1)/C=C/C(=O)c2ccc(cc2O)O" "InChI=InChI=1S/C15H12O3/c16-12-7-8-13(15(18)10-12)14(17)9-6-11-4-2-1-3-5-11/h1-10,16,18H/b9-6+" "InChIKey=JUMSUVHHUVPSOY-RMKNXTFCSA-N" "molecular formula=C15H12O3" "total exact mass=240.07864424399997" "SMILES=C1=CC=C(C=C1)C=CC(=O)C2=C(C=C(C=C2)O)O"
Num Peaks: 13
 109 17.617618; 
 127 7.107107; 
 135 100.000000; 
 136 15.715716; 
 148 15.715716; 
 153 11.511512; 
 167 8.308308; 
 169 6.906907; 
 193 10.210210; 
 197 31.231231; 
 239 26.526527; 
 240 7.607608; 
 257 9.409409; 


Name: 2',4'-Dihydroxychalcone
SYNON: $:00in-source
DB#: MetaboBASE0777
InChIKey: JUMSUVHHUVPSOY-RMKNXTFCSA-N
Instrument_type: LC-ESI-TOF
Instrument: impact HD
Ion_mode: N
InChIKey: JUMSUVHHUVPSOY-RMKNXTFCSA-N
Formula: C15H12O3
MW: 240
ExactMass: 240.078644244
Comments: "license=License CC-BY-NC-SA 4.0 International" "author=Plant Biology, The Noble Foundation, Ardmore, OK, US/Dennis Fine, Daniel Wherritt, and Lloyd Sumner" "instrument type=LC-ESI-TOF" "instrument=impact HD" "ionization=ESI" "ionization mode=negative" "collision gas=Nitrogen" "peak width=0.014" "date=2014-01-04 21:33:08+01:00" "column=Waters Acquity BEH C18 1.7um x 2.1 x 150 mm" "retention time=984" "raw data file=C:\Data\Confirmed Standards\Confirmed stds MSMS 2Jan14\2'4'Dihydroxychalcone _MSMS.d" "cas number=25515-43-9" "SMILES=c1ccc(cc1)/C=C/C(=O)c2ccc(cc2O)O" "InChI=InChI=1S/C15H12O3/c16-12-7-8-13(15(18)10-12)14(17)9-6-11-4-2-1-3-5-11/h1-10,16,18H/b9-6+" "InChIKey=JUMSUVHHUVPSOY-RMKNXTFCSA-N" "molecular formula=C15H12O3" "total exact mass=240.078644244" "SMILES=C1=CC=C(C=C1)C=CC(=O)C2=C(C=C(C=C2)O)O"
Num Peaks: 11
 112 0.200200; 
 174 0.100100; 
 239 100.000000; 
 240 10.910911; 
 241 1.101101; 
 242 0.100100; 
 242 0.100100; 
 248 0.100100; 
 307 0.300300; 
 479 0.200200; 
 666 0.300300; 


Name: 2',4'-Dihydroxychalcone
SYNON: $:00in-source
DB#: MetaboBASE0778
InChIKey: JUMSUVHHUVPSOY-RMKNXTFCSA-N
Precursor_type: [M-H]-
Spectrum_type: MS2
PrecursorMZ: 239.0707
Instrument_type: LC-ESI-TOF
Instrument: impact HD
Ion_mode: N
Collision_energy: 20
InChIKey: JUMSUVHHUVPSOY-RMKNXTFCSA-N
Formula: C15H12O3
MW: 240
ExactMass: 240.07864424399997
Comments: "license=License CC-BY-NC-SA 4.0 International" "author=Plant Biology, The Noble Foundation, Ardmore, OK, US/Dennis Fine, Daniel Wherritt, and Lloyd Sumner" "instrument type=LC-ESI-TOF" "instrument=impact HD" "ionization=ESI" "ionization mode=negative" "ms level=MS2" "precursor m/z=239.0707" "isolation width=5" "collision gas=Nitrogen" "collision energy=20" "peak width=0.014" "date=2014-01-04 21:33:08+01:00" "column=Waters Acquity BEH C18 1.7um x 2.1 x 150 mm" "retention time=984" "raw data file=C:\Data\Confirmed Standards\Confirmed stds MSMS 2Jan14\2'4'Dihydroxychalcone _MSMS.d" "precursor type=[M-H]-" "mass accuracy=2.7951731433267266" "mass error=-6.682439999963208E-4" "cas number=25515-43-9" "SMILES=c1ccc(cc1)/C=C/C(=O)c2ccc(cc2O)O" "InChI=InChI=1S/C15H12O3/c16-12-7-8-13(15(18)10-12)14(17)9-6-11-4-2-1-3-5-11/h1-10,16,18H/b9-6+" "InChIKey=JUMSUVHHUVPSOY-RMKNXTFCSA-N" "molecular formula=C15H12O3" "total exact mass=240.07864424399997" "SMILES=C1=CC=C(C=C1)C=CC(=O)C2=C(C=C(C=C2)O)O"
Num Peaks: 17
 109 2.802803; 
 135 24.324324; 
 136 1.401401; 
 147 0.500501; 
 148 3.803804; 
 153 3.103103; 
 167 1.701702; 
 180 1.101101; 
 193 0.600601; 
 195 2.102102; 
 196 0.500501; 
 197 5.505506; 
 198 1.201201; 
 211 0.700701; 
 239 100.000000; 
 240 19.619620; 
 241 2.202202; 


Name: 2',4'-Dihydroxychalcone
SYNON: $:00in-source
DB#: MetaboBASE0779
InChIKey: JUMSUVHHUVPSOY-RMKNXTFCSA-N
Precursor_type: [M-H]-
Spectrum_type: MS2
PrecursorMZ: 239.071
Instrument_type: LC-ESI-TOF
Instrument: impact HD
Ion_mode: N
Collision_energy: 10
InChIKey: JUMSUVHHUVPSOY-RMKNXTFCSA-N
Formula: C15H12O3
MW: 240
ExactMass: 240.078644244
Comments: "license=License CC-BY-NC-SA 4.0 International" "author=Plant Biology, The Noble Foundation, Ardmore, OK, US/Dennis Fine, Daniel Wherritt, and Lloyd Sumner" "instrument type=LC-ESI-TOF" "instrument=impact HD" "ionization=ESI" "ionization mode=negative" "ms level=MS2" "precursor m/z=239.071" "isolation width=5" "collision gas=Nitrogen" "collision energy=10" "peak width=0.011" "date=2014-01-04 21:33:08+01:00" "column=Waters Acquity BEH C18 1.7um x 2.1 x 150 mm" "retention time=984" "raw data file=C:\Data\Confirmed Standards\Confirmed stds MSMS 2Jan14\2'4'Dihydroxychalcone _MSMS.d" "precursor type=[M-H]-" "mass accuracy=1.54031229222609" "mass error=-3.682440000147835E-4" "cas number=25515-43-9" "SMILES=c1ccc(cc1)/C=C/C(=O)c2ccc(cc2O)O" "InChI=InChI=1S/C15H12O3/c16-12-7-8-13(15(18)10-12)14(17)9-6-11-4-2-1-3-5-11/h1-10,16,18H/b9-6+" "InChIKey=JUMSUVHHUVPSOY-RMKNXTFCSA-N" "molecular formula=C15H12O3" "total exact mass=240.078644244" "SMILES=C1=CC=C(C=C1)C=CC(=O)C2=C(C=C(C=C2)O)O"
Num Peaks: 5
 135 0.400400; 
 197 0.200200; 
 239 100.000000; 
 240 15.715716; 
 241 0.900901; 


Name: Icariin
SYNON: $:00in-source
DB#: MetaboBASE0780
InChIKey: TZJALUIVHRYQQB-XLRXWWTNSA-N
Precursor_type: [M+FA-H]-
Spectrum_type: MS2
PrecursorMZ: 721.2
Instrument_type: LC-ESI-TOF
Instrument: impact HD
Ion_mode: N
Collision_energy: 50
InChIKey: TZJALUIVHRYQQB-XLRXWWTNSA-N
Formula: C33H40O15
MW: 676
ExactMass: 676.23672058
Comments: "license=License CC-BY-NC-SA 4.0 International" "author=Plant Biology, The Noble Foundation, Ardmore, OK, US/Dennis Fine, Daniel Wherritt, and Lloyd Sumner" "instrument type=LC-ESI-TOF" "instrument=impact HD" "ionization=ESI" "ionization mode=negative" "ms level=MS2" "precursor m/z=721.2" "isolation width=5" "collision gas=Nitrogen" "collision energy=50" "peak width=0.012" "date=2014-01-04 08:39:15+01:00" "column=Waters Acquity BEH C18 1.7um x 2.1 x 150 mm" "retention time=732" "raw data file=C:\Data\Confirmed Standards\Confirmed stds MSMS 2Jan14\Icariin (vial 314)_MSMS_2408.d" "precursor type=[M+FA-H]-" "mass accuracy=48.4214919577726" "mass error=-0.03492157999994561" "cas number=489-32-7" "SMILES=C[C@H]1[C@@H]([C@H]([C@H]([C@@H](O1)Oc2c(=O)c3c(cc(c(c3oc2c4ccc(cc4)OC)CC=C(C)C)O[C@H]5[C@@H]([C@H]([C@@H]([C@H](O5)CO)O)O)O)O)O)O)O" "InChI=InChI=1S/C33H40O15/c1-13(2)5-10-17-19(45-33-28(42)26(40)23(37)20(12-34)46-33)11-18(35)21-24(38)31(48-32-27(41)25(39)22(36)14(3)44-32)29(47-30(17)21)15-6-8-16(43-4)9-7-15/h5-9,11,14,20,22-23,25-28,32-37,39-42H,10,12H2,1-4H3/t14-,20+,22-,23+,25+,26-,27+,28+,32-,33+/m0/s1" "InChIKey=TZJALUIVHRYQQB-XLRXWWTNSA-N" "molecular formula=C33H40O15" "total exact mass=676.23672058" "SMILES=CC1C(C(C(C(O1)OC=2C(=O)C=3C(=CC(=C(C3OC2C=4C=CC(=CC4)OC)CC=C(C)C)OC5C(C(C(C(O5)CO)O)O)O)O)O)O)O" "InChI=InChI=1S/C33H40O15/c1-13(2)5-10-17-19(45-33-28(42)26(40)23(37)20(12-34)46-33)11-18(35)21-24(38)31(48-32-27(41)25(39)22(36)14(3)44-32)29(47-30(17)21)15-6-8-16(43-4)9-7-15/h5-9,11,14,20,22-23,25-28,32-37,39-42H,10,12H2,1-4H3" "InChIKey=TZJALUIVHRYQQB-UHFFFAOYSA-N"
Num Peaks: 19
 297 0.900901; 
 309 1.001001; 
 311 1.001001; 
 312 0.600601; 
 323 1.101101; 
 351 1.901902; 
 352 2.002002; 
 353 0.700701; 
 366 12.412412; 
 367 100.000000; 
 368 17.017017; 
 369 2.102102; 
 379 0.600601; 
 389 0.900901; 
 409 1.701702; 
 410 0.700701; 
 513 14.314314; 
 514 4.004004; 
 515 0.800801; 


Name: Icariin
SYNON: $:00in-source
DB#: MetaboBASE0781
InChIKey: TZJALUIVHRYQQB-XLRXWWTNSA-N
Instrument_type: LC-ESI-TOF
Instrument: impact HD
Ion_mode: N
InChIKey: TZJALUIVHRYQQB-XLRXWWTNSA-N
Formula: C33H40O15
MW: 676
ExactMass: 676.23672058
Comments: "license=License CC-BY-NC-SA 4.0 International" "author=Plant Biology, The Noble Foundation, Ardmore, OK, US/Dennis Fine, Daniel Wherritt, and Lloyd Sumner" "instrument type=LC-ESI-TOF" "instrument=impact HD" "ionization=ESI" "ionization mode=negative" "collision gas=Nitrogen" "peak width=0.012" "date=2014-01-04 08:39:15+01:00" "column=Waters Acquity BEH C18 1.7um x 2.1 x 150 mm" "retention time=732" "raw data file=C:\Data\Confirmed Standards\Confirmed stds MSMS 2Jan14\Icariin (vial 314)_MSMS_2408.d" "cas number=489-32-7" "SMILES=C[C@H]1[C@@H]([C@H]([C@H]([C@@H](O1)Oc2c(=O)c3c(cc(c(c3oc2c4ccc(cc4)OC)CC=C(C)C)O[C@H]5[C@@H]([C@H]([C@@H]([C@H](O5)CO)O)O)O)O)O)O)O" "InChI=InChI=1S/C33H40O15/c1-13(2)5-10-17-19(45-33-28(42)26(40)23(37)20(12-34)46-33)11-18(35)21-24(38)31(48-32-27(41)25(39)22(36)14(3)44-32)29(47-30(17)21)15-6-8-16(43-4)9-7-15/h5-9,11,14,20,22-23,25-28,32-37,39-42H,10,12H2,1-4H3/t14-,20+,22-,23+,25+,26-,27+,28+,32-,33+/m0/s1" "InChIKey=TZJALUIVHRYQQB-XLRXWWTNSA-N" "molecular formula=C33H40O15" "total exact mass=676.23672058" "SMILES=CC1C(C(C(C(O1)OC=2C(=O)C=3C(=CC(=C(C3OC2C=4C=CC(=CC4)OC)CC=C(C)C)OC5C(C(C(C(O5)CO)O)O)O)O)O)O)O" "InChI=InChI=1S/C33H40O15/c1-13(2)5-10-17-19(45-33-28(42)26(40)23(37)20(12-34)46-33)11-18(35)21-24(38)31(48-32-27(41)25(39)22(36)14(3)44-32)29(47-30(17)21)15-6-8-16(43-4)9-7-15/h5-9,11,14,20,22-23,25-28,32-37,39-42H,10,12H2,1-4H3" "InChIKey=TZJALUIVHRYQQB-UHFFFAOYSA-N"
Num Peaks: 15
 112 1.701702; 
 666 7.607608; 
 667 0.900901; 
 721 100.000000; 
 722 32.832833; 
 723 7.707708; 
 724 1.801802; 
 743 7.807808; 
 744 1.801802; 
 793 1.001001; 
 811 1.201201; 
 1059 0.900901; 
 1397 4.104104; 
 1398 2.702703; 
 1399 1.001001; 


Name: Icariin
SYNON: $:00in-source
DB#: MetaboBASE0782
InChIKey: TZJALUIVHRYQQB-XLRXWWTNSA-N
Precursor_type: [M+FA-H]-
Spectrum_type: MS2
PrecursorMZ: 721.2375
Instrument_type: LC-ESI-TOF
Instrument: impact HD
Ion_mode: N
Collision_energy: 10
InChIKey: TZJALUIVHRYQQB-XLRXWWTNSA-N
Formula: C33H40O15
MW: 676
ExactMass: 676.23672058
Comments: "license=License CC-BY-NC-SA 4.0 International" "author=Plant Biology, The Noble Foundation, Ardmore, OK, US/Dennis Fine, Daniel Wherritt, and Lloyd Sumner" "instrument type=LC-ESI-TOF" "instrument=impact HD" "ionization=ESI" "ionization mode=negative" "ms level=MS2" "precursor m/z=721.2375" "isolation width=5" "collision gas=Nitrogen" "collision energy=10" "peak width=0.011" "date=2014-01-04 08:39:15+01:00" "column=Waters Acquity BEH C18 1.7um x 2.1 x 150 mm" "retention time=732" "raw data file=C:\Data\Confirmed Standards\Confirmed stds MSMS 2Jan14\Icariin (vial 314)_MSMS_2408.d" "precursor type=[M+FA-H]-" "mass accuracy=3.5749943672693725" "mass error=0.002578419999963444" "cas number=489-32-7" "SMILES=C[C@H]1[C@@H]([C@H]([C@H]([C@@H](O1)Oc2c(=O)c3c(cc(c(c3oc2c4ccc(cc4)OC)CC=C(C)C)O[C@H]5[C@@H]([C@H]([C@@H]([C@H](O5)CO)O)O)O)O)O)O)O" "InChI=InChI=1S/C33H40O15/c1-13(2)5-10-17-19(45-33-28(42)26(40)23(37)20(12-34)46-33)11-18(35)21-24(38)31(48-32-27(41)25(39)22(36)14(3)44-32)29(47-30(17)21)15-6-8-16(43-4)9-7-15/h5-9,11,14,20,22-23,25-28,32-37,39-42H,10,12H2,1-4H3/t14-,20+,22-,23+,25+,26-,27+,28+,32-,33+/m0/s1" "InChIKey=TZJALUIVHRYQQB-XLRXWWTNSA-N" "molecular formula=C33H40O15" "total exact mass=676.23672058" "SMILES=CC1C(C(C(C(O1)OC=2C(=O)C=3C(=CC(=C(C3OC2C=4C=CC(=CC4)OC)CC=C(C)C)OC5C(C(C(C(O5)CO)O)O)O)O)O)O)O" "InChI=InChI=1S/C33H40O15/c1-13(2)5-10-17-19(45-33-28(42)26(40)23(37)20(12-34)46-33)11-18(35)21-24(38)31(48-32-27(41)25(39)22(36)14(3)44-32)29(47-30(17)21)15-6-8-16(43-4)9-7-15/h5-9,11,14,20,22-23,25-28,32-37,39-42H,10,12H2,1-4H3" "InChIKey=TZJALUIVHRYQQB-UHFFFAOYSA-N"
Num Peaks: 14
 406 1.201201; 
 409 0.900901; 
 513 19.819820; 
 514 5.305305; 
 529 3.003003; 
 530 1.301301; 
 555 1.401401; 
 597 0.800801; 
 675 1.501502; 
 676 1.001001; 
 721 100.000000; 
 722 30.230230; 
 723 7.307307; 
 724 1.101101; 


Name: Icariin
SYNON: $:00in-source
DB#: MetaboBASE0783
InChIKey: TZJALUIVHRYQQB-XLRXWWTNSA-N
Precursor_type: [M+FA-H]-
Spectrum_type: MS2
PrecursorMZ: 721.2346
Instrument_type: LC-ESI-TOF
Instrument: impact HD
Ion_mode: N
Collision_energy: 20
InChIKey: TZJALUIVHRYQQB-XLRXWWTNSA-N
Formula: C33H40O15
MW: 676
ExactMass: 676.23672058
Comments: "license=License CC-BY-NC-SA 4.0 International" "author=Plant Biology, The Noble Foundation, Ardmore, OK, US/Dennis Fine, Daniel Wherritt, and Lloyd Sumner" "instrument type=LC-ESI-TOF" "instrument=impact HD" "ionization=ESI" "ionization mode=negative" "ms level=MS2" "precursor m/z=721.2346" "isolation width=5" "collision gas=Nitrogen" "collision energy=20" "peak width=0.013" "date=2014-01-04 08:39:15+01:00" "column=Waters Acquity BEH C18 1.7um x 2.1 x 150 mm" "retention time=732" "raw data file=C:\Data\Confirmed Standards\Confirmed stds MSMS 2Jan14\Icariin (vial 314)_MSMS_2408.d" "precursor type=[M+FA-H]-" "mass accuracy=0.44587433823989814" "mass error=-3.215799999907176E-4" "cas number=489-32-7" "SMILES=C[C@H]1[C@@H]([C@H]([C@H]([C@@H](O1)Oc2c(=O)c3c(cc(c(c3oc2c4ccc(cc4)OC)CC=C(C)C)O[C@H]5[C@@H]([C@H]([C@@H]([C@H](O5)CO)O)O)O)O)O)O)O" "InChI=InChI=1S/C33H40O15/c1-13(2)5-10-17-19(45-33-28(42)26(40)23(37)20(12-34)46-33)11-18(35)21-24(38)31(48-32-27(41)25(39)22(36)14(3)44-32)29(47-30(17)21)15-6-8-16(43-4)9-7-15/h5-9,11,14,20,22-23,25-28,32-37,39-42H,10,12H2,1-4H3/t14-,20+,22-,23+,25+,26-,27+,28+,32-,33+/m0/s1" "InChIKey=TZJALUIVHRYQQB-XLRXWWTNSA-N" "molecular formula=C33H40O15" "total exact mass=676.23672058" "SMILES=CC1C(C(C(C(O1)OC=2C(=O)C=3C(=CC(=C(C3OC2C=4C=CC(=CC4)OC)CC=C(C)C)OC5C(C(C(C(O5)CO)O)O)O)O)O)O)O" "InChI=InChI=1S/C33H40O15/c1-13(2)5-10-17-19(45-33-28(42)26(40)23(37)20(12-34)46-33)11-18(35)21-24(38)31(48-32-27(41)25(39)22(36)14(3)44-32)29(47-30(17)21)15-6-8-16(43-4)9-7-15/h5-9,11,14,20,22-23,25-28,32-37,39-42H,10,12H2,1-4H3" "InChIKey=TZJALUIVHRYQQB-UHFFFAOYSA-N"
Num Peaks: 15
 367 3.903904; 
 368 1.401401; 
 409 6.406406; 
 410 1.001001; 
 513 100.000000; 
 514 25.025025; 
 515 4.404404; 
 529 36.936937; 
 530 9.809810; 
 531 1.801802; 
 555 2.702703; 
 597 0.900901; 
 721 6.606607; 
 722 1.801802; 
 723 0.900901; 


Name: Icariin
SYNON: $:00in-source
DB#: MetaboBASE0784
InChIKey: TZJALUIVHRYQQB-XLRXWWTNSA-N
Precursor_type: [M+FA-H]-
Spectrum_type: MS2
PrecursorMZ: 721.2
Instrument_type: LC-ESI-TOF
Instrument: impact HD
Ion_mode: N
Collision_energy: 30
InChIKey: TZJALUIVHRYQQB-XLRXWWTNSA-N
Formula: C33H40O15
MW: 676
ExactMass: 676.23672058
Comments: "license=License CC-BY-NC-SA 4.0 International" "author=Plant Biology, The Noble Foundation, Ardmore, OK, US/Dennis Fine, Daniel Wherritt, and Lloyd Sumner" "instrument type=LC-ESI-TOF" "instrument=impact HD" "ionization=ESI" "ionization mode=negative" "ms level=MS2" "precursor m/z=721.2" "isolation width=5" "collision gas=Nitrogen" "collision energy=30" "peak width=0.013" "date=2014-01-04 08:39:15+01:00" "column=Waters Acquity BEH C18 1.7um x 2.1 x 150 mm" "retention time=732" "raw data file=C:\Data\Confirmed Standards\Confirmed stds MSMS 2Jan14\Icariin (vial 314)_MSMS_2408.d" "precursor type=[M+FA-H]-" "mass accuracy=48.4214919577726" "mass error=-0.03492157999994561" "cas number=489-32-7" "SMILES=C[C@H]1[C@@H]([C@H]([C@H]([C@@H](O1)Oc2c(=O)c3c(cc(c(c3oc2c4ccc(cc4)OC)CC=C(C)C)O[C@H]5[C@@H]([C@H]([C@@H]([C@H](O5)CO)O)O)O)O)O)O)O" "InChI=InChI=1S/C33H40O15/c1-13(2)5-10-17-19(45-33-28(42)26(40)23(37)20(12-34)46-33)11-18(35)21-24(38)31(48-32-27(41)25(39)22(36)14(3)44-32)29(47-30(17)21)15-6-8-16(43-4)9-7-15/h5-9,11,14,20,22-23,25-28,32-37,39-42H,10,12H2,1-4H3/t14-,20+,22-,23+,25+,26-,27+,28+,32-,33+/m0/s1" "InChIKey=TZJALUIVHRYQQB-XLRXWWTNSA-N" "molecular formula=C33H40O15" "total exact mass=676.23672058" "SMILES=CC1C(C(C(C(O1)OC=2C(=O)C=3C(=CC(=C(C3OC2C=4C=CC(=CC4)OC)CC=C(C)C)OC5C(C(C(C(O5)CO)O)O)O)O)O)O)O" "InChI=InChI=1S/C33H40O15/c1-13(2)5-10-17-19(45-33-28(42)26(40)23(37)20(12-34)46-33)11-18(35)21-24(38)31(48-32-27(41)25(39)22(36)14(3)44-32)29(47-30(17)21)15-6-8-16(43-4)9-7-15/h5-9,11,14,20,22-23,25-28,32-37,39-42H,10,12H2,1-4H3" "InChIKey=TZJALUIVHRYQQB-UHFFFAOYSA-N"
Num Peaks: 14
 366 1.201201; 
 367 67.567568; 
 368 12.312312; 
 369 1.701702; 
 409 14.114114; 
 410 2.802803; 
 513 100.000000; 
 514 25.925926; 
 515 5.205205; 
 516 1.501502; 
 529 50.450450; 
 530 11.311311; 
 531 2.402402; 
 555 1.301301; 


Name: Icariin
SYNON: $:00in-source
DB#: MetaboBASE0785
InChIKey: TZJALUIVHRYQQB-XLRXWWTNSA-N
Precursor_type: [M+FA-H]-
Spectrum_type: MS2
PrecursorMZ: 721.2
Instrument_type: LC-ESI-TOF
Instrument: impact HD
Ion_mode: N
Collision_energy: 40
InChIKey: TZJALUIVHRYQQB-XLRXWWTNSA-N
Formula: C33H40O15
MW: 676
ExactMass: 676.23672058
Comments: "license=License CC-BY-NC-SA 4.0 International" "author=Plant Biology, The Noble Foundation, Ardmore, OK, US/Dennis Fine, Daniel Wherritt, and Lloyd Sumner" "instrument type=LC-ESI-TOF" "instrument=impact HD" "ionization=ESI" "ionization mode=negative" "ms level=MS2" "precursor m/z=721.2" "isolation width=5" "collision gas=Nitrogen" "collision energy=40" "peak width=0.014" "date=2014-01-04 08:39:15+01:00" "column=Waters Acquity BEH C18 1.7um x 2.1 x 150 mm" "retention time=732" "raw data file=C:\Data\Confirmed Standards\Confirmed stds MSMS 2Jan14\Icariin (vial 314)_MSMS_2408.d" "precursor type=[M+FA-H]-" "mass accuracy=48.4214919577726" "mass error=-0.03492157999994561" "cas number=489-32-7" "SMILES=C[C@H]1[C@@H]([C@H]([C@H]([C@@H](O1)Oc2c(=O)c3c(cc(c(c3oc2c4ccc(cc4)OC)CC=C(C)C)O[C@H]5[C@@H]([C@H]([C@@H]([C@H](O5)CO)O)O)O)O)O)O)O" "InChI=InChI=1S/C33H40O15/c1-13(2)5-10-17-19(45-33-28(42)26(40)23(37)20(12-34)46-33)11-18(35)21-24(38)31(48-32-27(41)25(39)22(36)14(3)44-32)29(47-30(17)21)15-6-8-16(43-4)9-7-15/h5-9,11,14,20,22-23,25-28,32-37,39-42H,10,12H2,1-4H3/t14-,20+,22-,23+,25+,26-,27+,28+,32-,33+/m0/s1" "InChIKey=TZJALUIVHRYQQB-XLRXWWTNSA-N" "molecular formula=C33H40O15" "total exact mass=676.23672058" "SMILES=CC1C(C(C(C(O1)OC=2C(=O)C=3C(=CC(=C(C3OC2C=4C=CC(=CC4)OC)CC=C(C)C)OC5C(C(C(C(O5)CO)O)O)O)O)O)O)O" "InChI=InChI=1S/C33H40O15/c1-13(2)5-10-17-19(45-33-28(42)26(40)23(37)20(12-34)46-33)11-18(35)21-24(38)31(48-32-27(41)25(39)22(36)14(3)44-32)29(47-30(17)21)15-6-8-16(43-4)9-7-15/h5-9,11,14,20,22-23,25-28,32-37,39-42H,10,12H2,1-4H3" "InChIKey=TZJALUIVHRYQQB-UHFFFAOYSA-N"
Num Peaks: 11
 366 3.003003; 
 367 100.000000; 
 368 16.216216; 
 369 1.501502; 
 409 5.605606; 
 410 1.301301; 
 513 37.437437; 
 514 8.108108; 
 515 0.900901; 
 529 4.904905; 
 530 1.701702; 


Name: Homoeriodictyol
SYNON: $:00in-source
DB#: MetaboBASE0786
InChIKey: FTODBIPDTXRIGS-ZDUSSCGKSA-N
Precursor_type: [M-H]-
Spectrum_type: MS2
PrecursorMZ: 301.1
Instrument_type: LC-ESI-TOF
Instrument: impact HD
Ion_mode: N
Collision_energy: 40
InChIKey: FTODBIPDTXRIGS-ZDUSSCGKSA-N
Formula: C16H14O6
MW: 302
ExactMass: 302.07903816799995
Comments: "license=License CC-BY-NC-SA 4.0 International" "author=Plant Biology, The Noble Foundation, Ardmore, OK, US/Dennis Fine, Daniel Wherritt, and Lloyd Sumner" "instrument type=LC-ESI-TOF" "instrument=impact HD" "ionization=ESI" "ionization mode=negative" "ms level=MS2" "precursor m/z=301.1" "isolation width=5" "collision gas=Nitrogen" "collision energy=40" "peak width=0.014" "date=2014-01-04 20:11:41+01:00" "column=Waters Acquity BEH C18 1.7um x 2.1 x 150 mm" "retention time=596.4" "raw data file=C:\Data\Confirmed Standards\Confirmed stds MSMS 2Jan14\Homoeriodictyol _MSMS.d" "precursor type=[M-H]-" "mass accuracy=93.78223845917938" "mass error=0.028237832000058916" "cas number=446-71-9" "SMILES=COc1cc(ccc1O)[C@@H]2CC(=O)c3c(cc(cc3O2)O)O" "InChI=InChI=1S/C16H14O6/c1-21-14-4-8(2-3-10(14)18)13-7-12(20)16-11(19)5-9(17)6-15(16)22-13/h2-6,13,17-19H,7H2,1H3/t13-/m0/s1" "InChIKey=FTODBIPDTXRIGS-ZDUSSCGKSA-N" "molecular formula=C16H14O6" "total exact mass=302.07903816799995" "SMILES=COC1=C(C=CC(=C1)C2CC(=O)C3=C(C=C(C=C3O2)O)O)O"
Num Peaks: 8
 107 9.009009; 
 108 47.747748; 
 134 100.000000; 
 135 10.810811; 
 136 18.818819; 
 149 11.911912; 
 151 30.930931; 
 164 13.613614; 


Name: Homoeriodictyol
SYNON: $:00in-source
DB#: MetaboBASE0787
InChIKey: FTODBIPDTXRIGS-ZDUSSCGKSA-N
Instrument_type: LC-ESI-TOF
Instrument: impact HD
Ion_mode: N
InChIKey: FTODBIPDTXRIGS-ZDUSSCGKSA-N
Formula: C16H14O6
MW: 302
ExactMass: 302.07903816799995
Comments: "license=License CC-BY-NC-SA 4.0 International" "author=Plant Biology, The Noble Foundation, Ardmore, OK, US/Dennis Fine, Daniel Wherritt, and Lloyd Sumner" "instrument type=LC-ESI-TOF" "instrument=impact HD" "ionization=ESI" "ionization mode=negative" "collision gas=Nitrogen" "peak width=0.013" "date=2014-01-04 20:11:41+01:00" "column=Waters Acquity BEH C18 1.7um x 2.1 x 150 mm" "retention time=596.4" "raw data file=C:\Data\Confirmed Standards\Confirmed stds MSMS 2Jan14\Homoeriodictyol _MSMS.d" "cas number=446-71-9" "SMILES=COc1cc(ccc1O)[C@@H]2CC(=O)c3c(cc(cc3O2)O)O" "InChI=InChI=1S/C16H14O6/c1-21-14-4-8(2-3-10(14)18)13-7-12(20)16-11(19)5-9(17)6-15(16)22-13/h2-6,13,17-19H,7H2,1H3/t13-/m0/s1" "InChIKey=FTODBIPDTXRIGS-ZDUSSCGKSA-N" "molecular formula=C16H14O6" "total exact mass=302.07903816799995" "SMILES=COC1=C(C=CC(=C1)C2CC(=O)C3=C(C=C(C=C3O2)O)O)O"
Num Peaks: 19
 112 0.400400; 
 116 0.300300; 
 174 0.200200; 
 235 0.400400; 
 242 0.300300; 
 248 0.300300; 
 301 100.000000; 
 302 13.813814; 
 303 1.301301; 
 369 1.701702; 
 370 0.300300; 
 431 0.200200; 
 437 0.300300; 
 492 0.200200; 
 499 0.200200; 
 603 6.906907; 
 604 2.202202; 
 605 0.400400; 
 666 0.700701; 


Name: Homoeriodictyol
SYNON: $:00in-source
DB#: MetaboBASE0788
InChIKey: FTODBIPDTXRIGS-ZDUSSCGKSA-N
Precursor_type: [M-H]-
Spectrum_type: MS2
PrecursorMZ: 301.0722
Instrument_type: LC-ESI-TOF
Instrument: impact HD
Ion_mode: N
Collision_energy: 20
InChIKey: FTODBIPDTXRIGS-ZDUSSCGKSA-N
Formula: C16H14O6
MW: 302
ExactMass: 302.07903816799995
Comments: "license=License CC-BY-NC-SA 4.0 International" "author=Plant Biology, The Noble Foundation, Ardmore, OK, US/Dennis Fine, Daniel Wherritt, and Lloyd Sumner" "instrument type=LC-ESI-TOF" "instrument=impact HD" "ionization=ESI" "ionization mode=negative" "ms level=MS2" "precursor m/z=301.0722" "isolation width=5" "collision gas=Nitrogen" "collision energy=20" "peak width=0.014" "date=2014-01-04 20:11:41+01:00" "column=Waters Acquity BEH C18 1.7um x 2.1 x 150 mm" "retention time=596.4" "raw data file=C:\Data\Confirmed Standards\Confirmed stds MSMS 2Jan14\Homoeriodictyol _MSMS.d" "precursor type=[M-H]-" "mass accuracy=1.454242537323426" "mass error=4.37832000045546E-4" "cas number=446-71-9" "SMILES=COc1cc(ccc1O)[C@@H]2CC(=O)c3c(cc(cc3O2)O)O" "InChI=InChI=1S/C16H14O6/c1-21-14-4-8(2-3-10(14)18)13-7-12(20)16-11(19)5-9(17)6-15(16)22-13/h2-6,13,17-19H,7H2,1H3/t13-/m0/s1" "InChIKey=FTODBIPDTXRIGS-ZDUSSCGKSA-N" "molecular formula=C16H14O6" "total exact mass=302.07903816799995" "SMILES=COC1=C(C=CC(=C1)C2CC(=O)C3=C(C=C(C=C3O2)O)O)O"
Num Peaks: 17
 107 2.102102; 
 108 2.502503; 
 123 3.403403; 
 134 2.502503; 
 149 9.909910; 
 151 35.135135; 
 152 1.901902; 
 164 1.901902; 
 177 3.803804; 
 241 1.401401; 
 257 2.102102; 
 258 2.602603; 
 286 7.407407; 
 287 1.401401; 
 301 100.000000; 
 302 12.012012; 
 303 1.901902; 


Name: Homoeriodictyol
SYNON: $:00in-source
DB#: MetaboBASE0789
InChIKey: FTODBIPDTXRIGS-ZDUSSCGKSA-N
Precursor_type: [M-H]-
Spectrum_type: MS2
PrecursorMZ: 301.072
Instrument_type: LC-ESI-TOF
Instrument: impact HD
Ion_mode: N
Collision_energy: 10
InChIKey: FTODBIPDTXRIGS-ZDUSSCGKSA-N
Formula: C16H14O6
MW: 302
ExactMass: 302.079038168
Comments: "license=License CC-BY-NC-SA 4.0 International" "author=Plant Biology, The Noble Foundation, Ardmore, OK, US/Dennis Fine, Daniel Wherritt, and Lloyd Sumner" "instrument type=LC-ESI-TOF" "instrument=impact HD" "ionization=ESI" "ionization mode=negative" "ms level=MS2" "precursor m/z=301.072" "isolation width=5" "collision gas=Nitrogen" "collision energy=10" "peak width=0.011" "date=2014-01-04 20:11:41+01:00" "column=Waters Acquity BEH C18 1.7um x 2.1 x 150 mm" "retention time=596.4" "raw data file=C:\Data\Confirmed Standards\Confirmed stds MSMS 2Jan14\Homoeriodictyol _MSMS.d" "precursor type=[M-H]-" "mass accuracy=0.7899505765466841" "mass error=2.3783199998206328E-4" "cas number=446-71-9" "SMILES=COc1cc(ccc1O)[C@@H]2CC(=O)c3c(cc(cc3O2)O)O" "InChI=InChI=1S/C16H14O6/c1-21-14-4-8(2-3-10(14)18)13-7-12(20)16-11(19)5-9(17)6-15(16)22-13/h2-6,13,17-19H,7H2,1H3/t13-/m0/s1" "InChIKey=FTODBIPDTXRIGS-ZDUSSCGKSA-N" "molecular formula=C16H14O6" "total exact mass=302.079038168" "SMILES=COC1=C(C=CC(=C1)C2CC(=O)C3=C(C=C(C=C3O2)O)O)O"
Num Peaks: 5
 151 0.300300; 
 286 0.300300; 
 301 100.000000; 
 302 9.009009; 
 303 1.301301; 


Name: Homoeriodictyol
SYNON: $:00in-source
DB#: MetaboBASE0790
InChIKey: FTODBIPDTXRIGS-ZDUSSCGKSA-N
Precursor_type: [M-H]-
Spectrum_type: MS2
PrecursorMZ: 301.0729
Instrument_type: LC-ESI-TOF
Instrument: impact HD
Ion_mode: N
Collision_energy: 30
InChIKey: FTODBIPDTXRIGS-ZDUSSCGKSA-N
Formula: C16H14O6
MW: 302
ExactMass: 302.079038168
Comments: "license=License CC-BY-NC-SA 4.0 International" "author=Plant Biology, The Noble Foundation, Ardmore, OK, US/Dennis Fine, Daniel Wherritt, and Lloyd Sumner" "instrument type=LC-ESI-TOF" "instrument=impact HD" "ionization=ESI" "ionization mode=negative" "ms level=MS2" "precursor m/z=301.0729" "isolation width=5" "collision gas=Nitrogen" "collision energy=30" "peak width=0.016" "date=2014-01-04 20:11:41+01:00" "column=Waters Acquity BEH C18 1.7um x 2.1 x 150 mm" "retention time=596.4" "raw data file=C:\Data\Confirmed Standards\Confirmed stds MSMS 2Jan14\Homoeriodictyol _MSMS.d" "precursor type=[M-H]-" "mass accuracy=3.779257448888686" "mass error=0.0011378319999835185" "cas number=446-71-9" "SMILES=COc1cc(ccc1O)[C@@H]2CC(=O)c3c(cc(cc3O2)O)O" "InChI=InChI=1S/C16H14O6/c1-21-14-4-8(2-3-10(14)18)13-7-12(20)16-11(19)5-9(17)6-15(16)22-13/h2-6,13,17-19H,7H2,1H3/t13-/m0/s1" "InChIKey=FTODBIPDTXRIGS-ZDUSSCGKSA-N" "molecular formula=C16H14O6" "total exact mass=302.079038168" "SMILES=COC1=C(C=CC(=C1)C2CC(=O)C3=C(C=C(C=C3O2)O)O)O"
Num Peaks: 15
 107 21.521522; 
 108 24.424424; 
 123 13.113113; 
 134 96.596597; 
 136 19.319319; 
 149 46.346346; 
 150 7.807808; 
 151 100.000000; 
 152 8.208208; 
 164 41.141141; 
 165 12.112112; 
 177 10.410410; 
 196 10.010010; 
 285 8.108108; 
 301 10.110110; 


Name: Glycyrrhizic acid
SYNON: $:00in-source
DB#: MetaboBASE0791
InChIKey: LPLVUJXQOOQHMX-QWBHMCJMSA-N
Precursor_type: [M-H]-
Spectrum_type: MS2
PrecursorMZ: 821.3934
Instrument_type: LC-ESI-TOF
Instrument: impact HD
Ion_mode: N
Collision_energy: 20
InChIKey: LPLVUJXQOOQHMX-QWBHMCJMSA-N
Formula: C42H62O16
MW: 822
ExactMass: 822.403785904
Comments: "synonym=Glycyrrhizic acid" "license=License CC-BY-NC-SA 4.0 International" "author=Plant Biology, The Noble Foundation, Ardmore, OK, US/Dennis Fine, Daniel Wherritt, and Lloyd Sumner" "instrument type=LC-ESI-TOF" "instrument=impact HD" "ionization=ESI" "ionization mode=negative" "ms level=MS2" "precursor m/z=821.3934" "isolation width=5" "collision gas=Nitrogen" "collision energy=20" "peak width=0.011" "date=2014-01-05 00:56:48+01:00" "column=Waters Acquity BEH C18 1.7um x 2.1 x 150 mm" "retention time=922.8" "raw data file=C:\Data\Confirmed Standards\Confirmed stds MSMS 2Jan14\Glycyrrhizic acid _MSMS.d" "precursor type=[M-H]-" "mass accuracy=3.786132199103093" "mass error=-0.0031099039998707667" "cas number=1405-86-3" "SMILES=C[C@]12CC[C@](C[C@H]1C3=CC(=O)[C@@H]4[C@]5(CC[C@@H](C([C@@H]5CC[C@]4([C@@]3(CC2)C)C)(C)C)O[C@@H]6[C@@H]([C@H]([C@@H]([C@H](O6)C(=O)O)O)O)O[C@H]7[C@@H]([C@H]([C@@H]([C@H](O7)C(=O)O)O)O)O)C)(C)C(=O)O" "InChIKey=LPLVUJXQOOQHMX-QWBHMCJMSA-N" "molecular formula=C42H62O16" "total exact mass=822.403785904" "SMILES=CC12CCC(CC1C3=CC(=O)C4C5(CCC(C(C5CCC4(C3(CC2)C)C)(C)C)OC6C(C(C(C(O6)C(=O)O)O)O)OC7C(C(C(C(O7)C(=O)O)O)O)O)C)(C)C(=O)O" "InChI=InChI=1S/C42H62O16/c1-37(2)21-8-11-42(7)31(20(43)16-18-19-17-39(4,36(53)54)13-12-38(19,3)14-15-41(18,42)6)40(21,5)10-9-22(37)55-35-30(26(47)25(46)29(57-35)33(51)52)58-34-27(48)23(44)24(45)28(56-34)32(49)50/h16,19,21-31,34-35,44-48H,8-15,17H2,1-7H3,(H,49,50)(H,51,52)(H,53,54)/t19-,21-,22-,23-,24-,25-,26-,27+,28-,29-,30+,31+,34-,35-,38+,39-,40-,41+,42+/m0/s1"
Num Peaks: 3
 821 100.000000; 
 822 43.043043; 
 823 8.108108; 


Name: Glycyrrhizic acid
SYNON: $:00in-source
DB#: MetaboBASE0792
InChIKey: LPLVUJXQOOQHMX-QWBHMCJMSA-N
Precursor_type: [M-H]-
Spectrum_type: MS2
PrecursorMZ: 821.3948
Instrument_type: LC-ESI-TOF
Instrument: impact HD
Ion_mode: N
Collision_energy: 10
InChIKey: LPLVUJXQOOQHMX-QWBHMCJMSA-N
Formula: C42H62O16
MW: 822
ExactMass: 822.403785904
Comments: "synonym=Glycyrrhizic acid" "license=License CC-BY-NC-SA 4.0 International" "author=Plant Biology, The Noble Foundation, Ardmore, OK, US/Dennis Fine, Daniel Wherritt, and Lloyd Sumner" "instrument type=LC-ESI-TOF" "instrument=impact HD" "ionization=ESI" "ionization mode=negative" "ms level=MS2" "precursor m/z=821.3948" "isolation width=5" "collision gas=Nitrogen" "collision energy=10" "peak width=0.012" "date=2014-01-05 00:56:48+01:00" "column=Waters Acquity BEH C18 1.7um x 2.1 x 150 mm" "retention time=922.8" "raw data file=C:\Data\Confirmed Standards\Confirmed stds MSMS 2Jan14\Glycyrrhizic acid _MSMS.d" "precursor type=[M-H]-" "mass accuracy=2.0817078460700444" "mass error=-0.001709903999881135" "cas number=1405-86-3" "SMILES=C[C@]12CC[C@](C[C@H]1C3=CC(=O)[C@@H]4[C@]5(CC[C@@H](C([C@@H]5CC[C@]4([C@@]3(CC2)C)C)(C)C)O[C@@H]6[C@@H]([C@H]([C@@H]([C@H](O6)C(=O)O)O)O)O[C@H]7[C@@H]([C@H]([C@@H]([C@H](O7)C(=O)O)O)O)O)C)(C)C(=O)O" "InChIKey=LPLVUJXQOOQHMX-QWBHMCJMSA-N" "molecular formula=C42H62O16" "total exact mass=822.403785904" "SMILES=CC12CCC(CC1C3=CC(=O)C4C5(CCC(C(C5CCC4(C3(CC2)C)C)(C)C)OC6C(C(C(C(O6)C(=O)O)O)O)OC7C(C(C(C(O7)C(=O)O)O)O)O)C)(C)C(=O)O" "InChI=InChI=1S/C42H62O16/c1-37(2)21-8-11-42(7)31(20(43)16-18-19-17-39(4,36(53)54)13-12-38(19,3)14-15-41(18,42)6)40(21,5)10-9-22(37)55-35-30(26(47)25(46)29(57-35)33(51)52)58-34-27(48)23(44)24(45)28(56-34)32(49)50/h16,19,21-31,34-35,44-48H,8-15,17H2,1-7H3,(H,49,50)(H,51,52)(H,53,54)/t19-,21-,22-,23-,24-,25-,26-,27+,28-,29-,30+,31+,34-,35-,38+,39-,40-,41+,42+/m0/s1"
Num Peaks: 3
 821 100.000000; 
 822 42.642643; 
 823 7.707708; 


Name: Glycyrrhizic acid
SYNON: $:00in-source
DB#: MetaboBASE0793
InChIKey: LPLVUJXQOOQHMX-QWBHMCJMSA-N
Instrument_type: LC-ESI-TOF
Instrument: impact HD
Ion_mode: N
InChIKey: LPLVUJXQOOQHMX-QWBHMCJMSA-N
Formula: C42H62O16
MW: 822
ExactMass: 822.403785904
Comments: "synonym=Glycyrrhizic acid" "license=License CC-BY-NC-SA 4.0 International" "author=Plant Biology, The Noble Foundation, Ardmore, OK, US/Dennis Fine, Daniel Wherritt, and Lloyd Sumner" "instrument type=LC-ESI-TOF" "instrument=impact HD" "ionization=ESI" "ionization mode=negative" "collision gas=Nitrogen" "peak width=0.012" "date=2014-01-05 00:56:48+01:00" "column=Waters Acquity BEH C18 1.7um x 2.1 x 150 mm" "retention time=922.8" "raw data file=C:\Data\Confirmed Standards\Confirmed stds MSMS 2Jan14\Glycyrrhizic acid _MSMS.d" "cas number=1405-86-3" "SMILES=C[C@]12CC[C@](C[C@H]1C3=CC(=O)[C@@H]4[C@]5(CC[C@@H](C([C@@H]5CC[C@]4([C@@]3(CC2)C)C)(C)C)O[C@@H]6[C@@H]([C@H]([C@@H]([C@H](O6)C(=O)O)O)O)O[C@H]7[C@@H]([C@H]([C@@H]([C@H](O7)C(=O)O)O)O)O)C)(C)C(=O)O" "InChIKey=LPLVUJXQOOQHMX-QWBHMCJMSA-N" "molecular formula=C42H62O16" "total exact mass=822.403785904" "SMILES=CC12CCC(CC1C3=CC(=O)C4C5(CCC(C(C5CCC4(C3(CC2)C)C)(C)C)OC6C(C(C(C(O6)C(=O)O)O)O)OC7C(C(C(C(O7)C(=O)O)O)O)O)C)(C)C(=O)O" "InChI=InChI=1S/C42H62O16/c1-37(2)21-8-11-42(7)31(20(43)16-18-19-17-39(4,36(53)54)13-12-38(19,3)14-15-41(18,42)6)40(21,5)10-9-22(37)55-35-30(26(47)25(46)29(57-35)33(51)52)58-34-27(48)23(44)24(45)28(56-34)32(49)50/h16,19,21-31,34-35,44-48H,8-15,17H2,1-7H3,(H,49,50)(H,51,52)(H,53,54)/t19-,21-,22-,23-,24-,25-,26-,27+,28-,29-,30+,31+,34-,35-,38+,39-,40-,41+,42+/m0/s1"
Num Peaks: 14
 666 4.004004; 
 821 100.000000; 
 822 39.439439; 
 823 10.110110; 
 824 2.202202; 
 832 1.001001; 
 832 1.201201; 
 843 8.908909; 
 843 1.101101; 
 844 3.403403; 
 845 1.201201; 
 911 1.901902; 
 912 1.001001; 
 1233 1.201201; 


Name: Glycyrrhizic acid
SYNON: $:00in-source
DB#: MetaboBASE0794
InChIKey: LPLVUJXQOOQHMX-QWBHMCJMSA-N
Spectrum_type: MS2
PrecursorMZ: 821.2
Instrument_type: LC-ESI-TOF
Instrument: impact HD
Ion_mode: N
Collision_energy: 70
InChIKey: LPLVUJXQOOQHMX-QWBHMCJMSA-N
Formula: C42H62O16
MW: 822
ExactMass: 822.4037859040001
Comments: "synonym=Glycyrrhizic acid" "license=License CC-BY-NC-SA 4.0 International" "author=Plant Biology, The Noble Foundation, Ardmore, OK, US/Dennis Fine, Daniel Wherritt, and Lloyd Sumner" "instrument type=LC-ESI-TOF" "instrument=impact HD" "ionization=ESI" "ionization mode=negative" "ms level=MS2" "precursor m/z=821.2" "isolation width=5" "collision gas=Nitrogen" "collision energy=70" "peak width=0.019" "date=2014-01-08 10:10:13+01:00" "column=Waters Acquity BEH C18 1.7um x 2.1 x 150 mm" "retention time=922.8" "raw data file=C:\Data\Confirmed Standards\Confirmed stds MSMS 7Jan14\Glycyrrhizic acid _MSMS.d" "cas number=1405-86-3" "SMILES=C[C@]12CC[C@](C[C@H]1C3=CC(=O)[C@@H]4[C@]5(CC[C@@H](C([C@@H]5CC[C@]4([C@@]3(CC2)C)C)(C)C)O[C@@H]6[C@@H]([C@H]([C@@H]([C@H](O6)C(=O)O)O)O)O[C@H]7[C@@H]([C@H]([C@@H]([C@H](O7)C(=O)O)O)O)O)C)(C)C(=O)O" "InChIKey=LPLVUJXQOOQHMX-QWBHMCJMSA-N" "molecular formula=C42H62O16" "total exact mass=822.4037859040001" "SMILES=CC12CCC(CC1C3=CC(=O)C4C5(CCC(C(C5CCC4(C3(CC2)C)C)(C)C)OC6C(C(C(C(O6)C(=O)O)O)O)OC7C(C(C(C(O7)C(=O)O)O)O)O)C)(C)C(=O)O" "InChI=InChI=1S/C42H62O16/c1-37(2)21-8-11-42(7)31(20(43)16-18-19-17-39(4,36(53)54)13-12-38(19,3)14-15-41(18,42)6)40(21,5)10-9-22(37)55-35-30(26(47)25(46)29(57-35)33(51)52)58-34-27(48)23(44)24(45)28(56-34)32(49)50/h16,19,21-31,34-35,44-48H,8-15,17H2,1-7H3,(H,49,50)(H,51,52)(H,53,54)/t19-,21-,22-,23-,24-,25-,26-,27+,28-,29-,30+,31+,34-,35-,38+,39-,40-,41+,42+/m0/s1"
Num Peaks: 3
 113 54.454454; 
 193 33.233233; 
 351 100.000000; 


Name: Glycyrrhizic acid
SYNON: $:00in-source
DB#: MetaboBASE0795
InChIKey: LPLVUJXQOOQHMX-QWBHMCJMSA-N
Precursor_type: [M-H]-
Spectrum_type: MS2
PrecursorMZ: 821.3939
Instrument_type: LC-ESI-TOF
Instrument: impact HD
Ion_mode: N
Collision_energy: 30
InChIKey: LPLVUJXQOOQHMX-QWBHMCJMSA-N
Formula: C42H62O16
MW: 822
ExactMass: 822.4037859040001
Comments: "synonym=Glycyrrhizic acid" "license=License CC-BY-NC-SA 4.0 International" "author=Plant Biology, The Noble Foundation, Ardmore, OK, US/Dennis Fine, Daniel Wherritt, and Lloyd Sumner" "instrument type=LC-ESI-TOF" "instrument=impact HD" "ionization=ESI" "ionization mode=negative" "ms level=MS2" "precursor m/z=821.3939" "isolation width=5" "collision gas=Nitrogen" "collision energy=30" "peak width=0.012" "date=2014-01-05 00:56:48+01:00" "column=Waters Acquity BEH C18 1.7um x 2.1 x 150 mm" "retention time=922.8" "raw data file=C:\Data\Confirmed Standards\Confirmed stds MSMS 2Jan14\Glycyrrhizic acid _MSMS.d" "precursor type=[M-H]-" "mass accuracy=3.1774085490484856" "mass error=-0.002609903999996277" "cas number=1405-86-3" "SMILES=C[C@]12CC[C@](C[C@H]1C3=CC(=O)[C@@H]4[C@]5(CC[C@@H](C([C@@H]5CC[C@]4([C@@]3(CC2)C)C)(C)C)O[C@@H]6[C@@H]([C@H]([C@@H]([C@H](O6)C(=O)O)O)O)O[C@H]7[C@@H]([C@H]([C@@H]([C@H](O7)C(=O)O)O)O)O)C)(C)C(=O)O" "InChIKey=LPLVUJXQOOQHMX-QWBHMCJMSA-N" "molecular formula=C42H62O16" "total exact mass=822.4037859040001" "SMILES=CC12CCC(CC1C3=CC(=O)C4C5(CCC(C(C5CCC4(C3(CC2)C)C)(C)C)OC6C(C(C(C(O6)C(=O)O)O)O)OC7C(C(C(C(O7)C(=O)O)O)O)O)C)(C)C(=O)O" "InChI=InChI=1S/C42H62O16/c1-37(2)21-8-11-42(7)31(20(43)16-18-19-17-39(4,36(53)54)13-12-38(19,3)14-15-41(18,42)6)40(21,5)10-9-22(37)55-35-30(26(47)25(46)29(57-35)33(51)52)58-34-27(48)23(44)24(45)28(56-34)32(49)50/h16,19,21-31,34-35,44-48H,8-15,17H2,1-7H3,(H,49,50)(H,51,52)(H,53,54)/t19-,21-,22-,23-,24-,25-,26-,27+,28-,29-,30+,31+,34-,35-,38+,39-,40-,41+,42+/m0/s1"
Num Peaks: 4
 351 3.903904; 
 821 100.000000; 
 822 41.541542; 
 823 7.707708; 


Name: Glycyrrhizic acid
SYNON: $:00in-source
DB#: MetaboBASE0796
InChIKey: LPLVUJXQOOQHMX-QWBHMCJMSA-N
Precursor_type: [M-H]-
Spectrum_type: MS2
PrecursorMZ: 821.3927
Instrument_type: LC-ESI-TOF
Instrument: impact HD
Ion_mode: N
Collision_energy: 40
InChIKey: LPLVUJXQOOQHMX-QWBHMCJMSA-N
Formula: C42H62O16
MW: 822
ExactMass: 822.403785904
Comments: "synonym=Glycyrrhizic acid" "license=License CC-BY-NC-SA 4.0 International" "author=Plant Biology, The Noble Foundation, Ardmore, OK, US/Dennis Fine, Daniel Wherritt, and Lloyd Sumner" "instrument type=LC-ESI-TOF" "instrument=impact HD" "ionization=ESI" "ionization mode=negative" "ms level=MS2" "precursor m/z=821.3927" "isolation width=5" "collision gas=Nitrogen" "collision energy=40" "peak width=0.015" "date=2014-01-05 00:56:48+01:00" "column=Waters Acquity BEH C18 1.7um x 2.1 x 150 mm" "retention time=922.8" "raw data file=C:\Data\Confirmed Standards\Confirmed stds MSMS 2Jan14\Glycyrrhizic acid _MSMS.d" "precursor type=[M-H]-" "mass accuracy=4.638346554482924" "mass error=-0.003809903999922426" "cas number=1405-86-3" "SMILES=C[C@]12CC[C@](C[C@H]1C3=CC(=O)[C@@H]4[C@]5(CC[C@@H](C([C@@H]5CC[C@]4([C@@]3(CC2)C)C)(C)C)O[C@@H]6[C@@H]([C@H]([C@@H]([C@H](O6)C(=O)O)O)O)O[C@H]7[C@@H]([C@H]([C@@H]([C@H](O7)C(=O)O)O)O)O)C)(C)C(=O)O" "InChIKey=LPLVUJXQOOQHMX-QWBHMCJMSA-N" "molecular formula=C42H62O16" "total exact mass=822.403785904" "SMILES=CC12CCC(CC1C3=CC(=O)C4C5(CCC(C(C5CCC4(C3(CC2)C)C)(C)C)OC6C(C(C(C(O6)C(=O)O)O)O)OC7C(C(C(C(O7)C(=O)O)O)O)O)C)(C)C(=O)O" "InChI=InChI=1S/C42H62O16/c1-37(2)21-8-11-42(7)31(20(43)16-18-19-17-39(4,36(53)54)13-12-38(19,3)14-15-41(18,42)6)40(21,5)10-9-22(37)55-35-30(26(47)25(46)29(57-35)33(51)52)58-34-27(48)23(44)24(45)28(56-34)32(49)50/h16,19,21-31,34-35,44-48H,8-15,17H2,1-7H3,(H,49,50)(H,51,52)(H,53,54)/t19-,21-,22-,23-,24-,25-,26-,27+,28-,29-,30+,31+,34-,35-,38+,39-,40-,41+,42+/m0/s1"
Num Peaks: 4
 351 18.618619; 
 821 100.000000; 
 822 41.841842; 
 823 8.308308; 


Name: Glycyrrhizic acid
SYNON: $:00in-source
DB#: MetaboBASE0797
InChIKey: LPLVUJXQOOQHMX-QWBHMCJMSA-N
Precursor_type: [M-H]-
Spectrum_type: MS2
PrecursorMZ: 821.3927
Instrument_type: LC-ESI-TOF
Instrument: impact HD
Ion_mode: N
Collision_energy: 50
InChIKey: LPLVUJXQOOQHMX-QWBHMCJMSA-N
Formula: C42H62O16
MW: 822
ExactMass: 822.4037859040001
Comments: "synonym=Glycyrrhizic acid" "license=License CC-BY-NC-SA 4.0 International" "author=Plant Biology, The Noble Foundation, Ardmore, OK, US/Dennis Fine, Daniel Wherritt, and Lloyd Sumner" "instrument type=LC-ESI-TOF" "instrument=impact HD" "ionization=ESI" "ionization mode=negative" "ms level=MS2" "precursor m/z=821.3927" "isolation width=5" "collision gas=Nitrogen" "collision energy=50" "peak width=0.016" "date=2014-01-05 00:56:48+01:00" "column=Waters Acquity BEH C18 1.7um x 2.1 x 150 mm" "retention time=922.8" "raw data file=C:\Data\Confirmed Standards\Confirmed stds MSMS 2Jan14\Glycyrrhizic acid _MSMS.d" "precursor type=[M-H]-" "mass accuracy=4.638346554621331" "mass error=-0.003809904000036113" "cas number=1405-86-3" "SMILES=C[C@]12CC[C@](C[C@H]1C3=CC(=O)[C@@H]4[C@]5(CC[C@@H](C([C@@H]5CC[C@]4([C@@]3(CC2)C)C)(C)C)O[C@@H]6[C@@H]([C@H]([C@@H]([C@H](O6)C(=O)O)O)O)O[C@H]7[C@@H]([C@H]([C@@H]([C@H](O7)C(=O)O)O)O)O)C)(C)C(=O)O" "InChIKey=LPLVUJXQOOQHMX-QWBHMCJMSA-N" "molecular formula=C42H62O16" "total exact mass=822.4037859040001" "SMILES=CC12CCC(CC1C3=CC(=O)C4C5(CCC(C(C5CCC4(C3(CC2)C)C)(C)C)OC6C(C(C(C(O6)C(=O)O)O)O)OC7C(C(C(C(O7)C(=O)O)O)O)O)C)(C)C(=O)O" "InChI=InChI=1S/C42H62O16/c1-37(2)21-8-11-42(7)31(20(43)16-18-19-17-39(4,36(53)54)13-12-38(19,3)14-15-41(18,42)6)40(21,5)10-9-22(37)55-35-30(26(47)25(46)29(57-35)33(51)52)58-34-27(48)23(44)24(45)28(56-34)32(49)50/h16,19,21-31,34-35,44-48H,8-15,17H2,1-7H3,(H,49,50)(H,51,52)(H,53,54)/t19-,21-,22-,23-,24-,25-,26-,27+,28-,29-,30+,31+,34-,35-,38+,39-,40-,41+,42+/m0/s1"
Num Peaks: 7
 113 10.210210; 
 193 6.506507; 
 351 71.471471; 
 352 6.406406; 
 821 100.000000; 
 822 36.436436; 
 823 7.107107; 


Name: Glycyrrhizic acid
SYNON: $:00in-source
DB#: MetaboBASE0798
InChIKey: LPLVUJXQOOQHMX-QWBHMCJMSA-N
Precursor_type: [M-H]-
Spectrum_type: MS2
PrecursorMZ: 821.3962
Instrument_type: LC-ESI-TOF
Instrument: impact HD
Ion_mode: N
Collision_energy: 60
InChIKey: LPLVUJXQOOQHMX-QWBHMCJMSA-N
Formula: C42H62O16
MW: 822
ExactMass: 822.4037859040001
Comments: "synonym=Glycyrrhizic acid" "license=License CC-BY-NC-SA 4.0 International" "author=Plant Biology, The Noble Foundation, Ardmore, OK, US/Dennis Fine, Daniel Wherritt, and Lloyd Sumner" "instrument type=LC-ESI-TOF" "instrument=impact HD" "ionization=ESI" "ionization mode=negative" "ms level=MS2" "precursor m/z=821.3962" "isolation width=5" "collision gas=Nitrogen" "collision energy=60" "peak width=0.017" "date=2014-01-08 10:10:13+01:00" "column=Waters Acquity BEH C18 1.7um x 2.1 x 150 mm" "retention time=922.8" "raw data file=C:\Data\Confirmed Standards\Confirmed stds MSMS 7Jan14\Glycyrrhizic acid _MSMS.d" "precursor type=[M-H]-" "mass accuracy=0.3772893032682523" "mass error=-3.0990400000519003E-4" "cas number=1405-86-3" "SMILES=C[C@]12CC[C@](C[C@H]1C3=CC(=O)[C@@H]4[C@]5(CC[C@@H](C([C@@H]5CC[C@]4([C@@]3(CC2)C)C)(C)C)O[C@@H]6[C@@H]([C@H]([C@@H]([C@H](O6)C(=O)O)O)O)O[C@H]7[C@@H]([C@H]([C@@H]([C@H](O7)C(=O)O)O)O)O)C)(C)C(=O)O" "InChIKey=LPLVUJXQOOQHMX-QWBHMCJMSA-N" "molecular formula=C42H62O16" "total exact mass=822.4037859040001" "SMILES=CC12CCC(CC1C3=CC(=O)C4C5(CCC(C(C5CCC4(C3(CC2)C)C)(C)C)OC6C(C(C(C(O6)C(=O)O)O)O)OC7C(C(C(C(O7)C(=O)O)O)O)O)C)(C)C(=O)O" "InChI=InChI=1S/C42H62O16/c1-37(2)21-8-11-42(7)31(20(43)16-18-19-17-39(4,36(53)54)13-12-38(19,3)14-15-41(18,42)6)40(21,5)10-9-22(37)55-35-30(26(47)25(46)29(57-35)33(51)52)58-34-27(48)23(44)24(45)28(56-34)32(49)50/h16,19,21-31,34-35,44-48H,8-15,17H2,1-7H3,(H,49,50)(H,51,52)(H,53,54)/t19-,21-,22-,23-,24-,25-,26-,27+,28-,29-,30+,31+,34-,35-,38+,39-,40-,41+,42+/m0/s1"
Num Peaks: 6
 113 27.527528; 
 193 14.314314; 
 351 100.000000; 
 352 14.014014; 
 821 49.149149; 
 822 25.025025; 


Name: Medicagenic acid
SYNON: $:00in-source
DB#: MetaboBASE0799
InChIKey: IDGXIXSKISLYAC-WNTKNEGGSA-N
Precursor_type: [M-H]-
Spectrum_type: MS2
PrecursorMZ: 501.3202
Instrument_type: LC-ESI-TOF
Instrument: impact HD
Ion_mode: N
Collision_energy: 20
InChIKey: IDGXIXSKISLYAC-WNTKNEGGSA-N
Formula: C30H46O6
MW: 502
ExactMass: 502.32943919199994
Comments: "license=License CC-BY-NC-SA 4.0 International" "author=Plant Biology, The Noble Foundation, Ardmore, OK, US/Dennis Fine, Daniel Wherritt, and Lloyd Sumner" "instrument type=LC-ESI-TOF" "instrument=impact HD" "ionization=ESI" "ionization mode=negative" "ms level=MS2" "precursor m/z=501.3202" "isolation width=5" "collision gas=Nitrogen" "collision energy=20" "peak width=0.013" "date=2014-01-05 05:01:13+01:00" "column=Waters Acquity BEH C18 1.7um x 2.1 x 150 mm" "retention time=1147.8" "raw data file=C:\Data\Confirmed Standards\Confirmed stds MSMS 2Jan14\Medicagenic acid _MSMS.d" "precursor type=[M-H]-" "mass accuracy=3.9160440771154277" "mass error=-0.0019631919999483216" "cas number=599-07-5" "SMILES=C[C@@]12CC[C@@H]3[C@@]([C@H]1CC=C4[C@]2(CC[C@@]5([C@H]4CC(CC5)(C)C)C(=O)O)C)(C[C@@H]([C@@H]([C@@]3(C)C(=O)O)O)O)C" "InChI=InChI=1S/C30H46O6/c1-25(2)11-13-30(24(35)36)14-12-27(4)17(18(30)15-25)7-8-20-26(3)16-19(31)22(32)29(6,23(33)34)21(26)9-10-28(20,27)5/h7,18-22,31-32H,8-16H2,1-6H3,(H,33,34)(H,35,36)/t18-,19-,20+,21+,22-,26+,27+,28+,29-,30-/m0/s1" "InChIKey=IDGXIXSKISLYAC-WNTKNEGGSA-N" "molecular formula=C30H46O6" "total exact mass=502.32943919199994" "SMILES=CC12CCC3C(C1CC=C4C2(CCC5(C4CC(CC5)(C)C)C(=O)O)C)(CC(C(C3(C)C(=O)O)O)O)C"
Num Peaks: 3
 501 100.000000; 
 502 26.926927; 
 503 2.702703; 


Name: Medicagenic acid
SYNON: $:00in-source
DB#: MetaboBASE0800
InChIKey: IDGXIXSKISLYAC-WNTKNEGGSA-N
Precursor_type: [M-H]-
Spectrum_type: MS2
PrecursorMZ: 501.3196
Instrument_type: LC-ESI-TOF
Instrument: impact HD
Ion_mode: N
Collision_energy: 30
InChIKey: IDGXIXSKISLYAC-WNTKNEGGSA-N
Formula: C30H46O6
MW: 502
ExactMass: 502.32943919199994
Comments: "license=License CC-BY-NC-SA 4.0 International" "author=Plant Biology, The Noble Foundation, Ardmore, OK, US/Dennis Fine, Daniel Wherritt, and Lloyd Sumner" "instrument type=LC-ESI-TOF" "instrument=impact HD" "ionization=ESI" "ionization mode=negative" "ms level=MS2" "precursor m/z=501.3196" "isolation width=5" "collision gas=Nitrogen" "collision energy=30" "peak width=0.013" "date=2014-01-05 05:01:13+01:00" "column=Waters Acquity BEH C18 1.7um x 2.1 x 150 mm" "retention time=1147.8" "raw data file=C:\Data\Confirmed Standards\Confirmed stds MSMS 2Jan14\Medicagenic acid _MSMS.d" "precursor type=[M-H]-" "mass accuracy=5.112890060488837" "mass error=-0.0025631919999682395" "cas number=599-07-5" "SMILES=C[C@@]12CC[C@@H]3[C@@]([C@H]1CC=C4[C@]2(CC[C@@]5([C@H]4CC(CC5)(C)C)C(=O)O)C)(C[C@@H]([C@@H]([C@@]3(C)C(=O)O)O)O)C" "InChI=InChI=1S/C30H46O6/c1-25(2)11-13-30(24(35)36)14-12-27(4)17(18(30)15-25)7-8-20-26(3)16-19(31)22(32)29(6,23(33)34)21(26)9-10-28(20,27)5/h7,18-22,31-32H,8-16H2,1-6H3,(H,33,34)(H,35,36)/t18-,19-,20+,21+,22-,26+,27+,28+,29-,30-/m0/s1" "InChIKey=IDGXIXSKISLYAC-WNTKNEGGSA-N" "molecular formula=C30H46O6" "total exact mass=502.32943919199994" "SMILES=CC12CCC3C(C1CC=C4C2(CCC5(C4CC(CC5)(C)C)C(=O)O)C)(CC(C(C3(C)C(=O)O)O)O)C"
Num Peaks: 6
 437 2.102102; 
 439 2.602603; 
 483 4.404404; 
 501 100.000000; 
 502 24.924925; 
 503 3.803804; 


Name: Medicagenic acid
SYNON: $:00in-source
DB#: MetaboBASE0801
InChIKey: IDGXIXSKISLYAC-WNTKNEGGSA-N
Precursor_type: [M-H]-
Spectrum_type: MS2
PrecursorMZ: 501.32
Instrument_type: LC-ESI-TOF
Instrument: impact HD
Ion_mode: N
Collision_energy: 40
InChIKey: IDGXIXSKISLYAC-WNTKNEGGSA-N
Formula: C30H46O6
MW: 502
ExactMass: 502.329439192
Comments: "license=License CC-BY-NC-SA 4.0 International" "author=Plant Biology, The Noble Foundation, Ardmore, OK, US/Dennis Fine, Daniel Wherritt, and Lloyd Sumner" "instrument type=LC-ESI-TOF" "instrument=impact HD" "ionization=ESI" "ionization mode=negative" "ms level=MS2" "precursor m/z=501.32" "isolation width=5" "collision gas=Nitrogen" "collision energy=40" "peak width=0.014" "date=2014-01-05 05:01:13+01:00" "column=Waters Acquity BEH C18 1.7um x 2.1 x 150 mm" "retention time=1147.8" "raw data file=C:\Data\Confirmed Standards\Confirmed stds MSMS 2Jan14\Medicagenic acid _MSMS.d" "precursor type=[M-H]-" "mass accuracy=4.3149924200347165" "mass error=-0.0021631920000118043" "cas number=599-07-5" "SMILES=C[C@@]12CC[C@@H]3[C@@]([C@H]1CC=C4[C@]2(CC[C@@]5([C@H]4CC(CC5)(C)C)C(=O)O)C)(C[C@@H]([C@@H]([C@@]3(C)C(=O)O)O)O)C" "InChI=InChI=1S/C30H46O6/c1-25(2)11-13-30(24(35)36)14-12-27(4)17(18(30)15-25)7-8-20-26(3)16-19(31)22(32)29(6,23(33)34)21(26)9-10-28(20,27)5/h7,18-22,31-32H,8-16H2,1-6H3,(H,33,34)(H,35,36)/t18-,19-,20+,21+,22-,26+,27+,28+,29-,30-/m0/s1" "InChIKey=IDGXIXSKISLYAC-WNTKNEGGSA-N" "molecular formula=C30H46O6" "total exact mass=502.329439192" "SMILES=CC12CCC3C(C1CC=C4C2(CCC5(C4CC(CC5)(C)C)C(=O)O)C)(CC(C(C3(C)C(=O)O)O)O)C"
Num Peaks: 13
 421 5.005005; 
 422 4.904905; 
 425 12.912913; 
 426 8.308308; 
 437 32.932933; 
 438 6.706707; 
 439 22.522523; 
 440 5.305305; 
 455 5.705706; 
 483 49.849850; 
 484 8.708709; 
 501 100.000000; 
 502 30.630631; 


Name: Medicagenic acid
SYNON: $:00in-source
DB#: MetaboBASE0802
InChIKey: IDGXIXSKISLYAC-WNTKNEGGSA-N
Precursor_type: [M-H]-
Spectrum_type: MS2
PrecursorMZ: 501.3203
Instrument_type: LC-ESI-TOF
Instrument: impact HD
Ion_mode: N
Collision_energy: 50
InChIKey: IDGXIXSKISLYAC-WNTKNEGGSA-N
Formula: C30H46O6
MW: 502
ExactMass: 502.329439192
Comments: "license=License CC-BY-NC-SA 4.0 International" "author=Plant Biology, The Noble Foundation, Ardmore, OK, US/Dennis Fine, Daniel Wherritt, and Lloyd Sumner" "instrument type=LC-ESI-TOF" "instrument=impact HD" "ionization=ESI" "ionization mode=negative" "ms level=MS2" "precursor m/z=501.3203" "isolation width=5" "collision gas=Nitrogen" "collision energy=50" "peak width=0.016" "date=2014-01-05 05:01:13+01:00" "column=Waters Acquity BEH C18 1.7um x 2.1 x 150 mm" "retention time=1147.8" "raw data file=C:\Data\Confirmed Standards\Confirmed stds MSMS 2Jan14\Medicagenic acid _MSMS.d" "precursor type=[M-H]-" "mass accuracy=3.7165700252518543" "mass error=-0.001863192000030267" "cas number=599-07-5" "SMILES=C[C@@]12CC[C@@H]3[C@@]([C@H]1CC=C4[C@]2(CC[C@@]5([C@H]4CC(CC5)(C)C)C(=O)O)C)(C[C@@H]([C@@H]([C@@]3(C)C(=O)O)O)O)C" "InChI=InChI=1S/C30H46O6/c1-25(2)11-13-30(24(35)36)14-12-27(4)17(18(30)15-25)7-8-20-26(3)16-19(31)22(32)29(6,23(33)34)21(26)9-10-28(20,27)5/h7,18-22,31-32H,8-16H2,1-6H3,(H,33,34)(H,35,36)/t18-,19-,20+,21+,22-,26+,27+,28+,29-,30-/m0/s1" "InChIKey=IDGXIXSKISLYAC-WNTKNEGGSA-N" "molecular formula=C30H46O6" "total exact mass=502.329439192" "SMILES=CC12CCC3C(C1CC=C4C2(CCC5(C4CC(CC5)(C)C)C(=O)O)C)(CC(C(C3(C)C(=O)O)O)O)C"
Num Peaks: 12
 409 51.051051; 
 421 27.927928; 
 425 60.760761; 
 426 36.136136; 
 437 81.181181; 
 438 31.231231; 
 439 80.680681; 
 440 26.826827; 
 455 30.230230; 
 483 100.000000; 
 484 26.626627; 
 501 50.550551; 


Name: Medicagenic acid
SYNON: $:00in-source
DB#: MetaboBASE0803
InChIKey: IDGXIXSKISLYAC-WNTKNEGGSA-N
Precursor_type: [M-H]-
Spectrum_type: MS2
PrecursorMZ: 501.3199
Instrument_type: LC-ESI-TOF
Instrument: impact HD
Ion_mode: N
Collision_energy: 10
InChIKey: IDGXIXSKISLYAC-WNTKNEGGSA-N
Formula: C30H46O6
MW: 502
ExactMass: 502.329439192
Comments: "license=License CC-BY-NC-SA 4.0 International" "author=Plant Biology, The Noble Foundation, Ardmore, OK, US/Dennis Fine, Daniel Wherritt, and Lloyd Sumner" "instrument type=LC-ESI-TOF" "instrument=impact HD" "ionization=ESI" "ionization mode=negative" "ms level=MS2" "precursor m/z=501.3199" "isolation width=5" "collision gas=Nitrogen" "collision energy=10" "peak width=0.012" "date=2014-01-05 05:01:13+01:00" "column=Waters Acquity BEH C18 1.7um x 2.1 x 150 mm" "retention time=1147.8" "raw data file=C:\Data\Confirmed Standards\Confirmed stds MSMS 2Jan14\Medicagenic acid _MSMS.d" "precursor type=[M-H]-" "mass accuracy=4.514466710750366" "mass error=-0.0022631919999867023" "cas number=599-07-5" "SMILES=C[C@@]12CC[C@@H]3[C@@]([C@H]1CC=C4[C@]2(CC[C@@]5([C@H]4CC(CC5)(C)C)C(=O)O)C)(C[C@@H]([C@@H]([C@@]3(C)C(=O)O)O)O)C" "InChI=InChI=1S/C30H46O6/c1-25(2)11-13-30(24(35)36)14-12-27(4)17(18(30)15-25)7-8-20-26(3)16-19(31)22(32)29(6,23(33)34)21(26)9-10-28(20,27)5/h7,18-22,31-32H,8-16H2,1-6H3,(H,33,34)(H,35,36)/t18-,19-,20+,21+,22-,26+,27+,28+,29-,30-/m0/s1" "InChIKey=IDGXIXSKISLYAC-WNTKNEGGSA-N" "molecular formula=C30H46O6" "total exact mass=502.329439192" "SMILES=CC12CCC3C(C1CC=C4C2(CCC5(C4CC(CC5)(C)C)C(=O)O)C)(CC(C(C3(C)C(=O)O)O)O)C"
Num Peaks: 3
 501 100.000000; 
 502 26.126126; 
 503 3.203203; 


Name: Medicagenic acid
SYNON: $:00in-source
DB#: MetaboBASE0804
InChIKey: IDGXIXSKISLYAC-WNTKNEGGSA-N
Instrument_type: LC-ESI-TOF
Instrument: impact HD
Ion_mode: N
InChIKey: IDGXIXSKISLYAC-WNTKNEGGSA-N
Formula: C30H46O6
MW: 502
ExactMass: 502.329439192
Comments: "license=License CC-BY-NC-SA 4.0 International" "author=Plant Biology, The Noble Foundation, Ardmore, OK, US/Dennis Fine, Daniel Wherritt, and Lloyd Sumner" "instrument type=LC-ESI-TOF" "instrument=impact HD" "ionization=ESI" "ionization mode=negative" "collision gas=Nitrogen" "peak width=0.012" "date=2014-01-05 05:01:13+01:00" "column=Waters Acquity BEH C18 1.7um x 2.1 x 150 mm" "retention time=1147.8" "raw data file=C:\Data\Confirmed Standards\Confirmed stds MSMS 2Jan14\Medicagenic acid _MSMS.d" "cas number=599-07-5" "SMILES=C[C@@]12CC[C@@H]3[C@@]([C@H]1CC=C4[C@]2(CC[C@@]5([C@H]4CC(CC5)(C)C)C(=O)O)C)(C[C@@H]([C@@H]([C@@]3(C)C(=O)O)O)O)C" "InChI=InChI=1S/C30H46O6/c1-25(2)11-13-30(24(35)36)14-12-27(4)17(18(30)15-25)7-8-20-26(3)16-19(31)22(32)29(6,23(33)34)21(26)9-10-28(20,27)5/h7,18-22,31-32H,8-16H2,1-6H3,(H,33,34)(H,35,36)/t18-,19-,20+,21+,22-,26+,27+,28+,29-,30-/m0/s1" "InChIKey=IDGXIXSKISLYAC-WNTKNEGGSA-N" "molecular formula=C30H46O6" "total exact mass=502.329439192" "SMILES=CC12CCC3C(C1CC=C4C2(CCC5(C4CC(CC5)(C)C)C(=O)O)C)(CC(C(C3(C)C(=O)O)O)O)C"
Num Peaks: 16
 501 100.000000; 
 502 27.527528; 
 503 3.803804; 
 547 2.102102; 
 556 0.700701; 
 569 5.405405; 
 570 1.501502; 
 597 1.301301; 
 601 0.800801; 
 637 0.800801; 
 666 1.501502; 
 1003 9.009009; 
 1004 5.405405; 
 1005 1.301301; 
 1025 1.101101; 
 1026 0.800801; 


Name: 5,7-Dihydroxy-4'-methoxyflavone
SYNON: $:00in-source
DB#: MetaboBASE0805
InChIKey: DANYIYRPLHHOCZ-UHFFFAOYSA-N
Spectrum_type: MS2
PrecursorMZ: 285.0764
Instrument_type: LC-ESI-TOF
Instrument: impact HD
Ion_mode: N
Collision_energy: 20
InChIKey: DANYIYRPLHHOCZ-UHFFFAOYSA-N
Formula: C16H12O5
MW: 284
ExactMass: 284.068473484
Comments: "license=License CC-BY-NC-SA 4.0 International" "author=Plant Biology, The Noble Foundation, Ardmore, OK, US/Dennis Fine, Daniel Wherritt, and Lloyd Sumner" "instrument type=LC-ESI-TOF" "instrument=impact HD" "ionization=ESI" "ionization mode=negative" "ms level=MS2" "precursor m/z=285.0764" "isolation width=5" "collision gas=Nitrogen" "collision energy=20" "peak width=0.014" "date=2014-01-07 21:15:34+01:00" "column=Waters Acquity BEH C18 1.7um x 2.1 x 150 mm" "retention time=811.2" "raw data file=C:\Data\Confirmed Standards\Confirmed stds MSMS 7Jan14\57Dihydroxy4'methoxyfla MSMS.d" "cas number=480-44-4" "SMILES=COc1ccc(cc1)c2cc(=O)c3c(cc(cc3o2)O)O" "InChI=InChI=1S/C16H12O5/c1-20-11-4-2-9(3-5-11)14-8-13(19)16-12(18)6-10(17)7-15(16)21-14/h2-8,17-18H,1H3" "InChIKey=DANYIYRPLHHOCZ-UHFFFAOYSA-N" "molecular formula=C16H12O5" "total exact mass=284.068473484" "SMILES=COC1=CC=C(C=C1)C2=CC(=O)C3=C(C=C(C=C3O2)O)O"
Num Peaks: 15
 119 3.303303; 
 149 7.307307; 
 151 10.510511; 
 164 3.303303; 
 226 5.605606; 
 241 6.606607; 
 243 25.525526; 
 244 4.504505; 
 252 6.706707; 
 257 11.311311; 
 267 10.910911; 
 270 22.622623; 
 283 3.903904; 
 285 100.000000; 
 286 11.911912; 


Name: 5,7-Dihydroxy-4'-methoxyflavone
SYNON: $:00in-source
DB#: MetaboBASE0806
InChIKey: DANYIYRPLHHOCZ-UHFFFAOYSA-N
Instrument_type: LC-ESI-TOF
Instrument: impact HD
Ion_mode: N
InChIKey: DANYIYRPLHHOCZ-UHFFFAOYSA-N
Formula: C16H12O5
MW: 284
ExactMass: 284.068473484
Comments: "license=License CC-BY-NC-SA 4.0 International" "author=Plant Biology, The Noble Foundation, Ardmore, OK, US/Dennis Fine, Daniel Wherritt, and Lloyd Sumner" "instrument type=LC-ESI-TOF" "instrument=impact HD" "ionization=ESI" "ionization mode=negative" "collision gas=Nitrogen" "peak width=0.014" "date=2014-01-07 21:15:34+01:00" "column=Waters Acquity BEH C18 1.7um x 2.1 x 150 mm" "retention time=811.2" "raw data file=C:\Data\Confirmed Standards\Confirmed stds MSMS 7Jan14\57Dihydroxy4'methoxyfla MSMS.d" "cas number=480-44-4" "SMILES=COc1ccc(cc1)c2cc(=O)c3c(cc(cc3o2)O)O" "InChI=InChI=1S/C16H12O5/c1-20-11-4-2-9(3-5-11)14-8-13(19)16-12(18)6-10(17)7-15(16)21-14/h2-8,17-18H,1H3" "InChIKey=DANYIYRPLHHOCZ-UHFFFAOYSA-N" "molecular formula=C16H12O5" "total exact mass=284.068473484" "SMILES=COC1=CC=C(C=C1)C2=CC(=O)C3=C(C=C(C=C3O2)O)O"
Num Peaks: 17
 283 3.803804; 
 284 4.504505; 
 285 100.000000; 
 286 12.612613; 
 287 1.201201; 
 353 2.702703; 
 569 1.201201; 
 577 7.007007; 
 578 2.102102; 
 593 19.619620; 
 594 5.605606; 
 666 2.502503; 
 895 1.401401; 
 910 2.802803; 
 911 1.601602; 
 913 1.201201; 
 932 1.601602; 


Name: 5,7-Dihydroxy-4'-methoxyflavone
SYNON: $:00in-source
DB#: MetaboBASE0807
InChIKey: DANYIYRPLHHOCZ-UHFFFAOYSA-N
Spectrum_type: MS2
PrecursorMZ: 285.0764
Instrument_type: LC-ESI-TOF
Instrument: impact HD
Ion_mode: N
Collision_energy: 30
InChIKey: DANYIYRPLHHOCZ-UHFFFAOYSA-N
Formula: C16H12O5
MW: 284
ExactMass: 284.068473484
Comments: "license=License CC-BY-NC-SA 4.0 International" "author=Plant Biology, The Noble Foundation, Ardmore, OK, US/Dennis Fine, Daniel Wherritt, and Lloyd Sumner" "instrument type=LC-ESI-TOF" "instrument=impact HD" "ionization=ESI" "ionization mode=negative" "ms level=MS2" "precursor m/z=285.0764" "isolation width=5" "collision gas=Nitrogen" "collision energy=30" "peak width=0.017" "date=2014-01-07 21:15:34+01:00" "column=Waters Acquity BEH C18 1.7um x 2.1 x 150 mm" "retention time=811.2" "raw data file=C:\Data\Confirmed Standards\Confirmed stds MSMS 7Jan14\57Dihydroxy4'methoxyfla MSMS.d" "cas number=480-44-4" "SMILES=COc1ccc(cc1)c2cc(=O)c3c(cc(cc3o2)O)O" "InChI=InChI=1S/C16H12O5/c1-20-11-4-2-9(3-5-11)14-8-13(19)16-12(18)6-10(17)7-15(16)21-14/h2-8,17-18H,1H3" "InChIKey=DANYIYRPLHHOCZ-UHFFFAOYSA-N" "molecular formula=C16H12O5" "total exact mass=284.068473484" "SMILES=COC1=CC=C(C=C1)C2=CC(=O)C3=C(C=C(C=C3O2)O)O"
Num Peaks: 12
 107 35.135135; 
 119 100.000000; 
 123 29.829830; 
 136 19.119119; 
 149 39.239239; 
 151 62.862863; 
 228 18.018018; 
 243 21.421421; 
 252 38.938939; 
 257 17.017017; 
 270 17.317317; 
 285 20.620621; 


Name: 5,7-Dihydroxy-4'-methoxyflavone
SYNON: $:00in-source
DB#: MetaboBASE0808
InChIKey: DANYIYRPLHHOCZ-UHFFFAOYSA-N
Spectrum_type: MS2
PrecursorMZ: 285.0763
Instrument_type: LC-ESI-TOF
Instrument: impact HD
Ion_mode: N
Collision_energy: 10
InChIKey: DANYIYRPLHHOCZ-UHFFFAOYSA-N
Formula: C16H12O5
MW: 284
ExactMass: 284.068473484
Comments: "license=License CC-BY-NC-SA 4.0 International" "author=Plant Biology, The Noble Foundation, Ardmore, OK, US/Dennis Fine, Daniel Wherritt, and Lloyd Sumner" "instrument type=LC-ESI-TOF" "instrument=impact HD" "ionization=ESI" "ionization mode=negative" "ms level=MS2" "precursor m/z=285.0763" "isolation width=5" "collision gas=Nitrogen" "collision energy=10" "peak width=0.011" "date=2014-01-07 21:15:34+01:00" "column=Waters Acquity BEH C18 1.7um x 2.1 x 150 mm" "retention time=811.2" "raw data file=C:\Data\Confirmed Standards\Confirmed stds MSMS 7Jan14\57Dihydroxy4'methoxyfla MSMS.d" "cas number=480-44-4" "SMILES=COc1ccc(cc1)c2cc(=O)c3c(cc(cc3o2)O)O" "InChI=InChI=1S/C16H12O5/c1-20-11-4-2-9(3-5-11)14-8-13(19)16-12(18)6-10(17)7-15(16)21-14/h2-8,17-18H,1H3" "InChIKey=DANYIYRPLHHOCZ-UHFFFAOYSA-N" "molecular formula=C16H12O5" "total exact mass=284.068473484" "SMILES=COC1=CC=C(C=C1)C2=CC(=O)C3=C(C=C(C=C3O2)O)O"
Num Peaks: 22
 149 0.200200; 
 151 0.200200; 
 177 0.300300; 
 226 0.300300; 
 241 1.301301; 
 242 0.200200; 
 243 2.802803; 
 244 0.400400; 
 252 0.200200; 
 255 0.200200; 
 256 0.200200; 
 257 0.400400; 
 267 2.102102; 
 268 0.200200; 
 268 0.300300; 
 269 0.800801; 
 270 0.500501; 
 283 2.902903; 
 284 2.502503; 
 285 100.000000; 
 286 12.012012; 
 287 1.301301; 


Name: 2'-Hydroxy-4'-methoxychalcone
SYNON: $:00in-source
DB#: MetaboBASE0809
InChIKey: GUNGQVJAKLIYDG-JXMROGBWSA-N
Precursor_type: [M-H]-
Spectrum_type: MS2
PrecursorMZ: 253.0865
Instrument_type: LC-ESI-TOF
Instrument: impact HD
Ion_mode: N
Collision_energy: 10
InChIKey: GUNGQVJAKLIYDG-JXMROGBWSA-N
Formula: C16H14O3
MW: 254
ExactMass: 254.09429430799997
Comments: "license=License CC-BY-NC-SA 4.0 International" "author=Plant Biology, The Noble Foundation, Ardmore, OK, US/Dennis Fine, Daniel Wherritt, and Lloyd Sumner" "instrument type=LC-ESI-TOF" "instrument=impact HD" "ionization=ESI" "ionization mode=negative" "ms level=MS2" "precursor m/z=253.0865" "isolation width=5" "collision gas=Nitrogen" "collision energy=10" "peak width=0.014" "date=2014-01-08 00:39:31+01:00" "column=Waters Acquity BEH C18 1.7um x 2.1 x 150 mm" "retention time=1254.6" "raw data file=C:\Data\Confirmed Standards\Confirmed stds MSMS 7Jan14\2'Hydroxy4'methoxychal MSMS.d" "precursor type=[M-H]-" "mass accuracy=2.0479480335080136" "mass error=-5.183079999824258E-4" "cas number=52923-29-2" "SMILES=COc1ccc(c(c1)O)C(=O)/C=C/c2ccccc2" "InChI=InChI=1S/C16H14O3/c1-19-13-8-9-14(16(18)11-13)15(17)10-7-12-5-3-2-4-6-12/h2-11,18H,1H3/b10-7+" "InChIKey=GUNGQVJAKLIYDG-JXMROGBWSA-N" "molecular formula=C16H14O3" "total exact mass=254.09429430799997" "SMILES=COC1=CC(=C(C=C1)C(=O)C=CC2=CC=CC=C2)O"
Num Peaks: 4
 237 3.803804; 
 238 6.206206; 
 253 100.000000; 
 254 12.612613; 


Name: 2'-Hydroxy-4'-methoxychalcone
SYNON: $:00in-source
DB#: MetaboBASE0810
InChIKey: GUNGQVJAKLIYDG-JXMROGBWSA-N
Precursor_type: [M-H]-
Spectrum_type: MS2
PrecursorMZ: 253.0867
Instrument_type: LC-ESI-TOF
Instrument: impact HD
Ion_mode: N
Collision_energy: 20
InChIKey: GUNGQVJAKLIYDG-JXMROGBWSA-N
Formula: C16H14O3
MW: 254
ExactMass: 254.094294308
Comments: "license=License CC-BY-NC-SA 4.0 International" "author=Plant Biology, The Noble Foundation, Ardmore, OK, US/Dennis Fine, Daniel Wherritt, and Lloyd Sumner" "instrument type=LC-ESI-TOF" "instrument=impact HD" "ionization=ESI" "ionization mode=negative" "ms level=MS2" "precursor m/z=253.0867" "isolation width=5" "collision gas=Nitrogen" "collision energy=20" "peak width=0.015" "date=2014-01-08 00:39:31+01:00" "column=Waters Acquity BEH C18 1.7um x 2.1 x 150 mm" "retention time=1254.6" "raw data file=C:\Data\Confirmed Standards\Confirmed stds MSMS 7Jan14\2'Hydroxy4'methoxychal MSMS.d" "precursor type=[M-H]-" "mass accuracy=1.2577033878279982" "mass error=-3.183080000042082E-4" "cas number=52923-29-2" "SMILES=COc1ccc(c(c1)O)C(=O)/C=C/c2ccccc2" "InChI=InChI=1S/C16H14O3/c1-19-13-8-9-14(16(18)11-13)15(17)10-7-12-5-3-2-4-6-12/h2-11,18H,1H3/b10-7+" "InChIKey=GUNGQVJAKLIYDG-JXMROGBWSA-N" "molecular formula=C16H14O3" "total exact mass=254.094294308" "SMILES=COC1=CC(=C(C=C1)C(=O)C=CC2=CC=CC=C2)O"
Num Peaks: 6
 108 11.911912; 
 237 59.259259; 
 238 41.441441; 
 239 12.612613; 
 253 100.000000; 
 254 9.009009; 


Name: 2'-Hydroxy-4'-methoxychalcone
SYNON: $:00in-source
DB#: MetaboBASE0811
InChIKey: GUNGQVJAKLIYDG-JXMROGBWSA-N
Precursor_type: [M-H]-
Spectrum_type: MS2
PrecursorMZ: 253.1
Instrument_type: LC-ESI-TOF
Instrument: impact HD
Ion_mode: N
Collision_energy: 30
InChIKey: GUNGQVJAKLIYDG-JXMROGBWSA-N
Formula: C16H14O3
MW: 254
ExactMass: 254.09429430799997
Comments: "license=License CC-BY-NC-SA 4.0 International" "author=Plant Biology, The Noble Foundation, Ardmore, OK, US/Dennis Fine, Daniel Wherritt, and Lloyd Sumner" "instrument type=LC-ESI-TOF" "instrument=impact HD" "ionization=ESI" "ionization mode=negative" "ms level=MS2" "precursor m/z=253.1" "isolation width=5" "collision gas=Nitrogen" "collision energy=30" "peak width=0.015" "date=2014-01-08 00:39:31+01:00" "column=Waters Acquity BEH C18 1.7um x 2.1 x 150 mm" "retention time=1254.6" "raw data file=C:\Data\Confirmed Standards\Confirmed stds MSMS 7Jan14\2'Hydroxy4'methoxychal MSMS.d" "precursor type=[M-H]-" "mass accuracy=51.29076254449222" "mass error=0.01298169200001098" "cas number=52923-29-2" "SMILES=COc1ccc(c(c1)O)C(=O)/C=C/c2ccccc2" "InChI=InChI=1S/C16H14O3/c1-19-13-8-9-14(16(18)11-13)15(17)10-7-12-5-3-2-4-6-12/h2-11,18H,1H3/b10-7+" "InChIKey=GUNGQVJAKLIYDG-JXMROGBWSA-N" "molecular formula=C16H14O3" "total exact mass=254.09429430799997" "SMILES=COC1=CC(=C(C=C1)C(=O)C=CC2=CC=CC=C2)O"
Num Peaks: 8
 108 19.719720; 
 117 6.606607; 
 120 6.906907; 
 161 12.112112; 
 209 8.208208; 
 237 100.000000; 
 238 13.013013; 
 239 7.707708; 


Name: 2'-Hydroxy-4'-methoxychalcone
SYNON: $:00in-source
DB#: MetaboBASE0812
InChIKey: GUNGQVJAKLIYDG-JXMROGBWSA-N
Instrument_type: LC-ESI-TOF
Instrument: impact HD
Ion_mode: N
InChIKey: GUNGQVJAKLIYDG-JXMROGBWSA-N
Formula: C16H14O3
MW: 254
ExactMass: 254.09429430799997
Comments: "license=License CC-BY-NC-SA 4.0 International" "author=Plant Biology, The Noble Foundation, Ardmore, OK, US/Dennis Fine, Daniel Wherritt, and Lloyd Sumner" "instrument type=LC-ESI-TOF" "instrument=impact HD" "ionization=ESI" "ionization mode=negative" "collision gas=Nitrogen" "peak width=0.017" "date=2014-01-08 00:39:31+01:00" "column=Waters Acquity BEH C18 1.7um x 2.1 x 150 mm" "retention time=1254.6" "raw data file=C:\Data\Confirmed Standards\Confirmed stds MSMS 7Jan14\2'Hydroxy4'methoxychal MSMS.d" "cas number=52923-29-2" "SMILES=COc1ccc(c(c1)O)C(=O)/C=C/c2ccccc2" "InChI=InChI=1S/C16H14O3/c1-19-13-8-9-14(16(18)11-13)15(17)10-7-12-5-3-2-4-6-12/h2-11,18H,1H3/b10-7+" "InChIKey=GUNGQVJAKLIYDG-JXMROGBWSA-N" "molecular formula=C16H14O3" "total exact mass=254.09429430799997" "SMILES=COC1=CC(=C(C=C1)C(=O)C=CC2=CC=CC=C2)O"
Num Peaks: 27
 112 16.716717; 
 116 8.108108; 
 128 5.205205; 
 144 3.903904; 
 174 6.406406; 
 180 6.706707; 
 195 4.504505; 
 232 2.602603; 
 235 5.905906; 
 242 13.813814; 
 248 25.325325; 
 253 100.000000; 
 254 14.014014; 
 300 2.302302; 
 304 2.402402; 
 310 6.706707; 
 316 13.113113; 
 328 2.202202; 
 353 3.203203; 
 378 6.906907; 
 384 5.805806; 
 396 2.402402; 
 446 3.503504; 
 452 3.703704; 
 514 2.602603; 
 520 2.602603; 
 582 2.602603; 


Name: 2'-Hydroxy-4-methoxychalcone
SYNON: $:00in-source
DB#: MetaboBASE0813
InChIKey: NXBNYUSXDBHELA-DHZHZOJOSA-N
Precursor_type: [M-H]-
Spectrum_type: MS2
PrecursorMZ: 253.1
Instrument_type: LC-ESI-TOF
Instrument: impact HD
Ion_mode: N
Collision_energy: 40
InChIKey: NXBNYUSXDBHELA-DHZHZOJOSA-N
Formula: C16H14O3
MW: 254
ExactMass: 254.09429430799997
Comments: "license=License CC-BY-NC-SA 4.0 International" "author=Plant Biology, The Noble Foundation, Ardmore, OK, US/Dennis Fine, Daniel Wherritt, and Lloyd Sumner" "instrument type=LC-ESI-TOF" "instrument=impact HD" "ionization=ESI" "ionization mode=negative" "ms level=MS2" "precursor m/z=253.1" "isolation width=5" "collision gas=Nitrogen" "collision energy=40" "peak width=0.021" "date=2014-01-07 23:58:41+01:00" "column=Waters Acquity BEH C18 1.7um x 2.1 x 150 mm" "retention time=1221" "raw data file=C:\Data\Confirmed Standards\Confirmed stds MSMS 7Jan14\2'Hydroxy4methoxychalc MSMS.d" "precursor type=[M-H]-" "mass accuracy=51.29076254449222" "mass error=0.01298169200001098" "cas number=34000-29-8" "SMILES=COc1ccc(cc1)/C=C/C(=O)c2ccccc2O" "InChI=InChI=1S/C16H14O3/c1-19-13-9-6-12(7-10-13)8-11-16(18)14-4-2-3-5-15(14)17/h2-11,17H,1H3/b11-8+" "InChIKey=NXBNYUSXDBHELA-DHZHZOJOSA-N" "molecular formula=C16H14O3" "total exact mass=254.09429430799997" "SMILES=COC1=CC=C(C=C1)C=CC(=O)C2=CC=CC=C2O"
Num Peaks: 3
 117 31.231231; 
 237 100.000000; 
 238 9.609610; 


Name: 2'-Hydroxy-4-methoxychalcone
SYNON: $:00in-source
DB#: MetaboBASE0814
InChIKey: NXBNYUSXDBHELA-DHZHZOJOSA-N
Precursor_type: [M-H]-
Spectrum_type: MS2
PrecursorMZ: 253.0863
Instrument_type: LC-ESI-TOF
Instrument: impact HD
Ion_mode: N
Collision_energy: 10
InChIKey: NXBNYUSXDBHELA-DHZHZOJOSA-N
Formula: C16H14O3
MW: 254
ExactMass: 254.09429430799997
Comments: "license=License CC-BY-NC-SA 4.0 International" "author=Plant Biology, The Noble Foundation, Ardmore, OK, US/Dennis Fine, Daniel Wherritt, and Lloyd Sumner" "instrument type=LC-ESI-TOF" "instrument=impact HD" "ionization=ESI" "ionization mode=negative" "ms level=MS2" "precursor m/z=253.0863" "isolation width=5" "collision gas=Nitrogen" "collision energy=10" "peak width=0.013" "date=2014-01-07 23:58:41+01:00" "column=Waters Acquity BEH C18 1.7um x 2.1 x 150 mm" "retention time=1221" "raw data file=C:\Data\Confirmed Standards\Confirmed stds MSMS 7Jan14\2'Hydroxy4methoxychalc MSMS.d" "precursor type=[M-H]-" "mass accuracy=2.8381939282729456" "mass error=-7.183079999890651E-4" "cas number=34000-29-8" "SMILES=COc1ccc(cc1)/C=C/C(=O)c2ccccc2O" "InChI=InChI=1S/C16H14O3/c1-19-13-9-6-12(7-10-13)8-11-16(18)14-4-2-3-5-15(14)17/h2-11,17H,1H3/b11-8+" "InChIKey=NXBNYUSXDBHELA-DHZHZOJOSA-N" "molecular formula=C16H14O3" "total exact mass=254.09429430799997" "SMILES=COC1=CC=C(C=C1)C=CC(=O)C2=CC=CC=C2O"
Num Peaks: 6
 237 5.505506; 
 238 10.210210; 
 239 2.102102; 
 253 100.000000; 
 254 12.612613; 
 255 2.402402; 


Name: 2'-Hydroxy-4-methoxychalcone
SYNON: $:00in-source
DB#: MetaboBASE0815
InChIKey: NXBNYUSXDBHELA-DHZHZOJOSA-N
Precursor_type: [M-H]-
Spectrum_type: MS2
PrecursorMZ: 253.0868
Instrument_type: LC-ESI-TOF
Instrument: impact HD
Ion_mode: N
Collision_energy: 20
InChIKey: NXBNYUSXDBHELA-DHZHZOJOSA-N
Formula: C16H14O3
MW: 254
ExactMass: 254.09429430799997
Comments: "license=License CC-BY-NC-SA 4.0 International" "author=Plant Biology, The Noble Foundation, Ardmore, OK, US/Dennis Fine, Daniel Wherritt, and Lloyd Sumner" "instrument type=LC-ESI-TOF" "instrument=impact HD" "ionization=ESI" "ionization mode=negative" "ms level=MS2" "precursor m/z=253.0868" "isolation width=5" "collision gas=Nitrogen" "collision energy=20" "peak width=0.016" "date=2014-01-07 23:58:41+01:00" "column=Waters Acquity BEH C18 1.7um x 2.1 x 150 mm" "retention time=1221" "raw data file=C:\Data\Confirmed Standards\Confirmed stds MSMS 7Jan14\2'Hydroxy4methoxychalc MSMS.d" "precursor type=[M-H]-" "mass accuracy=0.8625815331833461" "mass error=-2.1830799997246686E-4" "cas number=34000-29-8" "SMILES=COc1ccc(cc1)/C=C/C(=O)c2ccccc2O" "InChI=InChI=1S/C16H14O3/c1-19-13-9-6-12(7-10-13)8-11-16(18)14-4-2-3-5-15(14)17/h2-11,17H,1H3/b11-8+" "InChIKey=NXBNYUSXDBHELA-DHZHZOJOSA-N" "molecular formula=C16H14O3" "total exact mass=254.09429430799997" "SMILES=COC1=CC=C(C=C1)C=CC(=O)C2=CC=CC=C2O"
Num Peaks: 7
 209 3.403403; 
 221 3.703704; 
 237 100.000000; 
 238 65.165165; 
 239 5.205205; 
 253 32.832833; 
 254 5.905906; 


Name: 2'-Hydroxy-4-methoxychalcone
SYNON: $:00in-source
DB#: MetaboBASE0816
InChIKey: NXBNYUSXDBHELA-DHZHZOJOSA-N
Precursor_type: [M-H]-
Spectrum_type: MS2
PrecursorMZ: 253.1
Instrument_type: LC-ESI-TOF
Instrument: impact HD
Ion_mode: N
Collision_energy: 30
InChIKey: NXBNYUSXDBHELA-DHZHZOJOSA-N
Formula: C16H14O3
MW: 254
ExactMass: 254.09429430799997
Comments: "license=License CC-BY-NC-SA 4.0 International" "author=Plant Biology, The Noble Foundation, Ardmore, OK, US/Dennis Fine, Daniel Wherritt, and Lloyd Sumner" "instrument type=LC-ESI-TOF" "instrument=impact HD" "ionization=ESI" "ionization mode=negative" "ms level=MS2" "precursor m/z=253.1" "isolation width=5" "collision gas=Nitrogen" "collision energy=30" "peak width=0.017" "date=2014-01-07 23:58:41+01:00" "column=Waters Acquity BEH C18 1.7um x 2.1 x 150 mm" "retention time=1221" "raw data file=C:\Data\Confirmed Standards\Confirmed stds MSMS 7Jan14\2'Hydroxy4methoxychalc MSMS.d" "precursor type=[M-H]-" "mass accuracy=51.29076254449222" "mass error=0.01298169200001098" "cas number=34000-29-8" "SMILES=COc1ccc(cc1)/C=C/C(=O)c2ccccc2O" "InChI=InChI=1S/C16H14O3/c1-19-13-9-6-12(7-10-13)8-11-16(18)14-4-2-3-5-15(14)17/h2-11,17H,1H3/b11-8+" "InChIKey=NXBNYUSXDBHELA-DHZHZOJOSA-N" "molecular formula=C16H14O3" "total exact mass=254.09429430799997" "SMILES=COC1=CC=C(C=C1)C=CC(=O)C2=CC=CC=C2O"
Num Peaks: 6
 117 4.704705; 
 209 4.104104; 
 210 3.503504; 
 221 4.904905; 
 237 100.000000; 
 238 19.619620; 


Name: 2'-Hydroxy-4-methoxychalcone
SYNON: $:00in-source
DB#: MetaboBASE0817
InChIKey: NXBNYUSXDBHELA-DHZHZOJOSA-N
Instrument_type: LC-ESI-TOF
Instrument: impact HD
Ion_mode: N
InChIKey: NXBNYUSXDBHELA-DHZHZOJOSA-N
Formula: C16H14O3
MW: 254
ExactMass: 254.09429430799997
Comments: "license=License CC-BY-NC-SA 4.0 International" "author=Plant Biology, The Noble Foundation, Ardmore, OK, US/Dennis Fine, Daniel Wherritt, and Lloyd Sumner" "instrument type=LC-ESI-TOF" "instrument=impact HD" "ionization=ESI" "ionization mode=negative" "collision gas=Nitrogen" "peak width=0.018" "date=2014-01-07 23:58:41+01:00" "column=Waters Acquity BEH C18 1.7um x 2.1 x 150 mm" "retention time=1221" "raw data file=C:\Data\Confirmed Standards\Confirmed stds MSMS 7Jan14\2'Hydroxy4methoxychalc MSMS.d" "cas number=34000-29-8" "SMILES=COc1ccc(cc1)/C=C/C(=O)c2ccccc2O" "InChI=InChI=1S/C16H14O3/c1-19-13-9-6-12(7-10-13)8-11-16(18)14-4-2-3-5-15(14)17/h2-11,17H,1H3/b11-8+" "InChIKey=NXBNYUSXDBHELA-DHZHZOJOSA-N" "molecular formula=C16H14O3" "total exact mass=254.09429430799997" "SMILES=COC1=CC=C(C=C1)C=CC(=O)C2=CC=CC=C2O"
Num Peaks: 14
 112 12.512513; 
 116 8.008008; 
 128 5.005005; 
 174 5.405405; 
 180 5.505506; 
 235 5.105105; 
 242 10.710711; 
 248 21.421421; 
 253 100.000000; 
 254 14.614615; 
 310 6.106106; 
 316 11.911912; 
 378 5.805806; 
 384 4.704705; 


Name: 3',4',7,8-Tetrahydroxyflavanone
SYNON: $:00in-source
DB#: MetaboBASE0818
InChIKey: ZPVNWCMRCGXRJD-ZDUSSCGKSA-N
Spectrum_type: MS2
PrecursorMZ: 285.0418
Instrument_type: LC-ESI-TOF
Instrument: impact HD
Ion_mode: N
Collision_energy: 10
InChIKey: ZPVNWCMRCGXRJD-ZDUSSCGKSA-N
Formula: C15H12O6
MW: 288
ExactMass: 288.06338810399996
Comments: "license=License CC-BY-NC-SA 4.0 International" "author=Plant Biology, The Noble Foundation, Ardmore, OK, US/Dennis Fine, Daniel Wherritt, and Lloyd Sumner" "instrument type=LC-ESI-TOF" "instrument=impact HD" "ionization=ESI" "ionization mode=negative" "ms level=MS2" "precursor m/z=285.0418" "isolation width=5" "collision gas=Nitrogen" "collision energy=10" "peak width=0.013" "date=2014-01-07 20:34:50+01:00" "column=Waters Acquity BEH C18 1.7um x 2.1 x 150 mm" "retention time=262.2" "raw data file=C:\Data\Confirmed Standards\Confirmed stds MSMS 7Jan14\3'4'78Tetrahydroxyflav MSMS.d" "molecular formula=C15H12O6" "total exact mass=288.06338810399996" "SMILES=OC1=CC=C(C2CC(C3=CC=C(O)C(=C3O2)O)=O)C=C1O" "InChI=InChI=1S/C15H12O6/c16-9-3-1-7(5-12(9)19)13-6-11(18)8-2-4-10(17)14(20)15(8)21-13/h1-5,13,16-17,19-20H,6H2/t13-/m0/s1" "InChIKey=ZPVNWCMRCGXRJD-ZDUSSCGKSA-N"
Num Peaks: 17
 123 6.706707; 
 124 0.400400; 
 135 10.610611; 
 136 0.900901; 
 151 4.304304; 
 169 0.600601; 
 229 0.400400; 
 241 3.103103; 
 242 0.400400; 
 269 4.104104; 
 270 0.400400; 
 283 3.503504; 
 284 0.500501; 
 285 39.939940; 
 286 4.404404; 
 287 100.000000; 
 288 5.805806; 


Name: 3',4',7,8-Tetrahydroxyflavanone
SYNON: $:00in-source
DB#: MetaboBASE0819
InChIKey: ZPVNWCMRCGXRJD-ZDUSSCGKSA-N
Spectrum_type: MS2
PrecursorMZ: 285.0408
Instrument_type: LC-ESI-TOF
Instrument: impact HD
Ion_mode: N
Collision_energy: 20
InChIKey: ZPVNWCMRCGXRJD-ZDUSSCGKSA-N
Formula: C15H12O6
MW: 288
ExactMass: 288.06338810399996
Comments: "license=License CC-BY-NC-SA 4.0 International" "author=Plant Biology, The Noble Foundation, Ardmore, OK, US/Dennis Fine, Daniel Wherritt, and Lloyd Sumner" "instrument type=LC-ESI-TOF" "instrument=impact HD" "ionization=ESI" "ionization mode=negative" "ms level=MS2" "precursor m/z=285.0408" "isolation width=5" "collision gas=Nitrogen" "collision energy=20" "peak width=0.017" "date=2014-01-07 20:34:50+01:00" "column=Waters Acquity BEH C18 1.7um x 2.1 x 150 mm" "retention time=262.2" "raw data file=C:\Data\Confirmed Standards\Confirmed stds MSMS 7Jan14\3'4'78Tetrahydroxyflav MSMS.d" "molecular formula=C15H12O6" "total exact mass=288.06338810399996" "SMILES=OC1=CC=C(C2CC(C3=CC=C(O)C(=C3O2)O)=O)C=C1O" "InChI=InChI=1S/C15H12O6/c16-9-3-1-7(5-12(9)19)13-6-11(18)8-2-4-10(17)14(20)15(8)21-13/h1-5,13,16-17,19-20H,6H2/t13-/m0/s1" "InChIKey=ZPVNWCMRCGXRJD-ZDUSSCGKSA-N"
Num Peaks: 15
 107 1.201201; 
 123 6.506507; 
 124 1.001001; 
 133 2.002002; 
 134 1.501502; 
 135 100.000000; 
 136 4.404404; 
 151 22.522523; 
 152 1.001001; 
 169 2.602603; 
 227 0.900901; 
 241 0.900901; 
 269 1.601602; 
 285 1.101101; 
 287 3.303303; 


Name: 3',4',7,8-Tetrahydroxyflavanone
SYNON: $:00in-source
DB#: MetaboBASE0820
InChIKey: ZPVNWCMRCGXRJD-ZDUSSCGKSA-N
Spectrum_type: MS2
PrecursorMZ: 285
Instrument_type: LC-ESI-TOF
Instrument: impact HD
Ion_mode: N
Collision_energy: 30
InChIKey: ZPVNWCMRCGXRJD-ZDUSSCGKSA-N
Formula: C15H12O6
MW: 288
ExactMass: 288.06338810399996
Comments: "license=License CC-BY-NC-SA 4.0 International" "author=Plant Biology, The Noble Foundation, Ardmore, OK, US/Dennis Fine, Daniel Wherritt, and Lloyd Sumner" "instrument type=LC-ESI-TOF" "instrument=impact HD" "ionization=ESI" "ionization mode=negative" "ms level=MS2" "precursor m/z=285" "isolation width=5" "collision gas=Nitrogen" "collision energy=30" "peak width=0.017" "date=2014-01-07 20:34:50+01:00" "column=Waters Acquity BEH C18 1.7um x 2.1 x 150 mm" "retention time=262.2" "raw data file=C:\Data\Confirmed Standards\Confirmed stds MSMS 7Jan14\3'4'78Tetrahydroxyflav MSMS.d" "molecular formula=C15H12O6" "total exact mass=288.06338810399996" "SMILES=OC1=CC=C(C2CC(C3=CC=C(O)C(=C3O2)O)=O)C=C1O" "InChI=InChI=1S/C15H12O6/c16-9-3-1-7(5-12(9)19)13-6-11(18)8-2-4-10(17)14(20)15(8)21-13/h1-5,13,16-17,19-20H,6H2/t13-/m0/s1" "InChIKey=ZPVNWCMRCGXRJD-ZDUSSCGKSA-N"
Num Peaks: 7
 107 1.201201; 
 123 6.906907; 
 133 2.802803; 
 134 2.602603; 
 135 100.000000; 
 136 4.104104; 
 151 8.208208; 


Name: 3',4',7,8-Tetrahydroxyflavanone
SYNON: $:00in-source
DB#: MetaboBASE0821
InChIKey: ZPVNWCMRCGXRJD-ZDUSSCGKSA-N
Instrument_type: LC-ESI-TOF
Instrument: impact HD
Ion_mode: N
InChIKey: ZPVNWCMRCGXRJD-ZDUSSCGKSA-N
Formula: C15H12O6
MW: 288
ExactMass: 288.06338810399996
Comments: "license=License CC-BY-NC-SA 4.0 International" "author=Plant Biology, The Noble Foundation, Ardmore, OK, US/Dennis Fine, Daniel Wherritt, and Lloyd Sumner" "instrument type=LC-ESI-TOF" "instrument=impact HD" "ionization=ESI" "ionization mode=negative" "collision gas=Nitrogen" "peak width=0.013" "date=2014-01-07 20:34:50+01:00" "column=Waters Acquity BEH C18 1.7um x 2.1 x 150 mm" "retention time=262.2" "raw data file=C:\Data\Confirmed Standards\Confirmed stds MSMS 7Jan14\3'4'78Tetrahydroxyflav MSMS.d" "molecular formula=C15H12O6" "total exact mass=288.06338810399996" "SMILES=OC1=CC=C(C2CC(C3=CC=C(O)C(=C3O2)O)=O)C=C1O" "InChI=InChI=1S/C15H12O6/c16-9-3-1-7(5-12(9)19)13-6-11(18)8-2-4-10(17)14(20)15(8)21-13/h1-5,13,16-17,19-20H,6H2/t13-/m0/s1" "InChIKey=ZPVNWCMRCGXRJD-ZDUSSCGKSA-N"
Num Peaks: 22
 283 5.505506; 
 284 0.900901; 
 285 75.975976; 
 286 9.509510; 
 287 100.000000; 
 288 11.811812; 
 289 1.201201; 
 301 5.405405; 
 303 7.907908; 
 304 0.900901; 
 319 4.804805; 
 331 2.202202; 
 333 3.903904; 
 571 2.602603; 
 573 25.825826; 
 574 7.107107; 
 575 31.131131; 
 576 8.208208; 
 577 1.401401; 
 597 1.401401; 
 621 1.201201; 
 863 1.201201; 


Name: Asiatic acid
SYNON: $:00in-source
DB#: MetaboBASE0822
InChIKey: JXSVIVRDWWRQRT-UYDOISQJSA-N
Precursor_type: [M+FA-H]-
Spectrum_type: MS2
PrecursorMZ: 533.3499
Instrument_type: LC-ESI-TOF
Instrument: impact HD
Ion_mode: N
Collision_energy: 10
InChIKey: JXSVIVRDWWRQRT-UYDOISQJSA-N
Formula: C30H48O5
MW: 488
ExactMass: 488.35017463599996
Comments: "license=License CC-BY-NC-SA 4.0 International" "author=Plant Biology, The Noble Foundation, Ardmore, OK, US/Dennis Fine, Daniel Wherritt, and Lloyd Sumner" "instrument type=LC-ESI-TOF" "instrument=impact HD" "ionization=ESI" "ionization mode=negative" "ms level=MS2" "precursor m/z=533.3499" "isolation width=5" "collision gas=Nitrogen" "collision energy=10" "peak width=0.012" "date=2014-01-08 10:50:58+01:00" "column=Waters Acquity BEH C18 1.7um x 2.1 x 150 mm" "retention time=1068.6" "raw data file=C:\Data\Confirmed Standards\Confirmed stds MSMS 7Jan14\Asiatic acid (vial 360)_MSMS.d" "precursor type=[M+FA-H]-" "mass accuracy=2.8580937205266728" "mass error=0.001524364000033529" "cas number=464-92-6" "SMILES=C[C@@H]1CC[C@@]2(CC[C@@]3(C(=CC[C@H]4[C@]3(CC[C@@H]5[C@@]4(C[C@H]([C@@H]([C@@]5(C)CO)O)O)C)C)[C@@H]2[C@H]1C)C)C(=O)O" "InChI=InChI=1S/C30H48O5/c1-17-9-12-30(25(34)35)14-13-28(5)19(23(30)18(17)2)7-8-22-26(3)15-20(32)24(33)27(4,16-31)21(26)10-11-29(22,28)6/h7,17-18,20-24,31-33H,8-16H2,1-6H3,(H,34,35)/t17-,18+,20-,21-,22-,23+,24+,26+,27+,28-,29-,30+/m1/s1" "InChIKey=JXSVIVRDWWRQRT-UYDOISQJSA-N" "molecular formula=C30H48O5" "total exact mass=488.35017463599996" "SMILES=CC1CCC2(CCC3(C(=CCC4C3(CCC5C4(CC(C(C5(C)CO)O)O)C)C)C2C1C)C)C(=O)O" "InChI=InChI=1S/C30H48O5/c1-17-9-12-30(25(34)35)14-13-28(5)19(23(30)18(17)2)7-8-22-26(3)15-20(32)24(33)27(4,16-31)21(26)10-11-29(22,28)6/h7,17-18,20-24,31-33H,8-16H2,1-6H3,(H,34,35)" "InChIKey=JXSVIVRDWWRQRT-UHFFFAOYSA-N"
Num Peaks: 6
 487 100.000000; 
 488 24.924925; 
 489 4.104104; 
 533 12.012012; 
 534 3.703704; 
 535 1.201201; 


Name: Asiatic acid
SYNON: $:00in-source
DB#: MetaboBASE0823
InChIKey: JXSVIVRDWWRQRT-UYDOISQJSA-N
Instrument_type: LC-ESI-TOF
Instrument: impact HD
Ion_mode: N
InChIKey: JXSVIVRDWWRQRT-UYDOISQJSA-N
Formula: C30H48O5
MW: 488
ExactMass: 488.35017463599996
Comments: "license=License CC-BY-NC-SA 4.0 International" "author=Plant Biology, The Noble Foundation, Ardmore, OK, US/Dennis Fine, Daniel Wherritt, and Lloyd Sumner" "instrument type=LC-ESI-TOF" "instrument=impact HD" "ionization=ESI" "ionization mode=negative" "collision gas=Nitrogen" "peak width=0.013" "date=2014-01-08 10:50:58+01:00" "column=Waters Acquity BEH C18 1.7um x 2.1 x 150 mm" "retention time=1068.6" "raw data file=C:\Data\Confirmed Standards\Confirmed stds MSMS 7Jan14\Asiatic acid (vial 360)_MSMS.d" "cas number=464-92-6" "SMILES=C[C@@H]1CC[C@@]2(CC[C@@]3(C(=CC[C@H]4[C@]3(CC[C@@H]5[C@@]4(C[C@H]([C@@H]([C@@]5(C)CO)O)O)C)C)[C@@H]2[C@H]1C)C)C(=O)O" "InChI=InChI=1S/C30H48O5/c1-17-9-12-30(25(34)35)14-13-28(5)19(23(30)18(17)2)7-8-22-26(3)15-20(32)24(33)27(4,16-31)21(26)10-11-29(22,28)6/h7,17-18,20-24,31-33H,8-16H2,1-6H3,(H,34,35)/t17-,18+,20-,21-,22-,23+,24+,26+,27+,28-,29-,30+/m1/s1" "InChIKey=JXSVIVRDWWRQRT-UYDOISQJSA-N" "molecular formula=C30H48O5" "total exact mass=488.35017463599996" "SMILES=CC1CCC2(CCC3(C(=CCC4C3(CCC5C4(CC(C(C5(C)CO)O)O)C)C)C2C1C)C)C(=O)O" "InChI=InChI=1S/C30H48O5/c1-17-9-12-30(25(34)35)14-13-28(5)19(23(30)18(17)2)7-8-22-26(3)15-20(32)24(33)27(4,16-31)21(26)10-11-29(22,28)6/h7,17-18,20-24,31-33H,8-16H2,1-6H3,(H,34,35)" "InChIKey=JXSVIVRDWWRQRT-UHFFFAOYSA-N"
Num Peaks: 21
 112 3.103103; 
 116 1.801802; 
 248 2.202202; 
 487 97.797798; 
 488 23.523524; 
 489 3.903904; 
 533 100.000000; 
 534 26.526527; 
 535 4.604605; 
 555 13.913914; 
 556 4.404404; 
 583 4.004004; 
 584 1.901902; 
 623 4.904905; 
 666 4.604605; 
 691 2.302302; 
 975 13.713714; 
 976 7.607608; 
 977 3.003003; 
 997 2.802803; 
 998 1.901902; 


Name: Asiatic acid
SYNON: $:00in-source
DB#: MetaboBASE0824
InChIKey: JXSVIVRDWWRQRT-UYDOISQJSA-N
Precursor_type: [M+FA-H]-
Spectrum_type: MS2
PrecursorMZ: 533.4
Instrument_type: LC-ESI-TOF
Instrument: impact HD
Ion_mode: N
Collision_energy: 20
InChIKey: JXSVIVRDWWRQRT-UYDOISQJSA-N
Formula: C30H48O5
MW: 488
ExactMass: 488.35017463599996
Comments: "license=License CC-BY-NC-SA 4.0 International" "author=Plant Biology, The Noble Foundation, Ardmore, OK, US/Dennis Fine, Daniel Wherritt, and Lloyd Sumner" "instrument type=LC-ESI-TOF" "instrument=impact HD" "ionization=ESI" "ionization mode=negative" "ms level=MS2" "precursor m/z=533.4" "isolation width=5" "collision gas=Nitrogen" "collision energy=20" "peak width=0.012" "date=2014-01-08 10:50:58+01:00" "column=Waters Acquity BEH C18 1.7um x 2.1 x 150 mm" "retention time=1068.6" "raw data file=C:\Data\Confirmed Standards\Confirmed stds MSMS 7Jan14\Asiatic acid (vial 360)_MSMS.d" "precursor type=[M+FA-H]-" "mass accuracy=96.78358455186155" "mass error=0.05162436399996295" "cas number=464-92-6" "SMILES=C[C@@H]1CC[C@@]2(CC[C@@]3(C(=CC[C@H]4[C@]3(CC[C@@H]5[C@@]4(C[C@H]([C@@H]([C@@]5(C)CO)O)O)C)C)[C@@H]2[C@H]1C)C)C(=O)O" "InChI=InChI=1S/C30H48O5/c1-17-9-12-30(25(34)35)14-13-28(5)19(23(30)18(17)2)7-8-22-26(3)15-20(32)24(33)27(4,16-31)21(26)10-11-29(22,28)6/h7,17-18,20-24,31-33H,8-16H2,1-6H3,(H,34,35)/t17-,18+,20-,21-,22-,23+,24+,26+,27+,28-,29-,30+/m1/s1" "InChIKey=JXSVIVRDWWRQRT-UYDOISQJSA-N" "molecular formula=C30H48O5" "total exact mass=488.35017463599996" "SMILES=CC1CCC2(CCC3(C(=CCC4C3(CCC5C4(CC(C(C5(C)CO)O)O)C)C)C2C1C)C)C(=O)O" "InChI=InChI=1S/C30H48O5/c1-17-9-12-30(25(34)35)14-13-28(5)19(23(30)18(17)2)7-8-22-26(3)15-20(32)24(33)27(4,16-31)21(26)10-11-29(22,28)6/h7,17-18,20-24,31-33H,8-16H2,1-6H3,(H,34,35)" "InChIKey=JXSVIVRDWWRQRT-UHFFFAOYSA-N"
Num Peaks: 3
 487 100.000000; 
 488 21.221221; 
 489 3.603604; 


Name: Apiin
SYNON: $:00in-source
DB#: MetaboBASE0825
InChIKey: FDRBRRBUPLHXEM-PUVROTEMSA-N
Precursor_type: [M-H]-
Spectrum_type: MS2
PrecursorMZ: 563.1435
Instrument_type: LC-ESI-TOF
Instrument: impact HD
Ion_mode: N
Collision_energy: 10
InChIKey: FDRBRRBUPLHXEM-PUVROTEMSA-N
Formula: C26H28O14
MW: 564
ExactMass: 564.147905576
Comments: "license=License CC-BY-NC-SA 4.0 International" "author=Plant Biology, The Noble Foundation, Ardmore, OK, US/Dennis Fine, Daniel Wherritt, and Lloyd Sumner" "instrument type=LC-ESI-TOF" "instrument=impact HD" "ionization=ESI" "ionization mode=negative" "ms level=MS2" "precursor m/z=563.1435" "isolation width=5" "collision gas=Nitrogen" "collision energy=10" "peak width=0.012" "date=2014-01-08 04:03:27+01:00" "column=Waters Acquity BEH C18 1.7um x 2.1 x 150 mm" "retention time=387.6" "raw data file=C:\Data\Confirmed Standards\Confirmed stds MSMS 7Jan14\Apiin (vial 321)_MSMS.d" "precursor type=[M-H]-" "mass accuracy=5.0971448664388515" "mass error=0.002870424000093408" "cas number=26544-34-3" "SMILES=c1cc(ccc1c2cc(=O)c3c(cc(cc3o2)O[C@H]4[C@@H]([C@H]([C@@H]([C@H](O4)CO)OC5[C@@H]([C@](CO5)(CO)O)O)O)O)O)O" "InChI=InChI=1S/C26H28O14/c27-8-18-22(40-25-23(34)26(35,9-28)10-36-25)20(32)21(33)24(39-18)37-13-5-14(30)19-15(31)7-16(38-17(19)6-13)11-1-3-12(29)4-2-11/h1-7,18,20-25,27-30,32-35H,8-10H2/t18-,20-,21-,22-,23+,24-,25?,26-/m1/s1" "InChIKey=FDRBRRBUPLHXEM-PUVROTEMSA-N" "molecular formula=C26H28O14" "total exact mass=564.147905576" "SMILES=C1C(C(C(O1)OC2C(C(C(OC2OC3=CC(=C4C(=C3)OC(=CC4=O)C5=CC=C(C=C5)O)O)CO)O)O)O)(CO)O" "InChI=InChI=1S/C26H28O14/c27-8-18-20(32)21(33)22(40-25-23(34)26(35,9-28)10-36-25)24(39-18)37-13-5-14(30)19-15(31)7-16(38-17(19)6-13)11-1-3-12(29)4-2-11/h1-7,18,20-25,27-30,32-35H,8-10H2" "InChIKey=NTDLXWMIWOECHG-UHFFFAOYSA-N"
Num Peaks: 3
 563 100.000000; 
 564 31.031031; 
 565 13.813814; 


Name: Apiin
SYNON: $:00in-source
DB#: MetaboBASE0826
InChIKey: FDRBRRBUPLHXEM-PUVROTEMSA-N
Precursor_type: [M-H]-
Spectrum_type: MS2
PrecursorMZ: 563.14
Instrument_type: LC-ESI-TOF
Instrument: impact HD
Ion_mode: N
Collision_energy: 30
InChIKey: FDRBRRBUPLHXEM-PUVROTEMSA-N
Formula: C26H28O14
MW: 564
ExactMass: 564.147905576
Comments: "license=License CC-BY-NC-SA 4.0 International" "author=Plant Biology, The Noble Foundation, Ardmore, OK, US/Dennis Fine, Daniel Wherritt, and Lloyd Sumner" "instrument type=LC-ESI-TOF" "instrument=impact HD" "ionization=ESI" "ionization mode=negative" "ms level=MS2" "precursor m/z=563.14" "isolation width=5" "collision gas=Nitrogen" "collision energy=30" "peak width=0.014" "date=2014-01-08 04:03:27+01:00" "column=Waters Acquity BEH C18 1.7um x 2.1 x 150 mm" "retention time=387.6" "raw data file=C:\Data\Confirmed Standards\Confirmed stds MSMS 7Jan14\Apiin (vial 321)_MSMS.d" "precursor type=[M-H]-" "mass accuracy=1.1179742158921673" "mass error=-6.29575999937515E-4" "cas number=26544-34-3" "SMILES=c1cc(ccc1c2cc(=O)c3c(cc(cc3o2)O[C@H]4[C@@H]([C@H]([C@@H]([C@H](O4)CO)OC5[C@@H]([C@](CO5)(CO)O)O)O)O)O)O" "InChI=InChI=1S/C26H28O14/c27-8-18-22(40-25-23(34)26(35,9-28)10-36-25)20(32)21(33)24(39-18)37-13-5-14(30)19-15(31)7-16(38-17(19)6-13)11-1-3-12(29)4-2-11/h1-7,18,20-25,27-30,32-35H,8-10H2/t18-,20-,21-,22-,23+,24-,25?,26-/m1/s1" "InChIKey=FDRBRRBUPLHXEM-PUVROTEMSA-N" "molecular formula=C26H28O14" "total exact mass=564.147905576" "SMILES=C1C(C(C(O1)OC2C(C(C(OC2OC3=CC(=C4C(=C3)OC(=CC4=O)C5=CC=C(C=C5)O)O)CO)O)O)O)(CO)O" "InChI=InChI=1S/C26H28O14/c27-8-18-20(32)21(33)22(40-25-23(34)26(35,9-28)10-36-25)24(39-18)37-13-5-14(30)19-15(31)7-16(38-17(19)6-13)11-1-3-12(29)4-2-11/h1-7,18,20-25,27-30,32-35H,8-10H2" "InChIKey=NTDLXWMIWOECHG-UHFFFAOYSA-N"
Num Peaks: 4
 269 85.685686; 
 270 15.815816; 
 563 100.000000; 
 564 26.926927; 


Name: Apiin
SYNON: $:00in-source
DB#: MetaboBASE0827
InChIKey: FDRBRRBUPLHXEM-PUVROTEMSA-N
Precursor_type: [M-H]-
Spectrum_type: MS2
PrecursorMZ: 563.1415
Instrument_type: LC-ESI-TOF
Instrument: impact HD
Ion_mode: N
Collision_energy: 20
InChIKey: FDRBRRBUPLHXEM-PUVROTEMSA-N
Formula: C26H28O14
MW: 564
ExactMass: 564.147905576
Comments: "license=License CC-BY-NC-SA 4.0 International" "author=Plant Biology, The Noble Foundation, Ardmore, OK, US/Dennis Fine, Daniel Wherritt, and Lloyd Sumner" "instrument type=LC-ESI-TOF" "instrument=impact HD" "ionization=ESI" "ionization mode=negative" "ms level=MS2" "precursor m/z=563.1415" "isolation width=5" "collision gas=Nitrogen" "collision energy=20" "peak width=0.012" "date=2014-01-08 04:03:27+01:00" "column=Waters Acquity BEH C18 1.7um x 2.1 x 150 mm" "retention time=387.6" "raw data file=C:\Data\Confirmed Standards\Confirmed stds MSMS 7Jan14\Apiin (vial 321)_MSMS.d" "precursor type=[M-H]-" "mass accuracy=1.5456577077466584" "mass error=8.704240000270147E-4" "cas number=26544-34-3" "SMILES=c1cc(ccc1c2cc(=O)c3c(cc(cc3o2)O[C@H]4[C@@H]([C@H]([C@@H]([C@H](O4)CO)OC5[C@@H]([C@](CO5)(CO)O)O)O)O)O)O" "InChI=InChI=1S/C26H28O14/c27-8-18-22(40-25-23(34)26(35,9-28)10-36-25)20(32)21(33)24(39-18)37-13-5-14(30)19-15(31)7-16(38-17(19)6-13)11-1-3-12(29)4-2-11/h1-7,18,20-25,27-30,32-35H,8-10H2/t18-,20-,21-,22-,23+,24-,25?,26-/m1/s1" "InChIKey=FDRBRRBUPLHXEM-PUVROTEMSA-N" "molecular formula=C26H28O14" "total exact mass=564.147905576" "SMILES=C1C(C(C(O1)OC2C(C(C(OC2OC3=CC(=C4C(=C3)OC(=CC4=O)C5=CC=C(C=C5)O)O)CO)O)O)O)(CO)O" "InChI=InChI=1S/C26H28O14/c27-8-18-20(32)21(33)22(40-25-23(34)26(35,9-28)10-36-25)24(39-18)37-13-5-14(30)19-15(31)7-16(38-17(19)6-13)11-1-3-12(29)4-2-11/h1-7,18,20-25,27-30,32-35H,8-10H2" "InChIKey=NTDLXWMIWOECHG-UHFFFAOYSA-N"
Num Peaks: 4
 269 16.716717; 
 563 100.000000; 
 564 26.326326; 
 565 12.612613; 


Name: Apiin
SYNON: $:00in-source
DB#: MetaboBASE0828
InChIKey: FDRBRRBUPLHXEM-PUVROTEMSA-N
Instrument_type: LC-ESI-TOF
Instrument: impact HD
Ion_mode: N
InChIKey: FDRBRRBUPLHXEM-PUVROTEMSA-N
Formula: C26H28O14
MW: 564
ExactMass: 564.147905576
Comments: "license=License CC-BY-NC-SA 4.0 International" "author=Plant Biology, The Noble Foundation, Ardmore, OK, US/Dennis Fine, Daniel Wherritt, and Lloyd Sumner" "instrument type=LC-ESI-TOF" "instrument=impact HD" "ionization=ESI" "ionization mode=negative" "collision gas=Nitrogen" "peak width=0.014" "date=2014-01-08 04:03:27+01:00" "column=Waters Acquity BEH C18 1.7um x 2.1 x 150 mm" "retention time=387.6" "raw data file=C:\Data\Confirmed Standards\Confirmed stds MSMS 7Jan14\Apiin (vial 321)_MSMS.d" "cas number=26544-34-3" "SMILES=c1cc(ccc1c2cc(=O)c3c(cc(cc3o2)O[C@H]4[C@@H]([C@H]([C@@H]([C@H](O4)CO)OC5[C@@H]([C@](CO5)(CO)O)O)O)O)O)O" "InChI=InChI=1S/C26H28O14/c27-8-18-22(40-25-23(34)26(35,9-28)10-36-25)20(32)21(33)24(39-18)37-13-5-14(30)19-15(31)7-16(38-17(19)6-13)11-1-3-12(29)4-2-11/h1-7,18,20-25,27-30,32-35H,8-10H2/t18-,20-,21-,22-,23+,24-,25?,26-/m1/s1" "InChIKey=FDRBRRBUPLHXEM-PUVROTEMSA-N" "molecular formula=C26H28O14" "total exact mass=564.147905576" "SMILES=C1C(C(C(O1)OC2C(C(C(OC2OC3=CC(=C4C(=C3)OC(=CC4=O)C5=CC=C(C=C5)O)O)CO)O)O)O)(CO)O" "InChI=InChI=1S/C26H28O14/c27-8-18-20(32)21(33)22(40-25-23(34)26(35,9-28)10-36-25)24(39-18)37-13-5-14(30)19-15(31)7-16(38-17(19)6-13)11-1-3-12(29)4-2-11/h1-7,18,20-25,27-30,32-35H,8-10H2" "InChIKey=NTDLXWMIWOECHG-UHFFFAOYSA-N"
Num Peaks: 19
 563 100.000000; 
 563 2.202202; 
 564 22.922923; 
 565 4.304304; 
 609 16.016016; 
 610 3.703704; 
 611 1.001001; 
 631 5.805806; 
 632 1.301301; 
 666 2.502503; 
 677 3.703704; 
 681 1.201201; 
 699 0.900901; 
 845 3.403403; 
 845 3.103103; 
 846 1.401401; 
 1127 1.401401; 
 1127 1.101101; 
 1128 1.301301; 


Name: Apiin
SYNON: $:00in-source
DB#: MetaboBASE0829
InChIKey: FDRBRRBUPLHXEM-PUVROTEMSA-N
Precursor_type: [M-H]-
Spectrum_type: MS2
PrecursorMZ: 563.1403
Instrument_type: LC-ESI-TOF
Instrument: impact HD
Ion_mode: N
Collision_energy: 40
InChIKey: FDRBRRBUPLHXEM-PUVROTEMSA-N
Formula: C26H28O14
MW: 564
ExactMass: 564.147905576
Comments: "license=License CC-BY-NC-SA 4.0 International" "author=Plant Biology, The Noble Foundation, Ardmore, OK, US/Dennis Fine, Daniel Wherritt, and Lloyd Sumner" "instrument type=LC-ESI-TOF" "instrument=impact HD" "ionization=ESI" "ionization mode=negative" "ms level=MS2" "precursor m/z=563.1403" "isolation width=5" "collision gas=Nitrogen" "collision energy=40" "peak width=0.016" "date=2014-01-08 04:03:27+01:00" "column=Waters Acquity BEH C18 1.7um x 2.1 x 150 mm" "retention time=387.6" "raw data file=C:\Data\Confirmed Standards\Confirmed stds MSMS 7Jan14\Apiin (vial 321)_MSMS.d" "precursor type=[M-H]-" "mass accuracy=0.5852466958928962" "mass error=-3.2957599989913433E-4" "cas number=26544-34-3" "SMILES=c1cc(ccc1c2cc(=O)c3c(cc(cc3o2)O[C@H]4[C@@H]([C@H]([C@@H]([C@H](O4)CO)OC5[C@@H]([C@](CO5)(CO)O)O)O)O)O)O" "InChI=InChI=1S/C26H28O14/c27-8-18-22(40-25-23(34)26(35,9-28)10-36-25)20(32)21(33)24(39-18)37-13-5-14(30)19-15(31)7-16(38-17(19)6-13)11-1-3-12(29)4-2-11/h1-7,18,20-25,27-30,32-35H,8-10H2/t18-,20-,21-,22-,23+,24-,25?,26-/m1/s1" "InChIKey=FDRBRRBUPLHXEM-PUVROTEMSA-N" "molecular formula=C26H28O14" "total exact mass=564.147905576" "SMILES=C1C(C(C(O1)OC2C(C(C(OC2OC3=CC(=C4C(=C3)OC(=CC4=O)C5=CC=C(C=C5)O)O)CO)O)O)O)(CO)O" "InChI=InChI=1S/C26H28O14/c27-8-18-20(32)21(33)22(40-25-23(34)26(35,9-28)10-36-25)24(39-18)37-13-5-14(30)19-15(31)7-16(38-17(19)6-13)11-1-3-12(29)4-2-11/h1-7,18,20-25,27-30,32-35H,8-10H2" "InChIKey=NTDLXWMIWOECHG-UHFFFAOYSA-N"
Num Peaks: 5
 268 4.504505; 
 269 100.000000; 
 270 15.215215; 
 271 4.304304; 
 563 9.709710; 


Name: Apiin
SYNON: $:00in-source
DB#: MetaboBASE0830
InChIKey: FDRBRRBUPLHXEM-PUVROTEMSA-N
Precursor_type: [M-H]-
Spectrum_type: MS2
PrecursorMZ: 563.1
Instrument_type: LC-ESI-TOF
Instrument: impact HD
Ion_mode: N
Collision_energy: 50
InChIKey: FDRBRRBUPLHXEM-PUVROTEMSA-N
Formula: C26H28O14
MW: 564
ExactMass: 564.147905576
Comments: "license=License CC-BY-NC-SA 4.0 International" "author=Plant Biology, The Noble Foundation, Ardmore, OK, US/Dennis Fine, Daniel Wherritt, and Lloyd Sumner" "instrument type=LC-ESI-TOF" "instrument=impact HD" "ionization=ESI" "ionization mode=negative" "ms level=MS2" "precursor m/z=563.1" "isolation width=5" "collision gas=Nitrogen" "collision energy=50" "peak width=0.012" "date=2014-01-08 04:03:27+01:00" "column=Waters Acquity BEH C18 1.7um x 2.1 x 150 mm" "retention time=387.6" "raw data file=C:\Data\Confirmed Standards\Confirmed stds MSMS 7Jan14\Apiin (vial 321)_MSMS.d" "precursor type=[M-H]-" "mass accuracy=72.15339371319682" "mass error=-0.040629575999901135" "cas number=26544-34-3" "SMILES=c1cc(ccc1c2cc(=O)c3c(cc(cc3o2)O[C@H]4[C@@H]([C@H]([C@@H]([C@H](O4)CO)OC5[C@@H]([C@](CO5)(CO)O)O)O)O)O)O" "InChI=InChI=1S/C26H28O14/c27-8-18-22(40-25-23(34)26(35,9-28)10-36-25)20(32)21(33)24(39-18)37-13-5-14(30)19-15(31)7-16(38-17(19)6-13)11-1-3-12(29)4-2-11/h1-7,18,20-25,27-30,32-35H,8-10H2/t18-,20-,21-,22-,23+,24-,25?,26-/m1/s1" "InChIKey=FDRBRRBUPLHXEM-PUVROTEMSA-N" "molecular formula=C26H28O14" "total exact mass=564.147905576" "SMILES=C1C(C(C(O1)OC2C(C(C(OC2OC3=CC(=C4C(=C3)OC(=CC4=O)C5=CC=C(C=C5)O)O)CO)O)O)O)(CO)O" "InChI=InChI=1S/C26H28O14/c27-8-18-20(32)21(33)22(40-25-23(34)26(35,9-28)10-36-25)24(39-18)37-13-5-14(30)19-15(31)7-16(38-17(19)6-13)11-1-3-12(29)4-2-11/h1-7,18,20-25,27-30,32-35H,8-10H2" "InChIKey=NTDLXWMIWOECHG-UHFFFAOYSA-N"
Num Peaks: 4
 268 8.008008; 
 269 100.000000; 
 270 17.517518; 
 271 3.003003; 


Name: Daidzin
SYNON: $:00in-source
DB#: MetaboBASE0831
InChIKey: KYQZWONCHDNPDP-QNDFHXLGSA-N
Precursor_type: [M+FA-H]-
Spectrum_type: MS2
PrecursorMZ: 461.1
Instrument_type: LC-ESI-TOF
Instrument: impact HD
Ion_mode: N
Collision_energy: 30
InChIKey: KYQZWONCHDNPDP-QNDFHXLGSA-N
Formula: C21H20O9
MW: 416
ExactMass: 416.11073222
Comments: "license=License CC-BY-NC-SA 4.0 International" "author=Plant Biology, The Noble Foundation, Ardmore, OK, US/Dennis Fine, Daniel Wherritt, and Lloyd Sumner" "instrument type=LC-ESI-TOF" "instrument=impact HD" "ionization=ESI" "ionization mode=negative" "ms level=MS2" "precursor m/z=461.1" "isolation width=5" "collision gas=Nitrogen" "collision energy=30" "peak width=0.017" "date=2014-01-08 05:24:55+01:00" "column=Waters Acquity BEH C18 1.7um x 2.1 x 150 mm" "retention time=245.4" "raw data file=C:\Data\Confirmed Standards\Confirmed stds MSMS 7Jan14\Daidzin (vial 323)_MSMS.d" "precursor type=[M+FA-H]-" "mass accuracy=19.373715029191775" "mass error=-0.008933219999960329" "cas number=552-66-9" "SMILES=c1cc(ccc1c2coc3cc(ccc3c2=O)O[C@H]4[C@@H]([C@H]([C@@H]([C@H](O4)CO)O)O)O)O" "InChI=InChI=1S/C21H20O9/c22-8-16-18(25)19(26)20(27)21(30-16)29-12-5-6-13-15(7-12)28-9-14(17(13)24)10-1-3-11(23)4-2-10/h1-7,9,16,18-23,25-27H,8H2/t16-,18-,19+,20-,21-/m1/s1" "InChIKey=KYQZWONCHDNPDP-QNDFHXLGSA-N" "molecular formula=C21H20O9" "total exact mass=416.11073222" "SMILES=C1=CC(=CC=C1C2=COC3=C(C2=O)C=CC(=C3)OC4C(C(C(C(O4)CO)O)O)O)O" "InChI=InChI=1S/C21H20O9/c22-8-16-18(25)19(26)20(27)21(30-16)29-12-5-6-13-15(7-12)28-9-14(17(13)24)10-1-3-11(23)4-2-10/h1-7,9,16,18-23,25-27H,8H2" "InChIKey=KYQZWONCHDNPDP-UHFFFAOYSA-N"
Num Peaks: 7
 224 3.003003; 
 252 25.525526; 
 253 100.000000; 
 254 10.310310; 
 255 5.105105; 
 415 19.619620; 
 416 6.106106; 


Name: Daidzin
SYNON: $:00in-source
DB#: MetaboBASE0832
InChIKey: KYQZWONCHDNPDP-QNDFHXLGSA-N
Precursor_type: [M+FA-H]-
Spectrum_type: MS2
PrecursorMZ: 461.1
Instrument_type: LC-ESI-TOF
Instrument: impact HD
Ion_mode: N
Collision_energy: 50
InChIKey: KYQZWONCHDNPDP-QNDFHXLGSA-N
Formula: C21H20O9
MW: 416
ExactMass: 416.11073222
Comments: "license=License CC-BY-NC-SA 4.0 International" "author=Plant Biology, The Noble Foundation, Ardmore, OK, US/Dennis Fine, Daniel Wherritt, and Lloyd Sumner" "instrument type=LC-ESI-TOF" "instrument=impact HD" "ionization=ESI" "ionization mode=negative" "ms level=MS2" "precursor m/z=461.1" "isolation width=5" "collision gas=Nitrogen" "collision energy=50" "peak width=0.019" "date=2014-01-08 05:24:55+01:00" "column=Waters Acquity BEH C18 1.7um x 2.1 x 150 mm" "retention time=245.4" "raw data file=C:\Data\Confirmed Standards\Confirmed stds MSMS 7Jan14\Daidzin (vial 323)_MSMS.d" "precursor type=[M+FA-H]-" "mass accuracy=19.373715029191775" "mass error=-0.008933219999960329" "cas number=552-66-9" "SMILES=c1cc(ccc1c2coc3cc(ccc3c2=O)O[C@H]4[C@@H]([C@H]([C@@H]([C@H](O4)CO)O)O)O)O" "InChI=InChI=1S/C21H20O9/c22-8-16-18(25)19(26)20(27)21(30-16)29-12-5-6-13-15(7-12)28-9-14(17(13)24)10-1-3-11(23)4-2-10/h1-7,9,16,18-23,25-27H,8H2/t16-,18-,19+,20-,21-/m1/s1" "InChIKey=KYQZWONCHDNPDP-QNDFHXLGSA-N" "molecular formula=C21H20O9" "total exact mass=416.11073222" "SMILES=C1=CC(=CC=C1C2=COC3=C(C2=O)C=CC(=C3)OC4C(C(C(C(O4)CO)O)O)O)O" "InChI=InChI=1S/C21H20O9/c22-8-16-18(25)19(26)20(27)21(30-16)29-12-5-6-13-15(7-12)28-9-14(17(13)24)10-1-3-11(23)4-2-10/h1-7,9,16,18-23,25-27H,8H2" "InChIKey=KYQZWONCHDNPDP-UHFFFAOYSA-N"
Num Peaks: 6
 223 18.718719; 
 224 10.410410; 
 251 4.904905; 
 252 93.293293; 
 253 100.000000; 
 254 10.910911; 


Name: Daidzin
SYNON: $:00in-source
DB#: MetaboBASE0833
InChIKey: KYQZWONCHDNPDP-QNDFHXLGSA-N
Instrument_type: LC-ESI-TOF
Instrument: impact HD
Ion_mode: N
InChIKey: KYQZWONCHDNPDP-QNDFHXLGSA-N
Formula: C21H20O9
MW: 416
ExactMass: 416.11073222
Comments: "license=License CC-BY-NC-SA 4.0 International" "author=Plant Biology, The Noble Foundation, Ardmore, OK, US/Dennis Fine, Daniel Wherritt, and Lloyd Sumner" "instrument type=LC-ESI-TOF" "instrument=impact HD" "ionization=ESI" "ionization mode=negative" "collision gas=Nitrogen" "peak width=0.014" "date=2014-01-08 05:24:55+01:00" "column=Waters Acquity BEH C18 1.7um x 2.1 x 150 mm" "retention time=245.4" "raw data file=C:\Data\Confirmed Standards\Confirmed stds MSMS 7Jan14\Daidzin (vial 323)_MSMS.d" "cas number=552-66-9" "SMILES=c1cc(ccc1c2coc3cc(ccc3c2=O)O[C@H]4[C@@H]([C@H]([C@@H]([C@H](O4)CO)O)O)O)O" "InChI=InChI=1S/C21H20O9/c22-8-16-18(25)19(26)20(27)21(30-16)29-12-5-6-13-15(7-12)28-9-14(17(13)24)10-1-3-11(23)4-2-10/h1-7,9,16,18-23,25-27H,8H2/t16-,18-,19+,20-,21-/m1/s1" "InChIKey=KYQZWONCHDNPDP-QNDFHXLGSA-N" "molecular formula=C21H20O9" "total exact mass=416.11073222" "SMILES=C1=CC(=CC=C1C2=COC3=C(C2=O)C=CC(=C3)OC4C(C(C(C(O4)CO)O)O)O)O" "InChI=InChI=1S/C21H20O9/c22-8-16-18(25)19(26)20(27)21(30-16)29-12-5-6-13-15(7-12)28-9-14(17(13)24)10-1-3-11(23)4-2-10/h1-7,9,16,18-23,25-27H,8H2" "InChIKey=KYQZWONCHDNPDP-UHFFFAOYSA-N"
Num Peaks: 21
 112 0.700701; 
 116 0.900901; 
 174 0.500501; 
 180 0.600601; 
 242 0.600601; 
 253 5.005005; 
 254 1.001001; 
 415 3.703704; 
 416 0.800801; 
 451 0.900901; 
 461 100.000000; 
 462 18.718719; 
 463 3.703704; 
 529 1.701702; 
 530 0.600601; 
 560 1.301301; 
 666 1.301301; 
 831 0.800801; 
 877 3.903904; 
 878 2.502503; 
 879 0.600601; 


Name: Daidzin
SYNON: $:00in-source
DB#: MetaboBASE0834
InChIKey: KYQZWONCHDNPDP-QNDFHXLGSA-N
Precursor_type: [M+FA-H]-
Spectrum_type: MS2
PrecursorMZ: 461.1
Instrument_type: LC-ESI-TOF
Instrument: impact HD
Ion_mode: N
Collision_energy: 20
InChIKey: KYQZWONCHDNPDP-QNDFHXLGSA-N
Formula: C21H20O9
MW: 416
ExactMass: 416.11073222
Comments: "license=License CC-BY-NC-SA 4.0 International" "author=Plant Biology, The Noble Foundation, Ardmore, OK, US/Dennis Fine, Daniel Wherritt, and Lloyd Sumner" "instrument type=LC-ESI-TOF" "instrument=impact HD" "ionization=ESI" "ionization mode=negative" "ms level=MS2" "precursor m/z=461.1" "isolation width=5" "collision gas=Nitrogen" "collision energy=20" "peak width=0.015" "date=2014-01-08 05:24:55+01:00" "column=Waters Acquity BEH C18 1.7um x 2.1 x 150 mm" "retention time=245.4" "raw data file=C:\Data\Confirmed Standards\Confirmed stds MSMS 7Jan14\Daidzin (vial 323)_MSMS.d" "precursor type=[M+FA-H]-" "mass accuracy=19.373715029191775" "mass error=-0.008933219999960329" "cas number=552-66-9" "SMILES=c1cc(ccc1c2coc3cc(ccc3c2=O)O[C@H]4[C@@H]([C@H]([C@@H]([C@H](O4)CO)O)O)O)O" "InChI=InChI=1S/C21H20O9/c22-8-16-18(25)19(26)20(27)21(30-16)29-12-5-6-13-15(7-12)28-9-14(17(13)24)10-1-3-11(23)4-2-10/h1-7,9,16,18-23,25-27H,8H2/t16-,18-,19+,20-,21-/m1/s1" "InChIKey=KYQZWONCHDNPDP-QNDFHXLGSA-N" "molecular formula=C21H20O9" "total exact mass=416.11073222" "SMILES=C1=CC(=CC=C1C2=COC3=C(C2=O)C=CC(=C3)OC4C(C(C(C(O4)CO)O)O)O)O" "InChI=InChI=1S/C21H20O9/c22-8-16-18(25)19(26)20(27)21(30-16)29-12-5-6-13-15(7-12)28-9-14(17(13)24)10-1-3-11(23)4-2-10/h1-7,9,16,18-23,25-27H,8H2" "InChIKey=KYQZWONCHDNPDP-UHFFFAOYSA-N"
Num Peaks: 6
 252 2.802803; 
 253 100.000000; 
 254 16.916917; 
 269 1.901902; 
 415 40.840841; 
 416 5.805806; 


Name: Daidzin
SYNON: $:00in-source
DB#: MetaboBASE0835
InChIKey: KYQZWONCHDNPDP-QNDFHXLGSA-N
Precursor_type: [M+FA-H]-
Spectrum_type: MS2
PrecursorMZ: 461.1144
Instrument_type: LC-ESI-TOF
Instrument: impact HD
Ion_mode: N
Collision_energy: 10
InChIKey: KYQZWONCHDNPDP-QNDFHXLGSA-N
Formula: C21H20O9
MW: 416
ExactMass: 416.11073222
Comments: "license=License CC-BY-NC-SA 4.0 International" "author=Plant Biology, The Noble Foundation, Ardmore, OK, US/Dennis Fine, Daniel Wherritt, and Lloyd Sumner" "instrument type=LC-ESI-TOF" "instrument=impact HD" "ionization=ESI" "ionization mode=negative" "ms level=MS2" "precursor m/z=461.1144" "isolation width=5" "collision gas=Nitrogen" "collision energy=10" "peak width=0.014" "date=2014-01-08 05:24:55+01:00" "column=Waters Acquity BEH C18 1.7um x 2.1 x 150 mm" "retention time=245.4" "raw data file=C:\Data\Confirmed Standards\Confirmed stds MSMS 7Jan14\Daidzin (vial 323)_MSMS.d" "precursor type=[M+FA-H]-" "mass accuracy=11.855582909590572" "mass error=0.005466780000006111" "cas number=552-66-9" "SMILES=c1cc(ccc1c2coc3cc(ccc3c2=O)O[C@H]4[C@@H]([C@H]([C@@H]([C@H](O4)CO)O)O)O)O" "InChI=InChI=1S/C21H20O9/c22-8-16-18(25)19(26)20(27)21(30-16)29-12-5-6-13-15(7-12)28-9-14(17(13)24)10-1-3-11(23)4-2-10/h1-7,9,16,18-23,25-27H,8H2/t16-,18-,19+,20-,21-/m1/s1" "InChIKey=KYQZWONCHDNPDP-QNDFHXLGSA-N" "molecular formula=C21H20O9" "total exact mass=416.11073222" "SMILES=C1=CC(=CC=C1C2=COC3=C(C2=O)C=CC(=C3)OC4C(C(C(C(O4)CO)O)O)O)O" "InChI=InChI=1S/C21H20O9/c22-8-16-18(25)19(26)20(27)21(30-16)29-12-5-6-13-15(7-12)28-9-14(17(13)24)10-1-3-11(23)4-2-10/h1-7,9,16,18-23,25-27H,8H2" "InChIKey=KYQZWONCHDNPDP-UHFFFAOYSA-N"
Num Peaks: 10
 252 1.501502; 
 253 100.000000; 
 254 13.813814; 
 255 3.003003; 
 415 37.437437; 
 416 4.104104; 
 417 1.901902; 
 461 51.151151; 
 462 10.110110; 
 463 1.601602; 


Name: Daidzin
SYNON: $:00in-source
DB#: MetaboBASE0836
InChIKey: KYQZWONCHDNPDP-QNDFHXLGSA-N
Precursor_type: [M+FA-H]-
Spectrum_type: MS2
PrecursorMZ: 461.1
Instrument_type: LC-ESI-TOF
Instrument: impact HD
Ion_mode: N
Collision_energy: 40
InChIKey: KYQZWONCHDNPDP-QNDFHXLGSA-N
Formula: C21H20O9
MW: 416
ExactMass: 416.11073222
Comments: "license=License CC-BY-NC-SA 4.0 International" "author=Plant Biology, The Noble Foundation, Ardmore, OK, US/Dennis Fine, Daniel Wherritt, and Lloyd Sumner" "instrument type=LC-ESI-TOF" "instrument=impact HD" "ionization=ESI" "ionization mode=negative" "ms level=MS2" "precursor m/z=461.1" "isolation width=5" "collision gas=Nitrogen" "collision energy=40" "peak width=0.014" "date=2014-01-08 05:24:55+01:00" "column=Waters Acquity BEH C18 1.7um x 2.1 x 150 mm" "retention time=245.4" "raw data file=C:\Data\Confirmed Standards\Confirmed stds MSMS 7Jan14\Daidzin (vial 323)_MSMS.d" "precursor type=[M+FA-H]-" "mass accuracy=19.373715029191775" "mass error=-0.008933219999960329" "cas number=552-66-9" "SMILES=c1cc(ccc1c2coc3cc(ccc3c2=O)O[C@H]4[C@@H]([C@H]([C@@H]([C@H](O4)CO)O)O)O)O" "InChI=InChI=1S/C21H20O9/c22-8-16-18(25)19(26)20(27)21(30-16)29-12-5-6-13-15(7-12)28-9-14(17(13)24)10-1-3-11(23)4-2-10/h1-7,9,16,18-23,25-27H,8H2/t16-,18-,19+,20-,21-/m1/s1" "InChIKey=KYQZWONCHDNPDP-QNDFHXLGSA-N" "molecular formula=C21H20O9" "total exact mass=416.11073222" "SMILES=C1=CC(=CC=C1C2=COC3=C(C2=O)C=CC(=C3)OC4C(C(C(C(O4)CO)O)O)O)O" "InChI=InChI=1S/C21H20O9/c22-8-16-18(25)19(26)20(27)21(30-16)29-12-5-6-13-15(7-12)28-9-14(17(13)24)10-1-3-11(23)4-2-10/h1-7,9,16,18-23,25-27H,8H2" "InChIKey=KYQZWONCHDNPDP-UHFFFAOYSA-N"
Num Peaks: 8
 223 5.905906; 
 224 3.903904; 
 252 82.582583; 
 253 100.000000; 
 254 12.012012; 
 255 3.903904; 
 415 8.708709; 
 416 2.702703; 


Name: Madecassic acid
SYNON: $:00in-source
DB#: MetaboBASE0837
InChIKey: PRAUVHZJPXOEIF-AOLYGAPISA-N
Instrument_type: LC-ESI-TOF
Instrument: impact HD
Ion_mode: N
InChIKey: PRAUVHZJPXOEIF-AOLYGAPISA-N
Formula: C30H48O6
MW: 504
ExactMass: 504.345089256
Comments: "license=License CC-BY-NC-SA 4.0 International" "author=Plant Biology, The Noble Foundation, Ardmore, OK, US/Dennis Fine, Daniel Wherritt, and Lloyd Sumner" "instrument type=LC-ESI-TOF" "instrument=impact HD" "ionization=ESI" "ionization mode=negative" "collision gas=Nitrogen" "peak width=0.013" "date=2014-01-08 09:29:28+01:00" "column=Waters Acquity BEH C18 1.7um x 2.1 x 150 mm" "retention time=947.4" "raw data file=C:\Data\Confirmed Standards\Confirmed stds MSMS 7Jan14\Madecassic acid _MSMS.d" "cas number=125265-67-0" "SMILES=C[C@@H]1CC[C@@]2(CC[C@@]3(C(=CC[C@H]4[C@]3(C[C@H]([C@@H]5[C@@]4(C[C@H]([C@@H]([C@@]5(C)CO)O)O)C)O)C)[C@@H]2[C@H]1C)C)C(=O)O" "InChI=InChI=1S/C30H48O6/c1-16-9-10-30(25(35)36)12-11-28(5)18(22(30)17(16)2)7-8-21-26(3)13-20(33)24(34)27(4,15-31)23(26)19(32)14-29(21,28)6/h7,16-17,19-24,31-34H,8-15H2,1-6H3,(H,35,36)/t16-,17+,19-,20-,21-,22+,23-,24+,26-,27+,28-,29-,30+/m1/s1" "InChIKey=PRAUVHZJPXOEIF-AOLYGAPISA-N" "molecular formula=C30H48O6" "total exact mass=504.345089256" "SMILES=CC1CCC2(CCC3(C(=CCC4C3(CC(C5C4(CC(C(C5(C)CO)O)O)C)O)C)C2C1C)C)C(=O)O" "InChI=InChI=1S/C30H48O6/c1-16-9-10-30(25(35)36)12-11-28(5)18(22(30)17(16)2)7-8-21-26(3)13-20(33)24(34)27(4,15-31)23(26)19(32)14-29(21,28)6/h7,16-17,19-24,31-34H,8-15H2,1-6H3,(H,35,36)" "InChIKey=PRAUVHZJPXOEIF-UHFFFAOYSA-N"
Num Peaks: 18
 116 1.301301; 
 503 56.956957; 
 504 14.814815; 
 505 2.602603; 
 539 1.201201; 
 549 100.000000; 
 550 27.927928; 
 551 4.304304; 
 571 8.008008; 
 572 2.202202; 
 599 2.802803; 
 639 2.302302; 
 666 1.301301; 
 1007 15.515516; 
 1008 8.808809; 
 1009 2.402402; 
 1029 1.401401; 
 1030 1.101101; 


Name: Madecassic acid
SYNON: $:00in-source
DB#: MetaboBASE0838
InChIKey: PRAUVHZJPXOEIF-AOLYGAPISA-N
Precursor_type: [M+FA-H]-
Spectrum_type: MS2
PrecursorMZ: 549.4
Instrument_type: LC-ESI-TOF
Instrument: impact HD
Ion_mode: N
Collision_energy: 30
InChIKey: PRAUVHZJPXOEIF-AOLYGAPISA-N
Formula: C30H48O6
MW: 504
ExactMass: 504.345089256
Comments: "license=License CC-BY-NC-SA 4.0 International" "author=Plant Biology, The Noble Foundation, Ardmore, OK, US/Dennis Fine, Daniel Wherritt, and Lloyd Sumner" "instrument type=LC-ESI-TOF" "instrument=impact HD" "ionization=ESI" "ionization mode=negative" "ms level=MS2" "precursor m/z=549.4" "isolation width=5" "collision gas=Nitrogen" "collision energy=30" "peak width=0.0093" "date=2014-01-08 09:29:28+01:00" "column=Waters Acquity BEH C18 1.7um x 2.1 x 150 mm" "retention time=947.4" "raw data file=C:\Data\Confirmed Standards\Confirmed stds MSMS 7Jan14\Madecassic acid _MSMS.d" "precursor type=[M+FA-H]-" "mass accuracy=103.22123043307528" "mass error=0.05670974399993156" "cas number=125265-67-0" "SMILES=C[C@@H]1CC[C@@]2(CC[C@@]3(C(=CC[C@H]4[C@]3(C[C@H]([C@@H]5[C@@]4(C[C@H]([C@@H]([C@@]5(C)CO)O)O)C)O)C)[C@@H]2[C@H]1C)C)C(=O)O" "InChI=InChI=1S/C30H48O6/c1-16-9-10-30(25(35)36)12-11-28(5)18(22(30)17(16)2)7-8-21-26(3)13-20(33)24(34)27(4,15-31)23(26)19(32)14-29(21,28)6/h7,16-17,19-24,31-34H,8-15H2,1-6H3,(H,35,36)/t16-,17+,19-,20-,21-,22+,23-,24+,26-,27+,28-,29-,30+/m1/s1" "InChIKey=PRAUVHZJPXOEIF-AOLYGAPISA-N" "molecular formula=C30H48O6" "total exact mass=504.345089256" "SMILES=CC1CCC2(CCC3(C(=CCC4C3(CC(C5C4(CC(C(C5(C)CO)O)O)C)O)C)C2C1C)C)C(=O)O" "InChI=InChI=1S/C30H48O6/c1-16-9-10-30(25(35)36)12-11-28(5)18(22(30)17(16)2)7-8-21-26(3)13-20(33)24(34)27(4,15-31)23(26)19(32)14-29(21,28)6/h7,16-17,19-24,31-34H,8-15H2,1-6H3,(H,35,36)" "InChIKey=PRAUVHZJPXOEIF-UHFFFAOYSA-N"
Num Peaks: 4
 503 100.000000; 
 504 24.324324; 
 505 3.103103; 
 506 0.200200; 


Name: Madecassic acid
SYNON: $:00in-source
DB#: MetaboBASE0839
InChIKey: PRAUVHZJPXOEIF-AOLYGAPISA-N
Precursor_type: [M+FA-H]-
Spectrum_type: MS2
PrecursorMZ: 549.4
Instrument_type: LC-ESI-TOF
Instrument: impact HD
Ion_mode: N
Collision_energy: 20
InChIKey: PRAUVHZJPXOEIF-AOLYGAPISA-N
Formula: C30H48O6
MW: 504
ExactMass: 504.34508925599994
Comments: "license=License CC-BY-NC-SA 4.0 International" "author=Plant Biology, The Noble Foundation, Ardmore, OK, US/Dennis Fine, Daniel Wherritt, and Lloyd Sumner" "instrument type=LC-ESI-TOF" "instrument=impact HD" "ionization=ESI" "ionization mode=negative" "ms level=MS2" "precursor m/z=549.4" "isolation width=5" "collision gas=Nitrogen" "collision energy=20" "peak width=0.0096" "date=2014-01-08 09:29:28+01:00" "column=Waters Acquity BEH C18 1.7um x 2.1 x 150 mm" "retention time=947.4" "raw data file=C:\Data\Confirmed Standards\Confirmed stds MSMS 7Jan14\Madecassic acid _MSMS.d" "precursor type=[M+FA-H]-" "mass accuracy=103.22123043328222" "mass error=0.05670974400004525" "cas number=125265-67-0" "SMILES=C[C@@H]1CC[C@@]2(CC[C@@]3(C(=CC[C@H]4[C@]3(C[C@H]([C@@H]5[C@@]4(C[C@H]([C@@H]([C@@]5(C)CO)O)O)C)O)C)[C@@H]2[C@H]1C)C)C(=O)O" "InChI=InChI=1S/C30H48O6/c1-16-9-10-30(25(35)36)12-11-28(5)18(22(30)17(16)2)7-8-21-26(3)13-20(33)24(34)27(4,15-31)23(26)19(32)14-29(21,28)6/h7,16-17,19-24,31-34H,8-15H2,1-6H3,(H,35,36)/t16-,17+,19-,20-,21-,22+,23-,24+,26-,27+,28-,29-,30+/m1/s1" "InChIKey=PRAUVHZJPXOEIF-AOLYGAPISA-N" "molecular formula=C30H48O6" "total exact mass=504.34508925599994" "SMILES=CC1CCC2(CCC3(C(=CCC4C3(CC(C5C4(CC(C(C5(C)CO)O)O)C)O)C)C2C1C)C)C(=O)O" "InChI=InChI=1S/C30H48O6/c1-16-9-10-30(25(35)36)12-11-28(5)18(22(30)17(16)2)7-8-21-26(3)13-20(33)24(34)27(4,15-31)23(26)19(32)14-29(21,28)6/h7,16-17,19-24,31-34H,8-15H2,1-6H3,(H,35,36)" "InChIKey=PRAUVHZJPXOEIF-UHFFFAOYSA-N"
Num Peaks: 4
 503 100.000000; 
 504 22.922923; 
 505 2.902903; 
 506 0.300300; 


Name: Madecassic acid
SYNON: $:00in-source
DB#: MetaboBASE0840
InChIKey: PRAUVHZJPXOEIF-AOLYGAPISA-N
Precursor_type: [M+FA-H]-
Spectrum_type: MS2
PrecursorMZ: 549.3506
Instrument_type: LC-ESI-TOF
Instrument: impact HD
Ion_mode: N
Collision_energy: 10
InChIKey: PRAUVHZJPXOEIF-AOLYGAPISA-N
Formula: C30H48O6
MW: 504
ExactMass: 504.345089256
Comments: "license=License CC-BY-NC-SA 4.0 International" "author=Plant Biology, The Noble Foundation, Ardmore, OK, US/Dennis Fine, Daniel Wherritt, and Lloyd Sumner" "instrument type=LC-ESI-TOF" "instrument=impact HD" "ionization=ESI" "ionization mode=negative" "ms level=MS2" "precursor m/z=549.3506" "isolation width=5" "collision gas=Nitrogen" "collision energy=10" "peak width=0.011" "date=2014-01-08 09:29:28+01:00" "column=Waters Acquity BEH C18 1.7um x 2.1 x 150 mm" "retention time=947.4" "raw data file=C:\Data\Confirmed Standards\Confirmed stds MSMS 7Jan14\Madecassic acid _MSMS.d" "precursor type=[M+FA-H]-" "mass accuracy=13.306154575857587" "mass error=0.00730974399994011" "cas number=125265-67-0" "SMILES=C[C@@H]1CC[C@@]2(CC[C@@]3(C(=CC[C@H]4[C@]3(C[C@H]([C@@H]5[C@@]4(C[C@H]([C@@H]([C@@]5(C)CO)O)O)C)O)C)[C@@H]2[C@H]1C)C)C(=O)O" "InChI=InChI=1S/C30H48O6/c1-16-9-10-30(25(35)36)12-11-28(5)18(22(30)17(16)2)7-8-21-26(3)13-20(33)24(34)27(4,15-31)23(26)19(32)14-29(21,28)6/h7,16-17,19-24,31-34H,8-15H2,1-6H3,(H,35,36)/t16-,17+,19-,20-,21-,22+,23-,24+,26-,27+,28-,29-,30+/m1/s1" "InChIKey=PRAUVHZJPXOEIF-AOLYGAPISA-N" "molecular formula=C30H48O6" "total exact mass=504.345089256" "SMILES=CC1CCC2(CCC3(C(=CCC4C3(CC(C5C4(CC(C(C5(C)CO)O)O)C)O)C)C2C1C)C)C(=O)O" "InChI=InChI=1S/C30H48O6/c1-16-9-10-30(25(35)36)12-11-28(5)18(22(30)17(16)2)7-8-21-26(3)13-20(33)24(34)27(4,15-31)23(26)19(32)14-29(21,28)6/h7,16-17,19-24,31-34H,8-15H2,1-6H3,(H,35,36)" "InChIKey=PRAUVHZJPXOEIF-UHFFFAOYSA-N"
Num Peaks: 7
 503 0.300300; 
 503 100.000000; 
 504 25.825826; 
 505 2.502503; 
 549 22.722723; 
 550 4.904905; 
 551 0.700701; 


Name: Kaempferol-7-O-glucoside
SYNON: $:00in-source
DB#: MetaboBASE0841
InChIKey: YPWHZCPMOQGCDQ-HMGRVEAOSA-N
Instrument_type: LC-ESI-TOF
Instrument: impact HD
Ion_mode: N
InChIKey: YPWHZCPMOQGCDQ-HMGRVEAOSA-N
Formula: C21H19O11
MW: 447
ExactMass: 447.09328500790923
Comments: "license=License CC-BY-NC-SA 4.0 International" "author=Plant Biology, The Noble Foundation, Ardmore, OK, US/Dennis Fine, Daniel Wherritt, and Lloyd Sumner" "instrument type=LC-ESI-TOF" "instrument=impact HD" "ionization=ESI" "ionization mode=negative" "collision gas=Nitrogen" "peak width=0.014" "date=2014-01-08 03:22:41+01:00" "column=Waters Acquity BEH C18 1.7um x 2.1 x 150 mm" "retention time=377.4" "raw data file=C:\Data\Confirmed Standards\Confirmed stds MSMS 7Jan14\Kaempferol-7-O-glucoside_MSMS.d" "cas number=16290-07-6" "SMILES=C1=CC(=CC=C1C2=C(C(=O)C3=C(C=C(C=C3O2)O[C@H]4[C@@H]([C@H]([C@@H]([C@H](O4)CO)O)O)O)O)O)O" "InChI=InChI=1S/C21H20O11/c22-7-13-15(25)17(27)19(29)21(32-13)30-10-5-11(24)14-12(6-10)31-20(18(28)16(14)26)8-1-3-9(23)4-2-8/h1-6,13,15,17,19,21-25,27-29H,7H2/t13-,15-,17+,19-,21-/m1/s1" "InChIKey=YPWHZCPMOQGCDQ-HMGRVEAOSA-N" "molecular formula=C21H19O11" "total exact mass=447.09328500790923" "SMILES=C1=CC(=CC=C1C2=C(C(=O)C3=C(C=C(C=C3O2)OC4C(C(C(C(O4)CO)O)O)O)O)[O-])O" "InChI=InChI=1S/C21H20O11/c22-7-13-15(25)17(27)19(29)21(32-13)30-10-5-11(24)14-12(6-10)31-20(18(28)16(14)26)8-1-3-9(23)4-2-8/h1-6,13,15,17,19,21-25,27-29H,7H2/p-1" "InChIKey=YPWHZCPMOQGCDQ-UHFFFAOYSA-M"
Num Peaks: 20
 301 1.901902; 
 447 100.000000; 
 448 16.716717; 
 449 2.602603; 
 463 17.217217; 
 464 3.503504; 
 493 1.301301; 
 515 3.203203; 
 592 0.900901; 
 666 1.601602; 
 671 3.103103; 
 671 2.902903; 
 672 1.201201; 
 895 13.413413; 
 895 2.302302; 
 896 5.205205; 
 897 1.201201; 
 911 1.001001; 
 1119 1.101101; 
 1119 1.501502; 


Name: Kaempferol-7-O-glucoside
SYNON: $:00in-source
DB#: MetaboBASE0842
InChIKey: YPWHZCPMOQGCDQ-HMGRVEAOSA-N
Precursor_type: [M]-
Spectrum_type: MS2
PrecursorMZ: 447.0926
Instrument_type: LC-ESI-TOF
Instrument: impact HD
Ion_mode: N
Collision_energy: 20
InChIKey: YPWHZCPMOQGCDQ-HMGRVEAOSA-N
Formula: C21H19O11
MW: 447
ExactMass: 447.0932850079093
Comments: "license=License CC-BY-NC-SA 4.0 International" "author=Plant Biology, The Noble Foundation, Ardmore, OK, US/Dennis Fine, Daniel Wherritt, and Lloyd Sumner" "instrument type=LC-ESI-TOF" "instrument=impact HD" "ionization=ESI" "ionization mode=negative" "ms level=MS2" "precursor m/z=447.0926" "isolation width=5" "collision gas=Nitrogen" "collision energy=20" "peak width=0.016" "date=2014-01-08 03:22:41+01:00" "column=Waters Acquity BEH C18 1.7um x 2.1 x 150 mm" "retention time=377.4" "raw data file=C:\Data\Confirmed Standards\Confirmed stds MSMS 7Jan14\Kaempferol-7-O-glucoside_MSMS.d" "precursor type=[M]-" "mass accuracy=0.30514483990199187" "mass error=-1.364279998483653E-4" "cas number=16290-07-6" "SMILES=C1=CC(=CC=C1C2=C(C(=O)C3=C(C=C(C=C3O2)O[C@H]4[C@@H]([C@H]([C@@H]([C@H](O4)CO)O)O)O)O)O)O" "InChI=InChI=1S/C21H20O11/c22-7-13-15(25)17(27)19(29)21(32-13)30-10-5-11(24)14-12(6-10)31-20(18(28)16(14)26)8-1-3-9(23)4-2-8/h1-6,13,15,17,19,21-25,27-29H,7H2/t13-,15-,17+,19-,21-/m1/s1" "InChIKey=YPWHZCPMOQGCDQ-HMGRVEAOSA-N" "molecular formula=C21H19O11" "total exact mass=447.0932850079093" "SMILES=C1=CC(=CC=C1C2=C(C(=O)C3=C(C=C(C=C3O2)OC4C(C(C(C(O4)CO)O)O)O)O)[O-])O" "InChI=InChI=1S/C21H20O11/c22-7-13-15(25)17(27)19(29)21(32-13)30-10-5-11(24)14-12(6-10)31-20(18(28)16(14)26)8-1-3-9(23)4-2-8/h1-6,13,15,17,19,21-25,27-29H,7H2/p-1" "InChIKey=YPWHZCPMOQGCDQ-UHFFFAOYSA-M"
Num Peaks: 5
 284 9.509510; 
 285 41.741742; 
 286 5.305305; 
 447 100.000000; 
 448 19.519520; 


Name: Kaempferol-7-O-glucoside
SYNON: $:00in-source
DB#: MetaboBASE0843
InChIKey: YPWHZCPMOQGCDQ-HMGRVEAOSA-N
Precursor_type: [M]-
Spectrum_type: MS2
PrecursorMZ: 447.0934
Instrument_type: LC-ESI-TOF
Instrument: impact HD
Ion_mode: N
Collision_energy: 30
InChIKey: YPWHZCPMOQGCDQ-HMGRVEAOSA-N
Formula: C21H19O11
MW: 447
ExactMass: 447.0932850079093
Comments: "license=License CC-BY-NC-SA 4.0 International" "author=Plant Biology, The Noble Foundation, Ardmore, OK, US/Dennis Fine, Daniel Wherritt, and Lloyd Sumner" "instrument type=LC-ESI-TOF" "instrument=impact HD" "ionization=ESI" "ionization mode=negative" "ms level=MS2" "precursor m/z=447.0934" "isolation width=5" "collision gas=Nitrogen" "collision energy=30" "peak width=0.016" "date=2014-01-08 03:22:41+01:00" "column=Waters Acquity BEH C18 1.7um x 2.1 x 150 mm" "retention time=377.4" "raw data file=C:\Data\Confirmed Standards\Confirmed stds MSMS 7Jan14\Kaempferol-7-O-glucoside_MSMS.d" "precursor type=[M]-" "mass accuracy=1.4841909992886242" "mass error=6.635720001213485E-4" "cas number=16290-07-6" "SMILES=C1=CC(=CC=C1C2=C(C(=O)C3=C(C=C(C=C3O2)O[C@H]4[C@@H]([C@H]([C@@H]([C@H](O4)CO)O)O)O)O)O)O" "InChI=InChI=1S/C21H20O11/c22-7-13-15(25)17(27)19(29)21(32-13)30-10-5-11(24)14-12(6-10)31-20(18(28)16(14)26)8-1-3-9(23)4-2-8/h1-6,13,15,17,19,21-25,27-29H,7H2/t13-,15-,17+,19-,21-/m1/s1" "InChIKey=YPWHZCPMOQGCDQ-HMGRVEAOSA-N" "molecular formula=C21H19O11" "total exact mass=447.0932850079093" "SMILES=C1=CC(=CC=C1C2=C(C(=O)C3=C(C=C(C=C3O2)OC4C(C(C(C(O4)CO)O)O)O)O)[O-])O" "InChI=InChI=1S/C21H20O11/c22-7-13-15(25)17(27)19(29)21(32-13)30-10-5-11(24)14-12(6-10)31-20(18(28)16(14)26)8-1-3-9(23)4-2-8/h1-6,13,15,17,19,21-25,27-29H,7H2/p-1" "InChIKey=YPWHZCPMOQGCDQ-UHFFFAOYSA-M"
Num Peaks: 7
 151 5.005005; 
 257 12.512513; 
 284 44.844845; 
 285 100.000000; 
 286 15.615616; 
 447 24.324324; 
 448 6.206206; 


Name: Kaempferol-7-O-glucoside
SYNON: $:00in-source
DB#: MetaboBASE0844
InChIKey: YPWHZCPMOQGCDQ-HMGRVEAOSA-N
Precursor_type: [M]-
Spectrum_type: MS2
PrecursorMZ: 447.0921
Instrument_type: LC-ESI-TOF
Instrument: impact HD
Ion_mode: N
Collision_energy: 10
InChIKey: YPWHZCPMOQGCDQ-HMGRVEAOSA-N
Formula: C21H19O11
MW: 447
ExactMass: 447.0932850079093
Comments: "license=License CC-BY-NC-SA 4.0 International" "author=Plant Biology, The Noble Foundation, Ardmore, OK, US/Dennis Fine, Daniel Wherritt, and Lloyd Sumner" "instrument type=LC-ESI-TOF" "instrument=impact HD" "ionization=ESI" "ionization mode=negative" "ms level=MS2" "precursor m/z=447.0921" "isolation width=5" "collision gas=Nitrogen" "collision energy=10" "peak width=0.015" "date=2014-01-08 03:22:41+01:00" "column=Waters Acquity BEH C18 1.7um x 2.1 x 150 mm" "retention time=377.4" "raw data file=C:\Data\Confirmed Standards\Confirmed stds MSMS 7Jan14\Kaempferol-7-O-glucoside_MSMS.d" "precursor type=[M]-" "mass accuracy=1.4234829911701457" "mass error=-6.364279998365419E-4" "cas number=16290-07-6" "SMILES=C1=CC(=CC=C1C2=C(C(=O)C3=C(C=C(C=C3O2)O[C@H]4[C@@H]([C@H]([C@@H]([C@H](O4)CO)O)O)O)O)O)O" "InChI=InChI=1S/C21H20O11/c22-7-13-15(25)17(27)19(29)21(32-13)30-10-5-11(24)14-12(6-10)31-20(18(28)16(14)26)8-1-3-9(23)4-2-8/h1-6,13,15,17,19,21-25,27-29H,7H2/t13-,15-,17+,19-,21-/m1/s1" "InChIKey=YPWHZCPMOQGCDQ-HMGRVEAOSA-N" "molecular formula=C21H19O11" "total exact mass=447.0932850079093" "SMILES=C1=CC(=CC=C1C2=C(C(=O)C3=C(C=C(C=C3O2)OC4C(C(C(C(O4)CO)O)O)O)O)[O-])O" "InChI=InChI=1S/C21H20O11/c22-7-13-15(25)17(27)19(29)21(32-13)30-10-5-11(24)14-12(6-10)31-20(18(28)16(14)26)8-1-3-9(23)4-2-8/h1-6,13,15,17,19,21-25,27-29H,7H2/p-1" "InChIKey=YPWHZCPMOQGCDQ-UHFFFAOYSA-M"
Num Peaks: 2
 447 100.000000; 
 448 13.613614; 


Name: Kaempferol-7-O-glucoside
SYNON: $:00in-source
DB#: MetaboBASE0845
InChIKey: YPWHZCPMOQGCDQ-HMGRVEAOSA-N
Precursor_type: [M]-
Spectrum_type: MS2
PrecursorMZ: 447.1
Instrument_type: LC-ESI-TOF
Instrument: impact HD
Ion_mode: N
Collision_energy: 40
InChIKey: YPWHZCPMOQGCDQ-HMGRVEAOSA-N
Formula: C21H19O11
MW: 447
ExactMass: 447.0932850079093
Comments: "license=License CC-BY-NC-SA 4.0 International" "author=Plant Biology, The Noble Foundation, Ardmore, OK, US/Dennis Fine, Daniel Wherritt, and Lloyd Sumner" "instrument type=LC-ESI-TOF" "instrument=impact HD" "ionization=ESI" "ionization mode=negative" "ms level=MS2" "precursor m/z=447.1" "isolation width=5" "collision gas=Nitrogen" "collision energy=40" "peak width=0.017" "date=2014-01-08 03:22:41+01:00" "column=Waters Acquity BEH C18 1.7um x 2.1 x 150 mm" "retention time=377.4" "raw data file=C:\Data\Confirmed Standards\Confirmed stds MSMS 7Jan14\Kaempferol-7-O-glucoside_MSMS.d" "precursor type=[M]-" "mass accuracy=16.24596734549299" "mass error=0.0072635720001699156" "cas number=16290-07-6" "SMILES=C1=CC(=CC=C1C2=C(C(=O)C3=C(C=C(C=C3O2)O[C@H]4[C@@H]([C@H]([C@@H]([C@H](O4)CO)O)O)O)O)O)O" "InChI=InChI=1S/C21H20O11/c22-7-13-15(25)17(27)19(29)21(32-13)30-10-5-11(24)14-12(6-10)31-20(18(28)16(14)26)8-1-3-9(23)4-2-8/h1-6,13,15,17,19,21-25,27-29H,7H2/t13-,15-,17+,19-,21-/m1/s1" "InChIKey=YPWHZCPMOQGCDQ-HMGRVEAOSA-N" "molecular formula=C21H19O11" "total exact mass=447.0932850079093" "SMILES=C1=CC(=CC=C1C2=C(C(=O)C3=C(C=C(C=C3O2)OC4C(C(C(C(O4)CO)O)O)O)O)[O-])O" "InChI=InChI=1S/C21H20O11/c22-7-13-15(25)17(27)19(29)21(32-13)30-10-5-11(24)14-12(6-10)31-20(18(28)16(14)26)8-1-3-9(23)4-2-8/h1-6,13,15,17,19,21-25,27-29H,7H2/p-1" "InChIKey=YPWHZCPMOQGCDQ-UHFFFAOYSA-M"
Num Peaks: 6
 151 38.138138; 
 229 14.914915; 
 257 54.554555; 
 284 100.000000; 
 285 82.282282; 
 286 16.816817; 


Name: Kaempferol-7-O-glucoside
SYNON: $:00in-source
DB#: MetaboBASE0846
InChIKey: YPWHZCPMOQGCDQ-HMGRVEAOSA-N
Precursor_type: [M]-
Spectrum_type: MS2
PrecursorMZ: 447.1
Instrument_type: LC-ESI-TOF
Instrument: impact HD
Ion_mode: N
Collision_energy: 50
InChIKey: YPWHZCPMOQGCDQ-HMGRVEAOSA-N
Formula: C21H19O11
MW: 447
ExactMass: 447.0932850079093
Comments: "license=License CC-BY-NC-SA 4.0 International" "author=Plant Biology, The Noble Foundation, Ardmore, OK, US/Dennis Fine, Daniel Wherritt, and Lloyd Sumner" "instrument type=LC-ESI-TOF" "instrument=impact HD" "ionization=ESI" "ionization mode=negative" "ms level=MS2" "precursor m/z=447.1" "isolation width=5" "collision gas=Nitrogen" "collision energy=50" "peak width=0.016" "date=2014-01-08 03:22:41+01:00" "column=Waters Acquity BEH C18 1.7um x 2.1 x 150 mm" "retention time=377.4" "raw data file=C:\Data\Confirmed Standards\Confirmed stds MSMS 7Jan14\Kaempferol-7-O-glucoside_MSMS.d" "precursor type=[M]-" "mass accuracy=16.24596734549299" "mass error=0.0072635720001699156" "cas number=16290-07-6" "SMILES=C1=CC(=CC=C1C2=C(C(=O)C3=C(C=C(C=C3O2)O[C@H]4[C@@H]([C@H]([C@@H]([C@H](O4)CO)O)O)O)O)O)O" "InChI=InChI=1S/C21H20O11/c22-7-13-15(25)17(27)19(29)21(32-13)30-10-5-11(24)14-12(6-10)31-20(18(28)16(14)26)8-1-3-9(23)4-2-8/h1-6,13,15,17,19,21-25,27-29H,7H2/t13-,15-,17+,19-,21-/m1/s1" "InChIKey=YPWHZCPMOQGCDQ-HMGRVEAOSA-N" "molecular formula=C21H19O11" "total exact mass=447.0932850079093" "SMILES=C1=CC(=CC=C1C2=C(C(=O)C3=C(C=C(C=C3O2)OC4C(C(C(C(O4)CO)O)O)O)O)[O-])O" "InChI=InChI=1S/C21H20O11/c22-7-13-15(25)17(27)19(29)21(32-13)30-10-5-11(24)14-12(6-10)31-20(18(28)16(14)26)8-1-3-9(23)4-2-8/h1-6,13,15,17,19,21-25,27-29H,7H2/p-1" "InChIKey=YPWHZCPMOQGCDQ-UHFFFAOYSA-M"
Num Peaks: 6
 151 100.000000; 
 161 27.427427; 
 229 35.635636; 
 257 61.161161; 
 284 69.269269; 
 285 53.653654; 


Name: Silymarin 10.15 min
SYNON: $:00in-source
DB#: MetaboBASE0847
InChIKey: SEBFKMXJBCUCAI-WAABAYLZSA-N
Precursor_type: [M-H]-
Spectrum_type: MS2
PrecursorMZ: 481.115
Instrument_type: LC-ESI-TOF
Instrument: impact HD
Ion_mode: N
Collision_energy: 20
InChIKey: SEBFKMXJBCUCAI-WAABAYLZSA-N
Formula: C25H22O10
MW: 482
ExactMass: 482.121296904
Comments: "license=License CC-BY-NC-SA 4.0 International" "author=Plant Biology, The Noble Foundation, Ardmore, OK, US/Dennis Fine, Daniel Wherritt, and Lloyd Sumner" "instrument type=LC-ESI-TOF" "instrument=impact HD" "ionization=ESI" "ionization mode=negative" "ms level=MS2" "precursor m/z=481.115" "isolation width=5" "collision gas=Nitrogen" "collision energy=20" "peak width=0.011" "date=2014-01-08 02:01:07+01:00" "column=Waters Acquity BEH C18 1.7um x 2.1 x 150 mm" "retention time=609" "raw data file=C:\Data\Confirmed Standards\Confirmed stds MSMS 7Jan14\Silymarin (vial 311)_MSMS.d" "precursor type=[M-H]-" "mass accuracy=2.03505606763554" "mass error=9.790959999804727E-4" "cas number=65666-07-1" "SMILES=COc1cc(ccc1O)[C@H]2[C@@H](Oc3ccc(cc3O2)[C@@H]4[C@H](C(=O)c5c(cc(cc5O4)O)O)O)CO" "InChI=InChI=1S/C25H22O10/c1-32-17-6-11(2-4-14(17)28)24-20(10-26)33-16-5-3-12(7-18(16)34-24)25-23(31)22(30)21-15(29)8-13(27)9-19(21)35-25/h2-9,20,23-29,31H,10H2,1H3/t20-,23-,24-,25+/m0/s1" "InChIKey=SEBFKMXJBCUCAI-WAABAYLZSA-N" "molecular formula=C25H22O10" "total exact mass=482.121296904" "SMILES=COC1=C(C=CC(=C1)C2C(OC3=C(O2)C=C(C=C3)C4C(C(=O)C5=C(C=C(C=C5O4)O)O)O)CO)O" "InChI=InChI=1S/C25H22O10/c1-32-17-6-11(2-4-14(17)28)24-20(10-26)33-16-5-3-12(7-18(16)34-24)25-23(31)22(30)21-15(29)8-13(27)9-19(21)35-25/h2-9,20,23-29,31H,10H2,1H3" "InChIKey=SEBFKMXJBCUCAI-UHFFFAOYSA-N"
Num Peaks: 4
 301 35.435435; 
 453 14.414414; 
 481 100.000000; 
 482 18.018018; 


Name: Silymarin 10.15 min
SYNON: $:00in-source
DB#: MetaboBASE0848
InChIKey: SEBFKMXJBCUCAI-WAABAYLZSA-N
Instrument_type: LC-ESI-TOF
Instrument: impact HD
Ion_mode: N
InChIKey: SEBFKMXJBCUCAI-WAABAYLZSA-N
Formula: C25H22O10
MW: 482
ExactMass: 482.12129690399996
Comments: "license=License CC-BY-NC-SA 4.0 International" "author=Plant Biology, The Noble Foundation, Ardmore, OK, US/Dennis Fine, Daniel Wherritt, and Lloyd Sumner" "instrument type=LC-ESI-TOF" "instrument=impact HD" "ionization=ESI" "ionization mode=negative" "collision gas=Nitrogen" "peak width=0.012" "date=2014-01-08 02:01:07+01:00" "column=Waters Acquity BEH C18 1.7um x 2.1 x 150 mm" "retention time=609" "raw data file=C:\Data\Confirmed Standards\Confirmed stds MSMS 7Jan14\Silymarin (vial 311)_MSMS.d" "cas number=65666-07-1" "SMILES=COc1cc(ccc1O)[C@H]2[C@@H](Oc3ccc(cc3O2)[C@@H]4[C@H](C(=O)c5c(cc(cc5O4)O)O)O)CO" "InChI=InChI=1S/C25H22O10/c1-32-17-6-11(2-4-14(17)28)24-20(10-26)33-16-5-3-12(7-18(16)34-24)25-23(31)22(30)21-15(29)8-13(27)9-19(21)35-25/h2-9,20,23-29,31H,10H2,1H3/t20-,23-,24-,25+/m0/s1" "InChIKey=SEBFKMXJBCUCAI-WAABAYLZSA-N" "molecular formula=C25H22O10" "total exact mass=482.12129690399996" "SMILES=COC1=C(C=CC(=C1)C2C(OC3=C(O2)C=C(C=C3)C4C(C(=O)C5=C(C=C(C=C5O4)O)O)O)CO)O" "InChI=InChI=1S/C25H22O10/c1-32-17-6-11(2-4-14(17)28)24-20(10-26)33-16-5-3-12(7-18(16)34-24)25-23(31)22(30)21-15(29)8-13(27)9-19(21)35-25/h2-9,20,23-29,31H,10H2,1H3" "InChIKey=SEBFKMXJBCUCAI-UHFFFAOYSA-N"
Num Peaks: 14
 112 4.004004; 
 116 5.605606; 
 125 13.713714; 
 151 7.507508; 
 152 7.907908; 
 179 3.103103; 
 273 5.805806; 
 274 3.503504; 
 301 18.218218; 
 302 5.005005; 
 481 100.000000; 
 482 26.226226; 
 483 4.004004; 
 503 4.504505; 


Name: Silymarin 10.15 min
SYNON: $:00in-source
DB#: MetaboBASE0849
InChIKey: SEBFKMXJBCUCAI-WAABAYLZSA-N
Precursor_type: [M-H]-
Spectrum_type: MS2
PrecursorMZ: 481.1173
Instrument_type: LC-ESI-TOF
Instrument: impact HD
Ion_mode: N
Collision_energy: 6
InChIKey: SEBFKMXJBCUCAI-WAABAYLZSA-N
Formula: C25H22O10
MW: 482
ExactMass: 482.121296904
Comments: "license=License CC-BY-NC-SA 4.0 International" "author=Plant Biology, The Noble Foundation, Ardmore, OK, US/Dennis Fine, Daniel Wherritt, and Lloyd Sumner" "instrument type=LC-ESI-TOF" "instrument=impact HD" "ionization=ESI" "ionization mode=negative" "ms level=MS2" "precursor m/z=481.1173" "isolation width=5" "collision gas=Nitrogen" "collision energy=6" "peak width=0.013" "date=2014-01-08 02:01:07+01:00" "column=Waters Acquity BEH C18 1.7um x 2.1 x 150 mm" "retention time=609" "raw data file=C:\Data\Confirmed Standards\Confirmed stds MSMS 7Jan14\Silymarin (vial 311)_MSMS.d" "precursor type=[M-H]-" "mass accuracy=6.815585305229223" "mass error=0.0032790959999715596" "cas number=65666-07-1" "SMILES=COc1cc(ccc1O)[C@H]2[C@@H](Oc3ccc(cc3O2)[C@@H]4[C@H](C(=O)c5c(cc(cc5O4)O)O)O)CO" "InChI=InChI=1S/C25H22O10/c1-32-17-6-11(2-4-14(17)28)24-20(10-26)33-16-5-3-12(7-18(16)34-24)25-23(31)22(30)21-15(29)8-13(27)9-19(21)35-25/h2-9,20,23-29,31H,10H2,1H3/t20-,23-,24-,25+/m0/s1" "InChIKey=SEBFKMXJBCUCAI-WAABAYLZSA-N" "molecular formula=C25H22O10" "total exact mass=482.121296904" "SMILES=COC1=C(C=CC(=C1)C2C(OC3=C(O2)C=C(C=C3)C4C(C(=O)C5=C(C=C(C=C5O4)O)O)O)CO)O" "InChI=InChI=1S/C25H22O10/c1-32-17-6-11(2-4-14(17)28)24-20(10-26)33-16-5-3-12(7-18(16)34-24)25-23(31)22(30)21-15(29)8-13(27)9-19(21)35-25/h2-9,20,23-29,31H,10H2,1H3" "InChIKey=SEBFKMXJBCUCAI-UHFFFAOYSA-N"
Num Peaks: 2
 481 100.000000; 
 482 21.121121; 


Name: Silymarin 10.03 min
SYNON: $:00in-source
DB#: MetaboBASE0850
InChIKey: SEBFKMXJBCUCAI-WAABAYLZSA-N
Precursor_type: [M-H]-
Spectrum_type: MS2
PrecursorMZ: 481.1146
Instrument_type: LC-ESI-TOF
Instrument: impact HD
Ion_mode: N
Collision_energy: 10
InChIKey: SEBFKMXJBCUCAI-WAABAYLZSA-N
Formula: C25H22O10
MW: 482
ExactMass: 482.121296904
Comments: "license=License CC-BY-NC-SA 4.0 International" "author=Plant Biology, The Noble Foundation, Ardmore, OK, US/Dennis Fine, Daniel Wherritt, and Lloyd Sumner" "instrument type=LC-ESI-TOF" "instrument=impact HD" "ionization=ESI" "ionization mode=negative" "ms level=MS2" "precursor m/z=481.1146" "isolation width=5" "collision gas=Nitrogen" "collision energy=10" "peak width=0.019" "date=2014-01-08 02:01:07+01:00" "column=Waters Acquity BEH C18 1.7um x 2.1 x 150 mm" "retention time=601.8" "raw data file=C:\Data\Confirmed Standards\Confirmed stds MSMS 7Jan14\Silymarin (vial 311)_MSMS.d" "precursor type=[M-H]-" "mass accuracy=1.2036550126876093" "mass error=5.790959999671941E-4" "cas number=65666-07-1" "SMILES=COc1cc(ccc1O)[C@H]2[C@@H](Oc3ccc(cc3O2)[C@@H]4[C@H](C(=O)c5c(cc(cc5O4)O)O)O)CO" "InChI=InChI=1S/C25H22O10/c1-32-17-6-11(2-4-14(17)28)24-20(10-26)33-16-5-3-12(7-18(16)34-24)25-23(31)22(30)21-15(29)8-13(27)9-19(21)35-25/h2-9,20,23-29,31H,10H2,1H3/t20-,23-,24-,25+/m0/s1" "InChIKey=SEBFKMXJBCUCAI-WAABAYLZSA-N" "molecular formula=C25H22O10" "total exact mass=482.121296904" "SMILES=COC1=C(C=CC(=C1)C2C(OC3=C(O2)C=C(C=C3)C4C(C(=O)C5=C(C=C(C=C5O4)O)O)O)CO)O" "InChI=InChI=1S/C25H22O10/c1-32-17-6-11(2-4-14(17)28)24-20(10-26)33-16-5-3-12(7-18(16)34-24)25-23(31)22(30)21-15(29)8-13(27)9-19(21)35-25/h2-9,20,23-29,31H,10H2,1H3" "InChIKey=SEBFKMXJBCUCAI-UHFFFAOYSA-N"
Num Peaks: 2
 481 100.000000; 
 482 16.916917; 


Name: Silymarin 10.03 min
SYNON: $:00in-source
DB#: MetaboBASE0851
InChIKey: SEBFKMXJBCUCAI-WAABAYLZSA-N
Precursor_type: [M-H]-
Spectrum_type: MS2
PrecursorMZ: 481.116
Instrument_type: LC-ESI-TOF
Instrument: impact HD
Ion_mode: N
Collision_energy: 20
InChIKey: SEBFKMXJBCUCAI-WAABAYLZSA-N
Formula: C25H22O10
MW: 482
ExactMass: 482.121296904
Comments: "license=License CC-BY-NC-SA 4.0 International" "author=Plant Biology, The Noble Foundation, Ardmore, OK, US/Dennis Fine, Daniel Wherritt, and Lloyd Sumner" "instrument type=LC-ESI-TOF" "instrument=impact HD" "ionization=ESI" "ionization mode=negative" "ms level=MS2" "precursor m/z=481.116" "isolation width=5" "collision gas=Nitrogen" "collision energy=20" "peak width=0.015" "date=2014-01-08 02:01:07+01:00" "column=Waters Acquity BEH C18 1.7um x 2.1 x 150 mm" "retention time=601.8" "raw data file=C:\Data\Confirmed Standards\Confirmed stds MSMS 7Jan14\Silymarin (vial 311)_MSMS.d" "precursor type=[M-H]-" "mass accuracy=4.113552656650009" "mass error=0.001979095999956826" "cas number=65666-07-1" "SMILES=COc1cc(ccc1O)[C@H]2[C@@H](Oc3ccc(cc3O2)[C@@H]4[C@H](C(=O)c5c(cc(cc5O4)O)O)O)CO" "InChI=InChI=1S/C25H22O10/c1-32-17-6-11(2-4-14(17)28)24-20(10-26)33-16-5-3-12(7-18(16)34-24)25-23(31)22(30)21-15(29)8-13(27)9-19(21)35-25/h2-9,20,23-29,31H,10H2,1H3/t20-,23-,24-,25+/m0/s1" "InChIKey=SEBFKMXJBCUCAI-WAABAYLZSA-N" "molecular formula=C25H22O10" "total exact mass=482.121296904" "SMILES=COC1=C(C=CC(=C1)C2C(OC3=C(O2)C=C(C=C3)C4C(C(=O)C5=C(C=C(C=C5O4)O)O)O)CO)O" "InChI=InChI=1S/C25H22O10/c1-32-17-6-11(2-4-14(17)28)24-20(10-26)33-16-5-3-12(7-18(16)34-24)25-23(31)22(30)21-15(29)8-13(27)9-19(21)35-25/h2-9,20,23-29,31H,10H2,1H3" "InChIKey=SEBFKMXJBCUCAI-UHFFFAOYSA-N"
Num Peaks: 2
 301 34.634635; 
 481 100.000000; 


Name: Silymarin 10.03 min
SYNON: $:00in-source
DB#: MetaboBASE0852
InChIKey: SEBFKMXJBCUCAI-WAABAYLZSA-N
Instrument_type: LC-ESI-TOF
Instrument: impact HD
Ion_mode: N
InChIKey: SEBFKMXJBCUCAI-WAABAYLZSA-N
Formula: C25H22O10
MW: 482
ExactMass: 482.121296904
Comments: "license=License CC-BY-NC-SA 4.0 International" "author=Plant Biology, The Noble Foundation, Ardmore, OK, US/Dennis Fine, Daniel Wherritt, and Lloyd Sumner" "instrument type=LC-ESI-TOF" "instrument=impact HD" "ionization=ESI" "ionization mode=negative" "collision gas=Nitrogen" "peak width=0.013" "date=2014-01-08 02:01:07+01:00" "column=Waters Acquity BEH C18 1.7um x 2.1 x 150 mm" "retention time=601.8" "raw data file=C:\Data\Confirmed Standards\Confirmed stds MSMS 7Jan14\Silymarin (vial 311)_MSMS.d" "cas number=65666-07-1" "SMILES=COc1cc(ccc1O)[C@H]2[C@@H](Oc3ccc(cc3O2)[C@@H]4[C@H](C(=O)c5c(cc(cc5O4)O)O)O)CO" "InChI=InChI=1S/C25H22O10/c1-32-17-6-11(2-4-14(17)28)24-20(10-26)33-16-5-3-12(7-18(16)34-24)25-23(31)22(30)21-15(29)8-13(27)9-19(21)35-25/h2-9,20,23-29,31H,10H2,1H3/t20-,23-,24-,25+/m0/s1" "InChIKey=SEBFKMXJBCUCAI-WAABAYLZSA-N" "molecular formula=C25H22O10" "total exact mass=482.121296904" "SMILES=COC1=C(C=CC(=C1)C2C(OC3=C(O2)C=C(C=C3)C4C(C(=O)C5=C(C=C(C=C5O4)O)O)O)CO)O" "InChI=InChI=1S/C25H22O10/c1-32-17-6-11(2-4-14(17)28)24-20(10-26)33-16-5-3-12(7-18(16)34-24)25-23(31)22(30)21-15(29)8-13(27)9-19(21)35-25/h2-9,20,23-29,31H,10H2,1H3" "InChIKey=SEBFKMXJBCUCAI-UHFFFAOYSA-N"
Num Peaks: 19
 112 5.405405; 
 116 9.709710; 
 124 3.703704; 
 125 14.914915; 
 151 6.006006; 
 152 9.909910; 
 179 3.103103; 
 229 2.602603; 
 255 3.703704; 
 257 3.003003; 
 273 11.011011; 
 284 3.403403; 
 301 24.424424; 
 302 5.705706; 
 453 3.103103; 
 481 100.000000; 
 482 24.024024; 
 483 4.804805; 
 503 5.305305; 


Name: 3,7,3',4'-Tetrahydroxyflavanone
Synon: Fustin
SYNON: $:00in-source
DB#: MetaboBASE0853
InChIKey: FNUPUYFWZXZMIE-LSDHHAIUSA-N
Instrument_type: LC-ESI-TOF
Instrument: impact HD
Ion_mode: N
InChIKey: FNUPUYFWZXZMIE-LSDHHAIUSA-N
Formula: C15H12O6
MW: 288
ExactMass: 288.06338810399996
Comments: "license=License CC-BY-NC-SA 4.0 International" "author=Plant Biology, The Noble Foundation, Ardmore, OK, US/Dennis Fine, Daniel Wherritt, and Lloyd Sumner" "instrument type=LC-ESI-TOF" "instrument=impact HD" "ionization=ESI" "ionization mode=negative" "collision gas=Nitrogen" "peak width=0.01" "date=2014-01-09 15:33:02+01:00" "column=Waters Acquity BEH C18 1.7um x 2.1 x 150 mm" "retention time=226.2" "raw data file=C:\Data\Confirmed Standards\Confirmed stds 9Jan14\373'4'Tetrahydroxyfava_MSMS.d" "cas number=4382-36-9" "SMILES=c1cc(c(cc1[C@@H]2[C@H](C(=O)c3ccc(cc3O2)O)O)O)O" "InChI=InChI=1S/C15H12O6/c16-8-2-3-9-12(6-8)21-15(14(20)13(9)19)7-1-4-10(17)11(18)5-7/h1-6,14-18,20H/t14-,15+/m0/s1" "InChIKey=FNUPUYFWZXZMIE-LSDHHAIUSA-N" "molecular formula=C15H12O6" "total exact mass=288.06338810399996" "SMILES=C1=CC(=C(C=C1C2C(C(=O)C3=C(O2)C=C(C=C3)O)O)O)O"
Num Peaks: 7
 269 3.003003; 
 285 11.011011; 
 287 100.000000; 
 288 11.911912; 
 575 21.521522; 
 576 5.605606; 
 666 2.202202; 


Name: 3,7,3',4'-Tetrahydroxyflavanone
Synon: Fustin
SYNON: $:00in-source
DB#: MetaboBASE0854
InChIKey: FNUPUYFWZXZMIE-LSDHHAIUSA-N
Precursor_type: [M-H]-
Spectrum_type: MS2
PrecursorMZ: 287.0565
Instrument_type: LC-ESI-TOF
Instrument: impact HD
Ion_mode: N
Collision_energy: 10
InChIKey: FNUPUYFWZXZMIE-LSDHHAIUSA-N
Formula: C15H12O6
MW: 288
ExactMass: 288.06338810399996
Comments: "license=License CC-BY-NC-SA 4.0 International" "author=Plant Biology, The Noble Foundation, Ardmore, OK, US/Dennis Fine, Daniel Wherritt, and Lloyd Sumner" "instrument type=LC-ESI-TOF" "instrument=impact HD" "ionization=ESI" "ionization mode=negative" "ms level=MS2" "precursor m/z=287.0565" "isolation width=5" "collision gas=Nitrogen" "collision energy=10" "peak width=0.015" "date=2014-01-09 20:23:05+01:00" "column=Waters Acquity BEH C18 1.7um x 2.1 x 150 mm" "retention time=228" "raw data file=C:\Data\Confirmed Standards\14Jan9 Confirmed stds MSMS\373'4'Tetrahydroxyfava_MSMS.d" "precursor type=[M-H]-" "mass accuracy=1.3512879870805656" "mass error=3.878960000633924E-4" "cas number=4382-36-9" "SMILES=c1cc(c(cc1[C@@H]2[C@H](C(=O)c3ccc(cc3O2)O)O)O)O" "InChI=InChI=1S/C15H12O6/c16-8-2-3-9-12(6-8)21-15(14(20)13(9)19)7-1-4-10(17)11(18)5-7/h1-6,14-18,20H/t14-,15+/m0/s1" "InChIKey=FNUPUYFWZXZMIE-LSDHHAIUSA-N" "molecular formula=C15H12O6" "total exact mass=288.06338810399996" "SMILES=C1=CC(=C(C=C1C2C(C(=O)C3=C(O2)C=C(C=C3)O)O)O)O"
Num Peaks: 10
 163 4.404404; 
 257 2.202202; 
 259 19.719720; 
 260 3.503504; 
 269 33.133133; 
 270 3.803804; 
 285 59.659660; 
 286 8.908909; 
 287 100.000000; 
 288 10.910911; 


Name: 3,7,3',4'-Tetrahydroxyflavanone
Synon: Fustin
SYNON: $:00in-source
DB#: MetaboBASE0855
InChIKey: FNUPUYFWZXZMIE-LSDHHAIUSA-N
Precursor_type: [M-H]-
Spectrum_type: MS2
PrecursorMZ: 287.1
Instrument_type: LC-ESI-TOF
Instrument: impact HD
Ion_mode: N
Collision_energy: 30
InChIKey: FNUPUYFWZXZMIE-LSDHHAIUSA-N
Formula: C15H12O6
MW: 288
ExactMass: 288.06338810399996
Comments: "license=License CC-BY-NC-SA 4.0 International" "author=Plant Biology, The Noble Foundation, Ardmore, OK, US/Dennis Fine, Daniel Wherritt, and Lloyd Sumner" "instrument type=LC-ESI-TOF" "instrument=impact HD" "ionization=ESI" "ionization mode=negative" "ms level=MS2" "precursor m/z=287.1" "isolation width=5" "collision gas=Nitrogen" "collision energy=30" "peak width=0.018" "date=2014-01-09 20:23:05+01:00" "column=Waters Acquity BEH C18 1.7um x 2.1 x 150 mm" "retention time=228" "raw data file=C:\Data\Confirmed Standards\14Jan9 Confirmed stds MSMS\373'4'Tetrahydroxyfava_MSMS.d" "precursor type=[M-H]-" "mass accuracy=152.86623476160895" "mass error=0.043887896000057935" "cas number=4382-36-9" "SMILES=c1cc(c(cc1[C@@H]2[C@H](C(=O)c3ccc(cc3O2)O)O)O)O" "InChI=InChI=1S/C15H12O6/c16-8-2-3-9-12(6-8)21-15(14(20)13(9)19)7-1-4-10(17)11(18)5-7/h1-6,14-18,20H/t14-,15+/m0/s1" "InChIKey=FNUPUYFWZXZMIE-LSDHHAIUSA-N" "molecular formula=C15H12O6" "total exact mass=288.06338810399996" "SMILES=C1=CC(=C(C=C1C2C(C(=O)C3=C(O2)C=C(C=C3)O)O)O)O"
Num Peaks: 21
 108 6.306306; 
 109 100.000000; 
 110 7.407407; 
 121 31.331331; 
 122 7.607608; 
 123 35.035035; 
 135 45.145145; 
 136 9.409409; 
 137 14.214214; 
 139 7.307307; 
 149 19.519520; 
 150 6.506507; 
 151 13.113113; 
 153 5.305305; 
 160 6.206206; 
 163 10.210210; 
 211 12.612613; 
 224 10.310310; 
 225 17.317317; 
 239 7.407407; 
 241 6.006006; 


Name: 3,7,3',4'-Tetrahydroxyflavanone
Synon: Fustin
SYNON: $:00in-source
DB#: MetaboBASE0856
InChIKey: FNUPUYFWZXZMIE-LSDHHAIUSA-N
Instrument_type: LC-ESI-TOF
Instrument: impact HD
Ion_mode: N
InChIKey: FNUPUYFWZXZMIE-LSDHHAIUSA-N
Formula: C15H12O6
MW: 288
ExactMass: 288.06338810399996
Comments: "license=License CC-BY-NC-SA 4.0 International" "author=Plant Biology, The Noble Foundation, Ardmore, OK, US/Dennis Fine, Daniel Wherritt, and Lloyd Sumner" "instrument type=LC-ESI-TOF" "instrument=impact HD" "ionization=ESI" "ionization mode=negative" "collision gas=Nitrogen" "peak width=0.015" "date=2014-01-09 20:23:05+01:00" "column=Waters Acquity BEH C18 1.7um x 2.1 x 150 mm" "retention time=228" "raw data file=C:\Data\Confirmed Standards\14Jan9 Confirmed stds MSMS\373'4'Tetrahydroxyfava_MSMS.d" "cas number=4382-36-9" "SMILES=c1cc(c(cc1[C@@H]2[C@H](C(=O)c3ccc(cc3O2)O)O)O)O" "InChI=InChI=1S/C15H12O6/c16-8-2-3-9-12(6-8)21-15(14(20)13(9)19)7-1-4-10(17)11(18)5-7/h1-6,14-18,20H/t14-,15+/m0/s1" "InChIKey=FNUPUYFWZXZMIE-LSDHHAIUSA-N" "molecular formula=C15H12O6" "total exact mass=288.06338810399996" "SMILES=C1=CC(=C(C=C1C2C(C(=O)C3=C(O2)C=C(C=C3)O)O)O)O"
Num Peaks: 10
 269 3.303303; 
 285 75.675676; 
 286 9.209209; 
 287 100.000000; 
 288 11.711712; 
 303 3.003003; 
 571 2.402402; 
 573 5.705706; 
 575 15.815816; 
 576 4.304304; 


Name: 3,7,3',4'-Tetrahydroxyflavanone
Synon: Fustin
SYNON: $:00in-source
DB#: MetaboBASE0857
InChIKey: FNUPUYFWZXZMIE-LSDHHAIUSA-N
Spectrum_type: MS2
PrecursorMZ: 285.0385
Instrument_type: LC-ESI-TOF
Instrument: impact HD
Ion_mode: N
Collision_energy: 20
InChIKey: FNUPUYFWZXZMIE-LSDHHAIUSA-N
Formula: C15H12O6
MW: 288
ExactMass: 288.06338810399996
Comments: "license=License CC-BY-NC-SA 4.0 International" "author=Plant Biology, The Noble Foundation, Ardmore, OK, US/Dennis Fine, Daniel Wherritt, and Lloyd Sumner" "instrument type=LC-ESI-TOF" "instrument=impact HD" "ionization=ESI" "ionization mode=negative" "ms level=MS2" "precursor m/z=285.0385" "isolation width=5" "collision gas=Nitrogen" "collision energy=20" "peak width=0.018" "date=2014-01-09 15:33:02+01:00" "column=Waters Acquity BEH C18 1.7um x 2.1 x 150 mm" "retention time=226.2" "raw data file=C:\Data\Confirmed Standards\Confirmed stds 9Jan14\373'4'Tetrahydroxyfava_MSMS.d" "cas number=4382-36-9" "SMILES=c1cc(c(cc1[C@@H]2[C@H](C(=O)c3ccc(cc3O2)O)O)O)O" "InChI=InChI=1S/C15H12O6/c16-8-2-3-9-12(6-8)21-15(14(20)13(9)19)7-1-4-10(17)11(18)5-7/h1-6,14-18,20H/t14-,15+/m0/s1" "InChIKey=FNUPUYFWZXZMIE-LSDHHAIUSA-N" "molecular formula=C15H12O6" "total exact mass=288.06338810399996" "SMILES=C1=CC(=C(C=C1C2C(C(=O)C3=C(O2)C=C(C=C3)O)O)O)O"
Num Peaks: 29
 109 100.000000; 
 121 20.220220; 
 123 30.330330; 
 135 49.049049; 
 136 8.908909; 
 137 24.924925; 
 149 61.361361; 
 150 7.707708; 
 151 21.321321; 
 153 11.611612; 
 160 7.807808; 
 163 64.264264; 
 164 7.307307; 
 165 8.408408; 
 177 6.506507; 
 224 8.308308; 
 225 70.770771; 
 227 7.207207; 
 239 14.014014; 
 241 12.012012; 
 243 6.206206; 
 257 9.809810; 
 259 69.769770; 
 260 9.309309; 
 267 8.108108; 
 269 66.266266; 
 270 7.907908; 
 285 13.213213; 
 287 20.220220; 


Name: Hesperidin
SYNON: $:00in-source
DB#: MetaboBASE0858
InChIKey: QUQPHWDTPGMPEX-QJBIFVCTSA-N
Precursor_type: [M-H]-
Spectrum_type: MS2
PrecursorMZ: 609.2
Instrument_type: LC-ESI-TOF
Instrument: impact HD
Ion_mode: N
Collision_energy: 40
InChIKey: QUQPHWDTPGMPEX-QJBIFVCTSA-N
Formula: C28H34O15
MW: 610
ExactMass: 610.1897703879999
Comments: "license=License CC-BY-NC-SA 4.0 International" "author=Plant Biology, The Noble Foundation, Ardmore, OK, US/Dennis Fine, Daniel Wherritt, and Lloyd Sumner" "instrument type=LC-ESI-TOF" "instrument=impact HD" "ionization=ESI" "ionization mode=negative" "ms level=MS2" "precursor m/z=609.2" "isolation width=5" "collision gas=Nitrogen" "collision energy=40" "peak width=0.012" "date=2014-01-09 01:25:13+01:00" "column=Waters Acquity BEH C18 1.7um x 2.1 x 150 mm" "retention time=424.8" "raw data file=C:\Data\Confirmed Standards\Confirmed stds MSMS 8Jan14\Hesperidin (vial 322)_MSMS.d" "precursor type=[M-H]-" "mass accuracy=28.73541037450754" "mass error=0.017505612000149995" "cas number=520-26-3" "SMILES=C[C@H]1[C@@H]([C@H]([C@H]([C@@H](O1)OC[C@@H]2[C@H]([C@@H]([C@H]([C@@H](O2)Oc3cc(c4c(c3)O[C@@H](CC4=O)c5ccc(c(c5)O)OC)O)O)O)O)O)O)O" "InChI=InChI=1S/C28H34O15/c1-10-21(32)23(34)25(36)27(40-10)39-9-19-22(33)24(35)26(37)28(43-19)41-12-6-14(30)20-15(31)8-17(42-18(20)7-12)11-3-4-16(38-2)13(29)5-11/h3-7,10,17,19,21-30,32-37H,8-9H2,1-2H3/t10-,17-,19+,21-,22+,23+,24-,25+,26+,27+,28+/m0/s1" "InChIKey=QUQPHWDTPGMPEX-QJBIFVCTSA-N" "molecular formula=C28H34O15" "total exact mass=610.1897703879999" "SMILES=CC1C(C(C(C(O1)OCC2C(C(C(C(O2)OC3=CC(=C4C(=O)CC(OC4=C3)C5=CC(=C(C=C5)OC)O)O)O)O)O)O)O)O" "InChI=InChI=1S/C28H34O15/c1-10-21(32)23(34)25(36)27(40-10)39-9-19-22(33)24(35)26(37)28(43-19)41-12-6-14(30)20-15(31)8-17(42-18(20)7-12)11-3-4-16(38-2)13(29)5-11/h3-7,10,17,19,21-30,32-37H,8-9H2,1-2H3" "InChIKey=QUQPHWDTPGMPEX-UHFFFAOYSA-N"
Num Peaks: 6
 242 2.602603; 
 257 3.403403; 
 286 4.904905; 
 301 100.000000; 
 302 13.113113; 
 325 3.203203; 


Name: Hesperidin
SYNON: $:00in-source
DB#: MetaboBASE0859
InChIKey: QUQPHWDTPGMPEX-QJBIFVCTSA-N
Precursor_type: [M-H]-
Spectrum_type: MS2
PrecursorMZ: 609.1866
Instrument_type: LC-ESI-TOF
Instrument: impact HD
Ion_mode: N
Collision_energy: 10
InChIKey: QUQPHWDTPGMPEX-QJBIFVCTSA-N
Formula: C28H34O15
MW: 610
ExactMass: 610.1897703879999
Comments: "license=License CC-BY-NC-SA 4.0 International" "author=Plant Biology, The Noble Foundation, Ardmore, OK, US/Dennis Fine, Daniel Wherritt, and Lloyd Sumner" "instrument type=LC-ESI-TOF" "instrument=impact HD" "ionization=ESI" "ionization mode=negative" "ms level=MS2" "precursor m/z=609.1866" "isolation width=5" "collision gas=Nitrogen" "collision energy=10" "peak width=0.015" "date=2014-01-09 01:25:13+01:00" "column=Waters Acquity BEH C18 1.7um x 2.1 x 150 mm" "retention time=424.8" "raw data file=C:\Data\Confirmed Standards\Confirmed stds MSMS 8Jan14\Hesperidin (vial 322)_MSMS.d" "precursor type=[M-H]-" "mass accuracy=6.739498209748975" "mass error=0.004105612000103065" "cas number=520-26-3" "SMILES=C[C@H]1[C@@H]([C@H]([C@H]([C@@H](O1)OC[C@@H]2[C@H]([C@@H]([C@H]([C@@H](O2)Oc3cc(c4c(c3)O[C@@H](CC4=O)c5ccc(c(c5)O)OC)O)O)O)O)O)O)O" "InChI=InChI=1S/C28H34O15/c1-10-21(32)23(34)25(36)27(40-10)39-9-19-22(33)24(35)26(37)28(43-19)41-12-6-14(30)20-15(31)8-17(42-18(20)7-12)11-3-4-16(38-2)13(29)5-11/h3-7,10,17,19,21-30,32-37H,8-9H2,1-2H3/t10-,17-,19+,21-,22+,23+,24-,25+,26+,27+,28+/m0/s1" "InChIKey=QUQPHWDTPGMPEX-QJBIFVCTSA-N" "molecular formula=C28H34O15" "total exact mass=610.1897703879999" "SMILES=CC1C(C(C(C(O1)OCC2C(C(C(C(O2)OC3=CC(=C4C(=O)CC(OC4=C3)C5=CC(=C(C=C5)OC)O)O)O)O)O)O)O)O" "InChI=InChI=1S/C28H34O15/c1-10-21(32)23(34)25(36)27(40-10)39-9-19-22(33)24(35)26(37)28(43-19)41-12-6-14(30)20-15(31)8-17(42-18(20)7-12)11-3-4-16(38-2)13(29)5-11/h3-7,10,17,19,21-30,32-37H,8-9H2,1-2H3" "InChIKey=QUQPHWDTPGMPEX-UHFFFAOYSA-N"
Num Peaks: 5
 301 28.628629; 
 302 4.604605; 
 609 100.000000; 
 610 38.838839; 
 611 6.406406; 


Name: Hesperidin
SYNON: $:00in-source
DB#: MetaboBASE0860
InChIKey: QUQPHWDTPGMPEX-QJBIFVCTSA-N
Precursor_type: [M-H]-
Spectrum_type: MS2
PrecursorMZ: 609.1827
Instrument_type: LC-ESI-TOF
Instrument: impact HD
Ion_mode: N
Collision_energy: 20
InChIKey: QUQPHWDTPGMPEX-QJBIFVCTSA-N
Formula: C28H34O15
MW: 610
ExactMass: 610.189770388
Comments: "license=License CC-BY-NC-SA 4.0 International" "author=Plant Biology, The Noble Foundation, Ardmore, OK, US/Dennis Fine, Daniel Wherritt, and Lloyd Sumner" "instrument type=LC-ESI-TOF" "instrument=impact HD" "ionization=ESI" "ionization mode=negative" "ms level=MS2" "precursor m/z=609.1827" "isolation width=5" "collision gas=Nitrogen" "collision energy=20" "peak width=0.014" "date=2014-01-09 01:25:13+01:00" "column=Waters Acquity BEH C18 1.7um x 2.1 x 150 mm" "retention time=424.8" "raw data file=C:\Data\Confirmed Standards\Confirmed stds MSMS 8Jan14\Hesperidin (vial 322)_MSMS.d" "precursor type=[M-H]-" "mass accuracy=0.3375210752786917" "mass error=2.0561199994517665E-4" "cas number=520-26-3" "SMILES=C[C@H]1[C@@H]([C@H]([C@H]([C@@H](O1)OC[C@@H]2[C@H]([C@@H]([C@H]([C@@H](O2)Oc3cc(c4c(c3)O[C@@H](CC4=O)c5ccc(c(c5)O)OC)O)O)O)O)O)O)O" "InChI=InChI=1S/C28H34O15/c1-10-21(32)23(34)25(36)27(40-10)39-9-19-22(33)24(35)26(37)28(43-19)41-12-6-14(30)20-15(31)8-17(42-18(20)7-12)11-3-4-16(38-2)13(29)5-11/h3-7,10,17,19,21-30,32-37H,8-9H2,1-2H3/t10-,17-,19+,21-,22+,23+,24-,25+,26+,27+,28+/m0/s1" "InChIKey=QUQPHWDTPGMPEX-QJBIFVCTSA-N" "molecular formula=C28H34O15" "total exact mass=610.189770388" "SMILES=CC1C(C(C(C(O1)OCC2C(C(C(C(O2)OC3=CC(=C4C(=O)CC(OC4=C3)C5=CC(=C(C=C5)OC)O)O)O)O)O)O)O)O" "InChI=InChI=1S/C28H34O15/c1-10-21(32)23(34)25(36)27(40-10)39-9-19-22(33)24(35)26(37)28(43-19)41-12-6-14(30)20-15(31)8-17(42-18(20)7-12)11-3-4-16(38-2)13(29)5-11/h3-7,10,17,19,21-30,32-37H,8-9H2,1-2H3" "InChIKey=QUQPHWDTPGMPEX-UHFFFAOYSA-N"
Num Peaks: 5
 301 100.000000; 
 302 15.615616; 
 303 3.803804; 
 609 25.325325; 
 610 8.108108; 


Name: Hesperidin
SYNON: $:00in-source
DB#: MetaboBASE0861
InChIKey: QUQPHWDTPGMPEX-QJBIFVCTSA-N
Instrument_type: LC-ESI-TOF
Instrument: impact HD
Ion_mode: N
InChIKey: QUQPHWDTPGMPEX-QJBIFVCTSA-N
Formula: C28H34O15
MW: 610
ExactMass: 610.189770388
Comments: "license=License CC-BY-NC-SA 4.0 International" "author=Plant Biology, The Noble Foundation, Ardmore, OK, US/Dennis Fine, Daniel Wherritt, and Lloyd Sumner" "instrument type=LC-ESI-TOF" "instrument=impact HD" "ionization=ESI" "ionization mode=negative" "collision gas=Nitrogen" "peak width=0.011" "date=2014-01-09 01:25:13+01:00" "column=Waters Acquity BEH C18 1.7um x 2.1 x 150 mm" "retention time=424.8" "raw data file=C:\Data\Confirmed Standards\Confirmed stds MSMS 8Jan14\Hesperidin (vial 322)_MSMS.d" "cas number=520-26-3" "SMILES=C[C@H]1[C@@H]([C@H]([C@H]([C@@H](O1)OC[C@@H]2[C@H]([C@@H]([C@H]([C@@H](O2)Oc3cc(c4c(c3)O[C@@H](CC4=O)c5ccc(c(c5)O)OC)O)O)O)O)O)O)O" "InChI=InChI=1S/C28H34O15/c1-10-21(32)23(34)25(36)27(40-10)39-9-19-22(33)24(35)26(37)28(43-19)41-12-6-14(30)20-15(31)8-17(42-18(20)7-12)11-3-4-16(38-2)13(29)5-11/h3-7,10,17,19,21-30,32-37H,8-9H2,1-2H3/t10-,17-,19+,21-,22+,23+,24-,25+,26+,27+,28+/m0/s1" "InChIKey=QUQPHWDTPGMPEX-QJBIFVCTSA-N" "molecular formula=C28H34O15" "total exact mass=610.189770388" "SMILES=CC1C(C(C(C(O1)OCC2C(C(C(C(O2)OC3=CC(=C4C(=O)CC(OC4=C3)C5=CC(=C(C=C5)OC)O)O)O)O)O)O)O)O" "InChI=InChI=1S/C28H34O15/c1-10-21(32)23(34)25(36)27(40-10)39-9-19-22(33)24(35)26(37)28(43-19)41-12-6-14(30)20-15(31)8-17(42-18(20)7-12)11-3-4-16(38-2)13(29)5-11/h3-7,10,17,19,21-30,32-37H,8-9H2,1-2H3" "InChIKey=QUQPHWDTPGMPEX-UHFFFAOYSA-N"
Num Peaks: 8
 609 100.000000; 
 610 23.423423; 
 611 4.104104; 
 655 2.502503; 
 666 3.403403; 
 677 4.504505; 
 1219 9.709710; 
 1220 6.306306; 


Name: Hesperidin
SYNON: $:00in-source
DB#: MetaboBASE0862
InChIKey: QUQPHWDTPGMPEX-QJBIFVCTSA-N
Precursor_type: [M-H]-
Spectrum_type: MS2
PrecursorMZ: 609.2
Instrument_type: LC-ESI-TOF
Instrument: impact HD
Ion_mode: N
Collision_energy: 50
InChIKey: QUQPHWDTPGMPEX-QJBIFVCTSA-N
Formula: C28H34O15
MW: 610
ExactMass: 610.1897703879999
Comments: "license=License CC-BY-NC-SA 4.0 International" "author=Plant Biology, The Noble Foundation, Ardmore, OK, US/Dennis Fine, Daniel Wherritt, and Lloyd Sumner" "instrument type=LC-ESI-TOF" "instrument=impact HD" "ionization=ESI" "ionization mode=negative" "ms level=MS2" "precursor m/z=609.2" "isolation width=5" "collision gas=Nitrogen" "collision energy=50" "peak width=0.013" "date=2014-01-09 01:25:13+01:00" "column=Waters Acquity BEH C18 1.7um x 2.1 x 150 mm" "retention time=424.8" "raw data file=C:\Data\Confirmed Standards\Confirmed stds MSMS 8Jan14\Hesperidin (vial 322)_MSMS.d" "precursor type=[M-H]-" "mass accuracy=28.73541037450754" "mass error=0.017505612000149995" "cas number=520-26-3" "SMILES=C[C@H]1[C@@H]([C@H]([C@H]([C@@H](O1)OC[C@@H]2[C@H]([C@@H]([C@H]([C@@H](O2)Oc3cc(c4c(c3)O[C@@H](CC4=O)c5ccc(c(c5)O)OC)O)O)O)O)O)O)O" "InChI=InChI=1S/C28H34O15/c1-10-21(32)23(34)25(36)27(40-10)39-9-19-22(33)24(35)26(37)28(43-19)41-12-6-14(30)20-15(31)8-17(42-18(20)7-12)11-3-4-16(38-2)13(29)5-11/h3-7,10,17,19,21-30,32-37H,8-9H2,1-2H3/t10-,17-,19+,21-,22+,23+,24-,25+,26+,27+,28+/m0/s1" "InChIKey=QUQPHWDTPGMPEX-QJBIFVCTSA-N" "molecular formula=C28H34O15" "total exact mass=610.1897703879999" "SMILES=CC1C(C(C(C(O1)OCC2C(C(C(C(O2)OC3=CC(=C4C(=O)CC(OC4=C3)C5=CC(=C(C=C5)OC)O)O)O)O)O)O)O)O" "InChI=InChI=1S/C28H34O15/c1-10-21(32)23(34)25(36)27(40-10)39-9-19-22(33)24(35)26(37)28(43-19)41-12-6-14(30)20-15(31)8-17(42-18(20)7-12)11-3-4-16(38-2)13(29)5-11/h3-7,10,17,19,21-30,32-37H,8-9H2,1-2H3" "InChIKey=QUQPHWDTPGMPEX-UHFFFAOYSA-N"
Num Peaks: 7
 125 5.505506; 
 164 6.006006; 
 242 13.213213; 
 257 9.409409; 
 286 13.413413; 
 301 100.000000; 
 302 13.313313; 


Name: Hesperidin
SYNON: $:00in-source
DB#: MetaboBASE0863
InChIKey: QUQPHWDTPGMPEX-QJBIFVCTSA-N
Precursor_type: [M-H]-
Spectrum_type: MS2
PrecursorMZ: 609.1843
Instrument_type: LC-ESI-TOF
Instrument: impact HD
Ion_mode: N
Collision_energy: 30
InChIKey: QUQPHWDTPGMPEX-QJBIFVCTSA-N
Formula: C28H34O15
MW: 610
ExactMass: 610.1897703879999
Comments: "license=License CC-BY-NC-SA 4.0 International" "author=Plant Biology, The Noble Foundation, Ardmore, OK, US/Dennis Fine, Daniel Wherritt, and Lloyd Sumner" "instrument type=LC-ESI-TOF" "instrument=impact HD" "ionization=ESI" "ionization mode=negative" "ms level=MS2" "precursor m/z=609.1843" "isolation width=5" "collision gas=Nitrogen" "collision energy=30" "peak width=0.013" "date=2014-01-09 01:25:13+01:00" "column=Waters Acquity BEH C18 1.7um x 2.1 x 150 mm" "retention time=424.8" "raw data file=C:\Data\Confirmed Standards\Confirmed stds MSMS 8Jan14\Hesperidin (vial 322)_MSMS.d" "precursor type=[M-H]-" "mass accuracy=2.963983149454078" "mass error=0.001805612000111978" "cas number=520-26-3" "SMILES=C[C@H]1[C@@H]([C@H]([C@H]([C@@H](O1)OC[C@@H]2[C@H]([C@@H]([C@H]([C@@H](O2)Oc3cc(c4c(c3)O[C@@H](CC4=O)c5ccc(c(c5)O)OC)O)O)O)O)O)O)O" "InChI=InChI=1S/C28H34O15/c1-10-21(32)23(34)25(36)27(40-10)39-9-19-22(33)24(35)26(37)28(43-19)41-12-6-14(30)20-15(31)8-17(42-18(20)7-12)11-3-4-16(38-2)13(29)5-11/h3-7,10,17,19,21-30,32-37H,8-9H2,1-2H3/t10-,17-,19+,21-,22+,23+,24-,25+,26+,27+,28+/m0/s1" "InChIKey=QUQPHWDTPGMPEX-QJBIFVCTSA-N" "molecular formula=C28H34O15" "total exact mass=610.1897703879999" "SMILES=CC1C(C(C(C(O1)OCC2C(C(C(C(O2)OC3=CC(=C4C(=O)CC(OC4=C3)C5=CC(=C(C=C5)OC)O)O)O)O)O)O)O)O" "InChI=InChI=1S/C28H34O15/c1-10-21(32)23(34)25(36)27(40-10)39-9-19-22(33)24(35)26(37)28(43-19)41-12-6-14(30)20-15(31)8-17(42-18(20)7-12)11-3-4-16(38-2)13(29)5-11/h3-7,10,17,19,21-30,32-37H,8-9H2,1-2H3" "InChIKey=QUQPHWDTPGMPEX-UHFFFAOYSA-N"
Num Peaks: 4
 301 100.000000; 
 302 14.414414; 
 325 2.002002; 
 609 4.804805; 


Name: 3,6,2',4'-Tetrahydroxyflavone
SYNON: $:00in-source
DB#: MetaboBASE0864
InChIKey: DNISTMYBAOCXPD-UHFFFAOYSA-N
Precursor_type: [M-H]-
Spectrum_type: MS2
PrecursorMZ: 285.04
Instrument_type: LC-ESI-TOF
Instrument: impact HD
Ion_mode: N
Collision_energy: 10
InChIKey: DNISTMYBAOCXPD-UHFFFAOYSA-N
Formula: C15H10O6
MW: 286
ExactMass: 286.04773803999996
Comments: "license=License CC-BY-NC-SA 4.0 International" "author=Plant Biology, The Noble Foundation, Ardmore, OK, US/Dennis Fine, Daniel Wherritt, and Lloyd Sumner" "instrument type=LC-ESI-TOF" "instrument=impact HD" "ionization=ESI" "ionization mode=negative" "ms level=MS2" "precursor m/z=285.04" "isolation width=5" "collision gas=Nitrogen" "collision energy=10" "peak width=0.014" "date=2014-01-11 01:55:16+01:00" "column=Waters Acquity BEH C18 1.7um x 2.1 x 150 mm" "retention time=384.6" "raw data file=C:\Data\Confirmed Standards\14Jan10 Confirmed stds MSMS\3,6,2',4'-Tetrahydroxyflavone.d" "precursor type=[M-H]-" "mass accuracy=1.620965478337491" "mass error=-4.620399999453184E-4" "SMILES=c1cc(c(cc1O)O)c2c(c(=O)c3cc(ccc3o2)O)O" "InChI=InChI=1S/C15H10O6/c16-7-2-4-12-10(5-7)13(19)14(20)15(21-12)9-3-1-8(17)6-11(9)18/h1-6,16-18,20H" "InChIKey=DNISTMYBAOCXPD-UHFFFAOYSA-N" "molecular formula=C15H10O6" "total exact mass=286.04773803999996" "SMILES=C1=CC(=C(C=C1O)O)C2=C(C(=O)C3=C(O2)C=CC(=C3)O)O"
Num Peaks: 6
 255 24.624625; 
 283 8.508509; 
 285 100.000000; 
 286 14.114114; 
 287 4.204204; 
 613 6.306306; 


Name: 3,6,2',4'-Tetrahydroxyflavone
SYNON: $:00in-source
DB#: MetaboBASE0865
InChIKey: DNISTMYBAOCXPD-UHFFFAOYSA-N
Precursor_type: [M-H]-
Spectrum_type: MS2
PrecursorMZ: 285.0406
Instrument_type: LC-ESI-TOF
Instrument: impact HD
Ion_mode: N
Collision_energy: 20
InChIKey: DNISTMYBAOCXPD-UHFFFAOYSA-N
Formula: C15H10O6
MW: 286
ExactMass: 286.04773804
Comments: "license=License CC-BY-NC-SA 4.0 International" "author=Plant Biology, The Noble Foundation, Ardmore, OK, US/Dennis Fine, Daniel Wherritt, and Lloyd Sumner" "instrument type=LC-ESI-TOF" "instrument=impact HD" "ionization=ESI" "ionization mode=negative" "ms level=MS2" "precursor m/z=285.0406" "isolation width=5" "collision gas=Nitrogen" "collision energy=20" "peak width=0.015" "date=2014-01-11 01:55:16+01:00" "column=Waters Acquity BEH C18 1.7um x 2.1 x 150 mm" "retention time=384.6" "raw data file=C:\Data\Confirmed Standards\14Jan10 Confirmed stds MSMS\3,6,2',4'-Tetrahydroxyflavone.d" "precursor type=[M-H]-" "mass accuracy=0.4840012263548164" "mass error=1.3795999996091268E-4" "SMILES=c1cc(c(cc1O)O)c2c(c(=O)c3cc(ccc3o2)O)O" "InChI=InChI=1S/C15H10O6/c16-7-2-4-12-10(5-7)13(19)14(20)15(21-12)9-3-1-8(17)6-11(9)18/h1-6,16-18,20H" "InChIKey=DNISTMYBAOCXPD-UHFFFAOYSA-N" "molecular formula=C15H10O6" "total exact mass=286.04773804" "SMILES=C1=CC(=C(C=C1O)O)C2=C(C(=O)C3=C(O2)C=CC(=C3)O)O"
Num Peaks: 4
 149 92.192192; 
 229 21.821822; 
 255 100.000000; 
 285 76.176176; 


Name: 3,6,2',4'-Tetrahydroxyflavone
SYNON: $:00in-source
DB#: MetaboBASE0866
InChIKey: DNISTMYBAOCXPD-UHFFFAOYSA-N
Precursor_type: [M-H]-
Spectrum_type: MS2
PrecursorMZ: 285
Instrument_type: LC-ESI-TOF
Instrument: impact HD
Ion_mode: N
Collision_energy: 30
InChIKey: DNISTMYBAOCXPD-UHFFFAOYSA-N
Formula: C15H10O6
MW: 286
ExactMass: 286.04773803999996
Comments: "license=License CC-BY-NC-SA 4.0 International" "author=Plant Biology, The Noble Foundation, Ardmore, OK, US/Dennis Fine, Daniel Wherritt, and Lloyd Sumner" "instrument type=LC-ESI-TOF" "instrument=impact HD" "ionization=ESI" "ionization mode=negative" "ms level=MS2" "precursor m/z=285" "isolation width=5" "collision gas=Nitrogen" "collision energy=30" "peak width=0.017" "date=2014-01-11 01:55:16+01:00" "column=Waters Acquity BEH C18 1.7um x 2.1 x 150 mm" "retention time=384.6" "raw data file=C:\Data\Confirmed Standards\14Jan10 Confirmed stds MSMS\3,6,2',4'-Tetrahydroxyflavone.d" "precursor type=[M-H]-" "mass accuracy=141.97207017531852" "mass error=-0.04046203999996578" "SMILES=c1cc(c(cc1O)O)c2c(c(=O)c3cc(ccc3o2)O)O" "InChI=InChI=1S/C15H10O6/c16-7-2-4-12-10(5-7)13(19)14(20)15(21-12)9-3-1-8(17)6-11(9)18/h1-6,16-18,20H" "InChIKey=DNISTMYBAOCXPD-UHFFFAOYSA-N" "molecular formula=C15H10O6" "total exact mass=286.04773803999996" "SMILES=C1=CC(=C(C=C1O)O)C2=C(C(=O)C3=C(O2)C=CC(=C3)O)O"
Num Peaks: 6
 108 26.226226; 
 109 26.926927; 
 119 23.323323; 
 148 23.823824; 
 149 100.000000; 
 255 31.631632; 


Name: 3,6,2',4'-Tetrahydroxyflavone
SYNON: $:00in-source
DB#: MetaboBASE0867
InChIKey: DNISTMYBAOCXPD-UHFFFAOYSA-N
Instrument_type: LC-ESI-TOF
Instrument: impact HD
Ion_mode: N
InChIKey: DNISTMYBAOCXPD-UHFFFAOYSA-N
Formula: C15H10O6
MW: 286
ExactMass: 286.04773804
Comments: "license=License CC-BY-NC-SA 4.0 International" "author=Plant Biology, The Noble Foundation, Ardmore, OK, US/Dennis Fine, Daniel Wherritt, and Lloyd Sumner" "instrument type=LC-ESI-TOF" "instrument=impact HD" "ionization=ESI" "ionization mode=negative" "collision gas=Nitrogen" "peak width=0.016" "date=2014-01-11 01:55:16+01:00" "column=Waters Acquity BEH C18 1.7um x 2.1 x 150 mm" "retention time=384.6" "raw data file=C:\Data\Confirmed Standards\14Jan10 Confirmed stds MSMS\3,6,2',4'-Tetrahydroxyflavone.d" "SMILES=c1cc(c(cc1O)O)c2c(c(=O)c3cc(ccc3o2)O)O" "InChI=InChI=1S/C15H10O6/c16-7-2-4-12-10(5-7)13(19)14(20)15(21-12)9-3-1-8(17)6-11(9)18/h1-6,16-18,20H" "InChIKey=DNISTMYBAOCXPD-UHFFFAOYSA-N" "molecular formula=C15H10O6" "total exact mass=286.04773804" "SMILES=C1=CC(=C(C=C1O)O)C2=C(C(=O)C3=C(O2)C=CC(=C3)O)O"
Num Peaks: 17
 153 8.308308; 
 163 3.303303; 
 255 5.405405; 
 257 3.703704; 
 273 3.703704; 
 283 10.510511; 
 285 63.563564; 
 286 8.408408; 
 299 2.102102; 
 301 100.000000; 
 302 13.313313; 
 303 2.202202; 
 329 20.020020; 
 330 2.702703; 
 603 6.506507; 
 604 2.302302; 
 631 3.103103; 


Name: 3-Ara-GlcUA Soyasapogenol B
SYNON: $:00in-source
DB#: MetaboBASE0868
InChIKey: LASVNNIDKPXXMG-JOBDLQHVSA-N
Instrument_type: LC-ESI-TOF
Instrument: impact HD
Ion_mode: N
Collision_energy: 10
InChIKey: LASVNNIDKPXXMG-JOBDLQHVSA-N
Formula: C41H66O13
MW: 766
ExactMass: 766.450342172
Comments: "license=License CC-BY-NC-SA 4.0 International" "author=Plant Biology, The Noble Foundation, Ardmore, OK, US/Dennis Fine, Daniel Wherritt, and Lloyd Sumner" "instrument type=LC-ESI-TOF" "instrument=impact HD" "ionization=ESI" "ionization mode=negative" "collision gas=Nitrogen" "collision energy=10" "peak width=0.016" "date=2014-08-13 17:01:40+02:00" "column=Waters Acquity BEH C18 1.7um x 2.1 x 150 mm" "retention time=1074.6" "raw data file=C:\Data\Confirmed standards 24_July_2014\Z Lei std 24July2014 new col_1-F,8_01_604.d" "molecular formula=C41H66O13" "total exact mass=766.450342172" "SMILES=O=C(O)C1OC(OC2CCC3(C)C4CC=C5C6CC(C)(C)CC(O)C6(C)CCC5(C)C4(C)CCC3C2(C)CO)C(OC7OCC(O)C(O)C7O)C(O)C1O" "InChI=InChI=1S/C41H66O13/c1-36(2)16-21-20-8-9-24-38(4)12-11-26(39(5,19-42)23(38)10-13-41(24,7)40(20,6)15-14-37(21,3)25(44)17-36)52-35-32(29(47)28(46)31(53-35)33(49)50)54-34-30(48)27(45)22(43)18-51-34/h8,21-32,34-35,42-48H,9-19H2,1-7H3,(H,49,50)/t21?,22-,23+,24?,25+,26-,27-,28-,29-,30+,31-,32+,34+,35+,37+,38-,39+,40+,41+/m0/s1" "InChIKey=LASVNNIDKPXXMG-JOBDLQHVSA-N"
Num Peaks: 22
 112 1.701702; 
 116 1.201201; 
 128 1.701702; 
 146 0.600601; 
 174 2.302302; 
 304 1.701702; 
 473 0.300300; 
 487 1.301301; 
 531 2.102102; 
 557 4.104104; 
 655 0.400400; 
 683 0.400400; 
 765 100.000000; 
 766 46.646647; 
 767 13.613614; 
 768 3.003003; 
 833 10.710711; 
 834 4.804805; 
 835 0.800801; 
 895 2.602603; 
 901 1.901902; 
 911 1.001001; 


Name: 3-Ara-GlcUA Soyasapogenol B
SYNON: $:00in-source
DB#: MetaboBASE0869
InChIKey: LASVNNIDKPXXMG-JOBDLQHVSA-N
Instrument_type: LC-ESI-TOF
Instrument: impact HD
Ion_mode: N
InChIKey: LASVNNIDKPXXMG-JOBDLQHVSA-N
Formula: C41H66O13
MW: 766
ExactMass: 766.450342172
Comments: "license=License CC-BY-NC-SA 4.0 International" "author=Plant Biology, The Noble Foundation, Ardmore, OK, US/Dennis Fine, Daniel Wherritt, and Lloyd Sumner" "instrument type=LC-ESI-TOF" "instrument=impact HD" "ionization=ESI" "ionization mode=negative" "collision gas=Nitrogen" "peak width=0.011" "date=2014-07-25 22:27:39+02:00" "column=Waters Acquity BEH C18 1.7um x 2.1 x 150 mm" "retention time=1074.6" "raw data file=C:\Data\Confirmed standards 24_July_2014\MSMS\Z Lei std 28 May 2014_1-F,8_01_480.d" "molecular formula=C41H66O13" "total exact mass=766.450342172" "SMILES=O=C(O)C1OC(OC2CCC3(C)C4CC=C5C6CC(C)(C)CC(O)C6(C)CCC5(C)C4(C)CCC3C2(C)CO)C(OC7OCC(O)C(O)C7O)C(O)C1O" "InChI=InChI=1S/C41H66O13/c1-36(2)16-21-20-8-9-24-38(4)12-11-26(39(5,19-42)23(38)10-13-41(24,7)40(20,6)15-14-37(21,3)25(44)17-36)52-35-32(29(47)28(46)31(53-35)33(49)50)54-34-30(48)27(45)22(43)18-51-34/h8,21-32,34-35,42-48H,9-19H2,1-7H3,(H,49,50)/t21?,22-,23+,24?,25+,26-,27-,28-,29-,30+,31-,32+,34+,35+,37+,38-,39+,40+,41+/m0/s1" "InChIKey=LASVNNIDKPXXMG-JOBDLQHVSA-N"
Num Peaks: 17
 487 6.906907; 
 488 2.402402; 
 666 3.703704; 
 765 100.000000; 
 766 46.146146; 
 767 13.613614; 
 768 3.603604; 
 833 10.810811; 
 834 6.206206; 
 835 2.002002; 
 883 4.104104; 
 884 2.002002; 
 895 2.202202; 
 901 3.703704; 
 902 2.402402; 
 911 2.902903; 
 969 2.502503; 


Name: Decanoic acid
SYNON: $:00in-source
DB#: MetaboBASE0870
InChIKey: GHVNFZFCNZKVNT-UHFFFAOYSA-N
Precursor_type: [M-H]-
Spectrum_type: MS2
PrecursorMZ: 171.1394
Instrument_type: LC-ESI-TOF
Instrument: impact HD
Ion_mode: N
Collision_energy: 10
InChIKey: GHVNFZFCNZKVNT-UHFFFAOYSA-N
Formula: C10H20O2
MW: 172
ExactMass: 172.14632988
Comments: "license=License CC-BY-NC-SA 4.0 International" "author=Plant Biology, The Noble Foundation, Ardmore, OK, US/Dennis Fine, Daniel Wherritt, and Lloyd Sumner" "instrument type=LC-ESI-TOF" "instrument=impact HD" "ionization=ESI" "ionization mode=negative" "ms level=MS2" "precursor m/z=171.1394" "isolation width=5" "collision gas=Nitrogen" "collision energy=10" "peak width=0.015" "date=2014-08-18 18:18:34+02:00" "column=Waters Acquity BEH C18 1.7um x 2.1 x 150 mm" "retention time=1175.4" "raw data file=C:\Data\Confirmed standards 18_Aug_2014\Decanoic acid vial 171 MSMS_1-C,3_01_633.d" "precursor type=[M-H]-" "mass accuracy=2.0224448606750647" "mass error=3.461199999890141E-4" "cas number=334-48-5" "SMILES=CCCCCCCCCC(=O)O" "InChI=InChI=1S/C10H20O2/c1-2-3-4-5-6-7-8-9-10(11)12/h2-9H2,1H3,(H,11,12)" "InChIKey=GHVNFZFCNZKVNT-UHFFFAOYSA-N" "molecular formula=C10H20O2" "total exact mass=172.14632988" "SMILES=CCCCCCCCCC(=O)O"
Num Peaks: 9
 171 100.000000; 
 172 6.906907; 
 173 0.500501; 
 454 0.100100; 
 936 0.100100; 
 1016 0.100100; 
 1285 0.100100; 
 1300 0.100100; 
 1409 0.100100; 


Name: Decanoic acid
SYNON: $:00in-source
DB#: MetaboBASE0871
InChIKey: GHVNFZFCNZKVNT-UHFFFAOYSA-N
Instrument_type: LC-ESI-TOF
Instrument: impact HD
Ion_mode: N
InChIKey: GHVNFZFCNZKVNT-UHFFFAOYSA-N
Formula: C10H20O2
MW: 172
ExactMass: 172.14632988
Comments: "license=License CC-BY-NC-SA 4.0 International" "author=Plant Biology, The Noble Foundation, Ardmore, OK, US/Dennis Fine, Daniel Wherritt, and Lloyd Sumner" "instrument type=LC-ESI-TOF" "instrument=impact HD" "ionization=ESI" "ionization mode=negative" "collision gas=Nitrogen" "peak width=0.012" "date=2014-08-18 18:18:34+02:00" "column=Waters Acquity BEH C18 1.7um x 2.1 x 150 mm" "retention time=1175.4" "raw data file=C:\Data\Confirmed standards 18_Aug_2014\Decanoic acid vial 171 MSMS_1-C,3_01_633.d" "cas number=334-48-5" "SMILES=CCCCCCCCCC(=O)O" "InChI=InChI=1S/C10H20O2/c1-2-3-4-5-6-7-8-9-10(11)12/h2-9H2,1H3,(H,11,12)" "InChIKey=GHVNFZFCNZKVNT-UHFFFAOYSA-N" "molecular formula=C10H20O2" "total exact mass=172.14632988" "SMILES=CCCCCCCCCC(=O)O"
Num Peaks: 16
 171 100.000000; 
 172 9.709710; 
 239 1.701702; 
 271 2.002002; 
 301 1.801802; 
 362 1.001001; 
 365 6.806807; 
 366 1.601602; 
 426 3.403403; 
 427 1.201201; 
 427 1.301301; 
 488 1.901902; 
 553 1.601602; 
 559 1.101101; 
 614 1.401401; 
 740 1.401401; 


Name: Decanoic acid
SYNON: $:00in-source
DB#: MetaboBASE0872
InChIKey: GHVNFZFCNZKVNT-UHFFFAOYSA-N
Precursor_type: [M-H]-
Spectrum_type: MS2
PrecursorMZ: 171.1381
Instrument_type: LC-ESI-TOF
Instrument: impact HD
Ion_mode: N
Collision_energy: 20
InChIKey: GHVNFZFCNZKVNT-UHFFFAOYSA-N
Formula: C10H20O2
MW: 172
ExactMass: 172.14632988
Comments: "license=License CC-BY-NC-SA 4.0 International" "author=Plant Biology, The Noble Foundation, Ardmore, OK, US/Dennis Fine, Daniel Wherritt, and Lloyd Sumner" "instrument type=LC-ESI-TOF" "instrument=impact HD" "ionization=ESI" "ionization mode=negative" "ms level=MS2" "precursor m/z=171.1381" "isolation width=5" "collision gas=Nitrogen" "collision energy=20" "peak width=0.019" "date=2014-08-18 18:18:34+02:00" "column=Waters Acquity BEH C18 1.7um x 2.1 x 150 mm" "retention time=1175.4" "raw data file=C:\Data\Confirmed standards 18_Aug_2014\Decanoic acid vial 171 MSMS_1-C,3_01_633.d" "precursor type=[M-H]-" "mass accuracy=5.573744245128922" "mass error=-9.53879999997298E-4" "cas number=334-48-5" "SMILES=CCCCCCCCCC(=O)O" "InChI=InChI=1S/C10H20O2/c1-2-3-4-5-6-7-8-9-10(11)12/h2-9H2,1H3,(H,11,12)" "InChIKey=GHVNFZFCNZKVNT-UHFFFAOYSA-N" "molecular formula=C10H20O2" "total exact mass=172.14632988" "SMILES=CCCCCCCCCC(=O)O"
Num Peaks: 2
 171 100.000000; 
 172 8.808809; 


Name: Pentadecanoic acid
SYNON: $:00in-source
DB#: MetaboBASE0873
InChIKey: WQEPLUUGTLDZJY-UHFFFAOYSA-N
Precursor_type: [M-H]-
Spectrum_type: MS2
PrecursorMZ: 241.2173
Instrument_type: LC-ESI-TOF
Instrument: impact HD
Ion_mode: N
Collision_energy: 20
InChIKey: WQEPLUUGTLDZJY-UHFFFAOYSA-N
Formula: C15H30O2
MW: 242
ExactMass: 242.2245802
Comments: "license=License CC-BY-NC-SA 4.0 International" "author=Plant Biology, The Noble Foundation, Ardmore, OK, US/Dennis Fine, Daniel Wherritt, and Lloyd Sumner" "instrument type=LC-ESI-TOF" "instrument=impact HD" "ionization=ESI" "ionization mode=negative" "ms level=MS2" "precursor m/z=241.2173" "isolation width=5" "collision gas=Nitrogen" "collision energy=20" "peak width=0.013" "date=2014-08-18 21:42:48+02:00" "column=Waters Acquity BEH C18 1.7um x 2.1 x 150 mm" "retention time=1791" "raw data file=C:\Data\Confirmed standards 18_Aug_2014\n-Pentadecanoic acidV200 MSMS _1-D,1_01_638.d" "precursor type=[M-H]-" "mass accuracy=0.01741168650195921" "mass error=-4.200000006449045E-6" "cas number=1002-84-2" "SMILES=CCCCCCCCCCCCCCC(=O)O" "InChI=InChI=1S/C15H30O2/c1-2-3-4-5-6-7-8-9-10-11-12-13-14-15(16)17/h2-14H2,1H3,(H,16,17)" "InChIKey=WQEPLUUGTLDZJY-UHFFFAOYSA-N" "molecular formula=C15H30O2" "total exact mass=242.2245802" "SMILES=CCCCCCCCCCCCCCC(=O)O"
Num Peaks: 5
 223 0.500501; 
 241 100.000000; 
 241 0.200200; 
 242 10.010010; 
 243 0.600601; 


Name: Pentadecanoic acid
SYNON: $:00in-source
DB#: MetaboBASE0874
InChIKey: WQEPLUUGTLDZJY-UHFFFAOYSA-N
Precursor_type: [M-H]-
Spectrum_type: MS2
PrecursorMZ: 241.2164
Instrument_type: LC-ESI-TOF
Instrument: impact HD
Ion_mode: N
Collision_energy: 30
InChIKey: WQEPLUUGTLDZJY-UHFFFAOYSA-N
Formula: C15H30O2
MW: 242
ExactMass: 242.2245802
Comments: "license=License CC-BY-NC-SA 4.0 International" "author=Plant Biology, The Noble Foundation, Ardmore, OK, US/Dennis Fine, Daniel Wherritt, and Lloyd Sumner" "instrument type=LC-ESI-TOF" "instrument=impact HD" "ionization=ESI" "ionization mode=negative" "ms level=MS2" "precursor m/z=241.2164" "isolation width=5" "collision gas=Nitrogen" "collision energy=30" "peak width=0.018" "date=2014-08-18 21:42:48+02:00" "column=Waters Acquity BEH C18 1.7um x 2.1 x 150 mm" "retention time=1791" "raw data file=C:\Data\Confirmed standards 18_Aug_2014\n-Pentadecanoic acidV200 MSMS _1-D,1_01_638.d" "precursor type=[M-H]-" "mass accuracy=3.7485013457124152" "mass error=-9.042000000079042E-4" "cas number=1002-84-2" "SMILES=CCCCCCCCCCCCCCC(=O)O" "InChI=InChI=1S/C15H30O2/c1-2-3-4-5-6-7-8-9-10-11-12-13-14-15(16)17/h2-14H2,1H3,(H,16,17)" "InChIKey=WQEPLUUGTLDZJY-UHFFFAOYSA-N" "molecular formula=C15H30O2" "total exact mass=242.2245802" "SMILES=CCCCCCCCCCCCCCC(=O)O"
Num Peaks: 4
 223 6.406406; 
 224 1.601602; 
 241 100.000000; 
 242 12.712713; 


Name: Pentadecanoic acid
SYNON: $:00in-source
DB#: MetaboBASE0875
InChIKey: WQEPLUUGTLDZJY-UHFFFAOYSA-N
Precursor_type: [M-H]-
Spectrum_type: MS2
PrecursorMZ: 241.2174
Instrument_type: LC-ESI-TOF
Instrument: impact HD
Ion_mode: N
Collision_energy: 10
InChIKey: WQEPLUUGTLDZJY-UHFFFAOYSA-N
Formula: C15H30O2
MW: 242
ExactMass: 242.2245802
Comments: "license=License CC-BY-NC-SA 4.0 International" "author=Plant Biology, The Noble Foundation, Ardmore, OK, US/Dennis Fine, Daniel Wherritt, and Lloyd Sumner" "instrument type=LC-ESI-TOF" "instrument=impact HD" "ionization=ESI" "ionization mode=negative" "ms level=MS2" "precursor m/z=241.2174" "isolation width=5" "collision gas=Nitrogen" "collision energy=10" "peak width=0.012" "date=2014-08-18 21:42:48+02:00" "column=Waters Acquity BEH C18 1.7um x 2.1 x 150 mm" "retention time=1791" "raw data file=C:\Data\Confirmed standards 18_Aug_2014\n-Pentadecanoic acidV200 MSMS _1-D,1_01_638.d" "precursor type=[M-H]-" "mass accuracy=0.39715211256265354" "mass error=9.579999999687061E-5" "cas number=1002-84-2" "SMILES=CCCCCCCCCCCCCCC(=O)O" "InChI=InChI=1S/C15H30O2/c1-2-3-4-5-6-7-8-9-10-11-12-13-14-15(16)17/h2-14H2,1H3,(H,16,17)" "InChIKey=WQEPLUUGTLDZJY-UHFFFAOYSA-N" "molecular formula=C15H30O2" "total exact mass=242.2245802" "SMILES=CCCCCCCCCCCCCCC(=O)O"
Num Peaks: 7
 241 100.000000; 
 241 0.300300; 
 241 0.100100; 
 241 0.200200; 
 241 0.900901; 
 242 9.109109; 
 243 0.500501; 


Name: Pentadecanoic acid
SYNON: $:00in-source
DB#: MetaboBASE0876
InChIKey: WQEPLUUGTLDZJY-UHFFFAOYSA-N
Instrument_type: LC-ESI-TOF
Instrument: impact HD
Ion_mode: N
InChIKey: WQEPLUUGTLDZJY-UHFFFAOYSA-N
Formula: C15H30O2
MW: 242
ExactMass: 242.2245802
Comments: "license=License CC-BY-NC-SA 4.0 International" "author=Plant Biology, The Noble Foundation, Ardmore, OK, US/Dennis Fine, Daniel Wherritt, and Lloyd Sumner" "instrument type=LC-ESI-TOF" "instrument=impact HD" "ionization=ESI" "ionization mode=negative" "collision gas=Nitrogen" "peak width=0.019" "date=2014-08-18 21:42:48+02:00" "column=Waters Acquity BEH C18 1.7um x 2.1 x 150 mm" "retention time=1791" "raw data file=C:\Data\Confirmed standards 18_Aug_2014\n-Pentadecanoic acidV200 MSMS _1-D,1_01_638.d" "cas number=1002-84-2" "SMILES=CCCCCCCCCCCCCCC(=O)O" "InChI=InChI=1S/C15H30O2/c1-2-3-4-5-6-7-8-9-10-11-12-13-14-15(16)17/h2-14H2,1H3,(H,16,17)" "InChIKey=WQEPLUUGTLDZJY-UHFFFAOYSA-N" "molecular formula=C15H30O2" "total exact mass=242.2245802" "SMILES=CCCCCCCCCCCCCCC(=O)O"
Num Peaks: 13
 128 0.200200; 
 241 0.300300; 
 241 100.000000; 
 241 0.200200; 
 241 0.300300; 
 241 0.300300; 
 241 1.201201; 
 242 14.814815; 
 243 1.301301; 
 309 0.500501; 
 341 2.302302; 
 342 0.700701; 
 343 0.200200; 


Name: Myristic acid
SYNON: $:00in-source
DB#: MetaboBASE0877
InChIKey: TUNFSRHWOTWDNC-UHFFFAOYSA-N
Precursor_type: [M-H]-
Spectrum_type: MS2
PrecursorMZ: 227.2018
Instrument_type: LC-ESI-TOF
Instrument: impact HD
Ion_mode: N
Collision_energy: 30
InChIKey: TUNFSRHWOTWDNC-UHFFFAOYSA-N
Formula: C14H28O2
MW: 228
ExactMass: 228.208930136
Comments: "license=License CC-BY-NC-SA 4.0 International" "author=Plant Biology, The Noble Foundation, Ardmore, OK, US/Dennis Fine, Daniel Wherritt, and Lloyd Sumner" "instrument type=LC-ESI-TOF" "instrument=impact HD" "ionization=ESI" "ionization mode=negative" "ms level=MS2" "precursor m/z=227.2018" "isolation width=5" "collision gas=Nitrogen" "collision energy=30" "peak width=0.02" "date=2014-08-18 20:21:08+02:00" "column=Waters Acquity BEH C18 1.7um x 2.1 x 150 mm" "retention time=1681.8" "raw data file=C:\Data\Confirmed standards 18_Aug_2014\Myristic acid vial 190 MSMS_1-C,7_01_636.d" "precursor type=[M-H]-" "mass accuracy=0.6420019559247109" "mass error=1.4586399998961497E-4" "cas number=544-63-8" "SMILES=CCCCCCCCCCCCCC(=O)O" "InChI=InChI=1S/C14H28O2/c1-2-3-4-5-6-7-8-9-10-11-12-13-14(15)16/h2-13H2,1H3,(H,15,16)" "InChIKey=TUNFSRHWOTWDNC-UHFFFAOYSA-N" "molecular formula=C14H28O2" "total exact mass=228.208930136" "SMILES=CCCCCCCCCCCCCC(=O)O"
Num Peaks: 3
 209 7.307307; 
 227 100.000000; 
 228 15.915916; 


Name: Myristic acid
SYNON: $:00in-source
DB#: MetaboBASE0878
InChIKey: TUNFSRHWOTWDNC-UHFFFAOYSA-N
Precursor_type: [M-H]-
Spectrum_type: MS2
PrecursorMZ: 227.2023
Instrument_type: LC-ESI-TOF
Instrument: impact HD
Ion_mode: N
Collision_energy: 10
InChIKey: TUNFSRHWOTWDNC-UHFFFAOYSA-N
Formula: C14H28O2
MW: 228
ExactMass: 228.208930136
Comments: "license=License CC-BY-NC-SA 4.0 International" "author=Plant Biology, The Noble Foundation, Ardmore, OK, US/Dennis Fine, Daniel Wherritt, and Lloyd Sumner" "instrument type=LC-ESI-TOF" "instrument=impact HD" "ionization=ESI" "ionization mode=negative" "ms level=MS2" "precursor m/z=227.2023" "isolation width=5" "collision gas=Nitrogen" "collision energy=10" "peak width=0.012" "date=2014-08-18 20:21:08+02:00" "column=Waters Acquity BEH C18 1.7um x 2.1 x 150 mm" "retention time=1681.8" "raw data file=C:\Data\Confirmed standards 18_Aug_2014\Myristic acid vial 190 MSMS_1-C,7_01_636.d" "precursor type=[M-H]-" "mass accuracy=2.8426824904774874" "mass error=6.458640000062132E-4" "cas number=544-63-8" "SMILES=CCCCCCCCCCCCCC(=O)O" "InChI=InChI=1S/C14H28O2/c1-2-3-4-5-6-7-8-9-10-11-12-13-14(15)16/h2-13H2,1H3,(H,15,16)" "InChIKey=TUNFSRHWOTWDNC-UHFFFAOYSA-N" "molecular formula=C14H28O2" "total exact mass=228.208930136" "SMILES=CCCCCCCCCCCCCC(=O)O"
Num Peaks: 4
 227 100.000000; 
 227 0.500501; 
 228 9.109109; 
 229 0.500501; 


Name: Myristic acid
SYNON: $:00in-source
DB#: MetaboBASE0879
InChIKey: TUNFSRHWOTWDNC-UHFFFAOYSA-N
Precursor_type: [M-H]-
Spectrum_type: MS2
PrecursorMZ: 227.2021
Instrument_type: LC-ESI-TOF
Instrument: impact HD
Ion_mode: N
Collision_energy: 20
InChIKey: TUNFSRHWOTWDNC-UHFFFAOYSA-N
Formula: C14H28O2
MW: 228
ExactMass: 228.208930136
Comments: "license=License CC-BY-NC-SA 4.0 International" "author=Plant Biology, The Noble Foundation, Ardmore, OK, US/Dennis Fine, Daniel Wherritt, and Lloyd Sumner" "instrument type=LC-ESI-TOF" "instrument=impact HD" "ionization=ESI" "ionization mode=negative" "ms level=MS2" "precursor m/z=227.2021" "isolation width=5" "collision gas=Nitrogen" "collision energy=20" "peak width=0.014" "date=2014-08-18 20:21:08+02:00" "column=Waters Acquity BEH C18 1.7um x 2.1 x 150 mm" "retention time=1681.8" "raw data file=C:\Data\Confirmed standards 18_Aug_2014\Myristic acid vial 190 MSMS_1-C,7_01_636.d" "precursor type=[M-H]-" "mass accuracy=1.9624114389769016" "mass error=4.4586399999957393E-4" "cas number=544-63-8" "SMILES=CCCCCCCCCCCCCC(=O)O" "InChI=InChI=1S/C14H28O2/c1-2-3-4-5-6-7-8-9-10-11-12-13-14(15)16/h2-13H2,1H3,(H,15,16)" "InChIKey=TUNFSRHWOTWDNC-UHFFFAOYSA-N" "molecular formula=C14H28O2" "total exact mass=228.208930136" "SMILES=CCCCCCCCCCCCCC(=O)O"
Num Peaks: 4
 209 0.400400; 
 227 100.000000; 
 228 10.010010; 
 229 0.500501; 


Name: Myristic acid
SYNON: $:00in-source
DB#: MetaboBASE0880
InChIKey: TUNFSRHWOTWDNC-UHFFFAOYSA-N
Instrument_type: LC-ESI-TOF
Instrument: impact HD
Ion_mode: N
InChIKey: TUNFSRHWOTWDNC-UHFFFAOYSA-N
Formula: C14H28O2
MW: 228
ExactMass: 228.208930136
Comments: "license=License CC-BY-NC-SA 4.0 International" "author=Plant Biology, The Noble Foundation, Ardmore, OK, US/Dennis Fine, Daniel Wherritt, and Lloyd Sumner" "instrument type=LC-ESI-TOF" "instrument=impact HD" "ionization=ESI" "ionization mode=negative" "collision gas=Nitrogen" "peak width=0.019" "date=2014-08-18 20:21:08+02:00" "column=Waters Acquity BEH C18 1.7um x 2.1 x 150 mm" "retention time=1681.8" "raw data file=C:\Data\Confirmed standards 18_Aug_2014\Myristic acid vial 190 MSMS_1-C,7_01_636.d" "cas number=544-63-8" "SMILES=CCCCCCCCCCCCCC(=O)O" "InChI=InChI=1S/C14H28O2/c1-2-3-4-5-6-7-8-9-10-11-12-13-14(15)16/h2-13H2,1H3,(H,15,16)" "InChIKey=TUNFSRHWOTWDNC-UHFFFAOYSA-N" "molecular formula=C14H28O2" "total exact mass=228.208930136" "SMILES=CCCCCCCCCCCCCC(=O)O"
Num Peaks: 9
 128 0.200200; 
 227 100.000000; 
 227 0.300300; 
 227 0.800801; 
 228 13.513514; 
 229 1.201201; 
 295 0.500501; 
 327 2.602603; 
 328 0.600601; 


Name: Tridecanoic acid
SYNON: $:00in-source
DB#: MetaboBASE0881
InChIKey: SZHOJFHSIKHZHA-UHFFFAOYSA-N
Instrument_type: LC-ESI-TOF
Instrument: impact HD
Ion_mode: N
InChIKey: SZHOJFHSIKHZHA-UHFFFAOYSA-N
Formula: C13H26O2
MW: 214
ExactMass: 214.193280072
Comments: "license=License CC-BY-NC-SA 4.0 International" "author=Plant Biology, The Noble Foundation, Ardmore, OK, US/Dennis Fine, Daniel Wherritt, and Lloyd Sumner" "instrument type=LC-ESI-TOF" "instrument=impact HD" "ionization=ESI" "ionization mode=negative" "collision gas=Nitrogen" "peak width=0.013" "date=2014-08-18 23:04:15+02:00" "column=Waters Acquity BEH C18 1.7um x 2.1 x 150 mm" "retention time=1567.8" "raw data file=C:\Data\Confirmed standards 18_Aug_2014\n-Tridecanoic acid v218 MSMS_1-D,3_01_640.d" "cas number=638-53-9" "SMILES=CCCCCCCCCCCCC(=O)O" "InChI=InChI=1S/C13H26O2/c1-2-3-4-5-6-7-8-9-10-11-12-13(14)15/h2-12H2,1H3,(H,14,15)" "InChIKey=SZHOJFHSIKHZHA-UHFFFAOYSA-N" "molecular formula=C13H26O2" "total exact mass=214.193280072" "SMILES=CCCCCCCCCCCCC(=O)O"
Num Peaks: 13
 213 100.000000; 
 214 13.913914; 
 215 1.201201; 
 281 2.902903; 
 313 4.604605; 
 314 1.201201; 
 343 1.801802; 
 449 5.505506; 
 450 1.401401; 
 510 1.401401; 
 511 1.401401; 
 679 1.701702; 
 685 1.001001; 


Name: Tridecanoic acid
SYNON: $:00in-source
DB#: MetaboBASE0882
InChIKey: SZHOJFHSIKHZHA-UHFFFAOYSA-N
Precursor_type: [M-H]-
Spectrum_type: MS2
PrecursorMZ: 213.1872
Instrument_type: LC-ESI-TOF
Instrument: impact HD
Ion_mode: N
Collision_energy: 20
InChIKey: SZHOJFHSIKHZHA-UHFFFAOYSA-N
Formula: C13H26O2
MW: 214
ExactMass: 214.193280072
Comments: "license=License CC-BY-NC-SA 4.0 International" "author=Plant Biology, The Noble Foundation, Ardmore, OK, US/Dennis Fine, Daniel Wherritt, and Lloyd Sumner" "instrument type=LC-ESI-TOF" "instrument=impact HD" "ionization=ESI" "ionization mode=negative" "ms level=MS2" "precursor m/z=213.1872" "isolation width=5" "collision gas=Nitrogen" "collision energy=20" "peak width=0.018" "date=2014-08-18 23:04:15+02:00" "column=Waters Acquity BEH C18 1.7um x 2.1 x 150 mm" "retention time=1567.8" "raw data file=C:\Data\Confirmed standards 18_Aug_2014\n-Tridecanoic acid v218 MSMS_1-D,3_01_640.d" "precursor type=[M-H]-" "mass accuracy=5.609755182239526" "mass error=0.0011959279999871342" "cas number=638-53-9" "SMILES=CCCCCCCCCCCCC(=O)O" "InChI=InChI=1S/C13H26O2/c1-2-3-4-5-6-7-8-9-10-11-12-13(14)15/h2-12H2,1H3,(H,14,15)" "InChIKey=SZHOJFHSIKHZHA-UHFFFAOYSA-N" "molecular formula=C13H26O2" "total exact mass=214.193280072" "SMILES=CCCCCCCCCCCCC(=O)O"
Num Peaks: 5
 195 1.701702; 
 213 100.000000; 
 214 10.410410; 
 215 0.600601; 
 1499 0.500501; 


Name: Tridecanoic acid
SYNON: $:00in-source
DB#: MetaboBASE0883
InChIKey: SZHOJFHSIKHZHA-UHFFFAOYSA-N
Precursor_type: [M-H]-
Spectrum_type: MS2
PrecursorMZ: 213.1877
Instrument_type: LC-ESI-TOF
Instrument: impact HD
Ion_mode: N
Collision_energy: 10
InChIKey: SZHOJFHSIKHZHA-UHFFFAOYSA-N
Formula: C13H26O2
MW: 214
ExactMass: 214.193280072
Comments: "license=License CC-BY-NC-SA 4.0 International" "author=Plant Biology, The Noble Foundation, Ardmore, OK, US/Dennis Fine, Daniel Wherritt, and Lloyd Sumner" "instrument type=LC-ESI-TOF" "instrument=impact HD" "ionization=ESI" "ionization mode=negative" "ms level=MS2" "precursor m/z=213.1877" "isolation width=5" "collision gas=Nitrogen" "collision energy=10" "peak width=0.014" "date=2014-08-18 23:04:15+02:00" "column=Waters Acquity BEH C18 1.7um x 2.1 x 150 mm" "retention time=1567.8" "raw data file=C:\Data\Confirmed standards 18_Aug_2014\n-Tridecanoic acid v218 MSMS_1-D,3_01_640.d" "precursor type=[M-H]-" "mass accuracy=7.955093094037473" "mass error=0.0016959280000037324" "cas number=638-53-9" "SMILES=CCCCCCCCCCCCC(=O)O" "InChI=InChI=1S/C13H26O2/c1-2-3-4-5-6-7-8-9-10-11-12-13(14)15/h2-12H2,1H3,(H,14,15)" "InChIKey=SZHOJFHSIKHZHA-UHFFFAOYSA-N" "molecular formula=C13H26O2" "total exact mass=214.193280072" "SMILES=CCCCCCCCCCCCC(=O)O"
Num Peaks: 7
 213 100.000000; 
 213 0.100100; 
 213 0.300300; 
 214 10.410410; 
 215 0.800801; 
 1181 0.100100; 
 1316 0.100100; 


Name: Undecanoic acid
SYNON: $:00in-source
DB#: MetaboBASE0884
InChIKey: ZDPHROOEEOARMN-UHFFFAOYSA-N
Precursor_type: [M-H]-
Spectrum_type: MS2
PrecursorMZ: 185.1552
Instrument_type: LC-ESI-TOF
Instrument: impact HD
Ion_mode: N
Collision_energy: 10
InChIKey: ZDPHROOEEOARMN-UHFFFAOYSA-N
Formula: C11H22O2
MW: 186
ExactMass: 186.161979944
Comments: "license=License CC-BY-NC-SA 4.0 International" "author=Plant Biology, The Noble Foundation, Ardmore, OK, US/Dennis Fine, Daniel Wherritt, and Lloyd Sumner" "instrument type=LC-ESI-TOF" "instrument=impact HD" "ionization=ESI" "ionization mode=negative" "ms level=MS2" "precursor m/z=185.1552" "isolation width=5" "collision gas=Nitrogen" "collision energy=10" "peak width=0.014" "date=2014-08-19 00:25:54+02:00" "column=Waters Acquity BEH C18 1.7um x 2.1 x 150 mm" "retention time=1313.4" "raw data file=C:\Data\Confirmed standards 18_Aug_2014\n-Undecanoic acid v222 MSMS_1-D,5_01_642.d" "precursor type=[M-H]-" "mass accuracy=2.679136205750144" "mass error=4.960560000029091E-4" "cas number=112-37-8" "SMILES=CCCCCCCCCCC(=O)O" "InChI=InChI=1S/C11H22O2/c1-2-3-4-5-6-7-8-9-10-11(12)13/h2-10H2,1H3,(H,12,13)" "InChIKey=ZDPHROOEEOARMN-UHFFFAOYSA-N" "molecular formula=C11H22O2" "total exact mass=186.161979944" "SMILES=CCCCCCCCCCC(=O)O"
Num Peaks: 4
 185 100.000000; 
 185 0.500501; 
 186 8.508509; 
 187 0.600601; 


Name: Undecanoic acid
SYNON: $:00in-source
DB#: MetaboBASE0885
InChIKey: ZDPHROOEEOARMN-UHFFFAOYSA-N
Precursor_type: [M-H]-
Spectrum_type: MS2
PrecursorMZ: 185.1545
Instrument_type: LC-ESI-TOF
Instrument: impact HD
Ion_mode: N
Collision_energy: 20
InChIKey: ZDPHROOEEOARMN-UHFFFAOYSA-N
Formula: C11H22O2
MW: 186
ExactMass: 186.161979944
Comments: "license=License CC-BY-NC-SA 4.0 International" "author=Plant Biology, The Noble Foundation, Ardmore, OK, US/Dennis Fine, Daniel Wherritt, and Lloyd Sumner" "instrument type=LC-ESI-TOF" "instrument=impact HD" "ionization=ESI" "ionization mode=negative" "ms level=MS2" "precursor m/z=185.1545" "isolation width=5" "collision gas=Nitrogen" "collision energy=20" "peak width=0.02" "date=2014-08-19 00:25:54+02:00" "column=Waters Acquity BEH C18 1.7um x 2.1 x 150 mm" "retention time=1313.4" "raw data file=C:\Data\Confirmed standards 18_Aug_2014\n-Undecanoic acid v222 MSMS_1-D,5_01_642.d" "precursor type=[M-H]-" "mass accuracy=1.1014801152113873" "mass error=-2.0394399999190682E-4" "cas number=112-37-8" "SMILES=CCCCCCCCCCC(=O)O" "InChI=InChI=1S/C11H22O2/c1-2-3-4-5-6-7-8-9-10-11(12)13/h2-10H2,1H3,(H,12,13)" "InChIKey=ZDPHROOEEOARMN-UHFFFAOYSA-N" "molecular formula=C11H22O2" "total exact mass=186.161979944" "SMILES=CCCCCCCCCCC(=O)O"
Num Peaks: 3
 167 2.502503; 
 185 100.000000; 
 186 7.507508; 


Name: Undecanoic acid
SYNON: $:00in-source
DB#: MetaboBASE0886
InChIKey: ZDPHROOEEOARMN-UHFFFAOYSA-N
Instrument_type: LC-ESI-TOF
Instrument: impact HD
Ion_mode: N
InChIKey: ZDPHROOEEOARMN-UHFFFAOYSA-N
Formula: C11H22O2
MW: 186
ExactMass: 186.161979944
Comments: "license=License CC-BY-NC-SA 4.0 International" "author=Plant Biology, The Noble Foundation, Ardmore, OK, US/Dennis Fine, Daniel Wherritt, and Lloyd Sumner" "instrument type=LC-ESI-TOF" "instrument=impact HD" "ionization=ESI" "ionization mode=negative" "collision gas=Nitrogen" "peak width=0.013" "date=2014-08-19 00:25:54+02:00" "column=Waters Acquity BEH C18 1.7um x 2.1 x 150 mm" "retention time=1313.4" "raw data file=C:\Data\Confirmed standards 18_Aug_2014\n-Undecanoic acid v222 MSMS_1-D,5_01_642.d" "cas number=112-37-8" "SMILES=CCCCCCCCCCC(=O)O" "InChI=InChI=1S/C11H22O2/c1-2-3-4-5-6-7-8-9-10-11(12)13/h2-10H2,1H3,(H,12,13)" "InChIKey=ZDPHROOEEOARMN-UHFFFAOYSA-N" "molecular formula=C11H22O2" "total exact mass=186.161979944" "SMILES=CCCCCCCCCCC(=O)O"
Num Peaks: 11
 185 100.000000; 
 185 0.900901; 
 186 11.111111; 
 187 0.900901; 
 253 1.001001; 
 285 0.900901; 
 315 1.001001; 
 393 3.803804; 
 394 1.001001; 
 454 1.001001; 
 595 0.900901; 


Name: Behenic acid
SYNON: $:00in-source
DB#: MetaboBASE0887
InChIKey: UKMSUNONTOPOIO-UHFFFAOYSA-N
Precursor_type: [M-H]-
Spectrum_type: MS2
PrecursorMZ: 339.3255
Instrument_type: LC-ESI-TOF
Instrument: impact HD
Ion_mode: N
Collision_energy: 40
InChIKey: UKMSUNONTOPOIO-UHFFFAOYSA-N
Formula: C22H44O2
MW: 340
ExactMass: 340.334130648
Comments: "license=License CC-BY-NC-SA 4.0 International" "author=Plant Biology, The Noble Foundation, Ardmore, OK, US/Dennis Fine, Daniel Wherritt, and Lloyd Sumner" "instrument type=LC-ESI-TOF" "instrument=impact HD" "ionization=ESI" "ionization mode=negative" "ms level=MS2" "precursor m/z=339.3255" "isolation width=5" "collision gas=Nitrogen" "collision energy=40" "peak width=0.013" "date=2014-08-20 03:38:18+02:00" "column=Waters Acquity BEH C18 1.7um x 2.1 x 150 mm" "retention time=2062.2" "raw data file=C:\Data\Confirmed standards 19_Aug_2014\Behenic acid vial 135 MSMS_1-C,1_01_667.d" "precursor type=[M-H]-" "mass accuracy=3.9921786014233467" "mass error=-0.0013546480000172778" "cas number=112-85-6" "SMILES=CCCCCCCCCCCCCCCCCCCCCC(=O)O" "InChI=InChI=1S/C22H44O2/c1-2-3-4-5-6-7-8-9-10-11-12-13-14-15-16-17-18-19-20-21-22(23)24/h2-21H2,1H3,(H,23,24)" "InChIKey=UKMSUNONTOPOIO-UHFFFAOYSA-N" "molecular formula=C22H44O2" "total exact mass=340.334130648" "SMILES=CCCCCCCCCCCCCCCCCCCCCC(=O)O"
Num Peaks: 1
 339 100.000000; 


Name: Behenic acid
SYNON: $:00in-source
DB#: MetaboBASE0888
InChIKey: UKMSUNONTOPOIO-UHFFFAOYSA-N
Precursor_type: [M-H]-
Spectrum_type: MS2
PrecursorMZ: 339.3276
Instrument_type: LC-ESI-TOF
Instrument: impact HD
Ion_mode: N
Collision_energy: 10
InChIKey: UKMSUNONTOPOIO-UHFFFAOYSA-N
Formula: C22H44O2
MW: 340
ExactMass: 340.334130648
Comments: "license=License CC-BY-NC-SA 4.0 International" "author=Plant Biology, The Noble Foundation, Ardmore, OK, US/Dennis Fine, Daniel Wherritt, and Lloyd Sumner" "instrument type=LC-ESI-TOF" "instrument=impact HD" "ionization=ESI" "ionization mode=negative" "ms level=MS2" "precursor m/z=339.3276" "isolation width=5" "collision gas=Nitrogen" "collision energy=10" "peak width=0.013" "date=2014-08-20 03:38:18+02:00" "column=Waters Acquity BEH C18 1.7um x 2.1 x 150 mm" "retention time=2062.2" "raw data file=C:\Data\Confirmed standards 19_Aug_2014\Behenic acid vial 135 MSMS_1-C,1_01_667.d" "precursor type=[M-H]-" "mass accuracy=2.1965557768481347" "mass error=7.453520000240133E-4" "cas number=112-85-6" "SMILES=CCCCCCCCCCCCCCCCCCCCCC(=O)O" "InChI=InChI=1S/C22H44O2/c1-2-3-4-5-6-7-8-9-10-11-12-13-14-15-16-17-18-19-20-21-22(23)24/h2-21H2,1H3,(H,23,24)" "InChIKey=UKMSUNONTOPOIO-UHFFFAOYSA-N" "molecular formula=C22H44O2" "total exact mass=340.334130648" "SMILES=CCCCCCCCCCCCCCCCCCCCCC(=O)O"
Num Peaks: 4
 339 0.100100; 
 339 100.000000; 
 340 21.721722; 
 341 0.800801; 


Name: Behenic acid
SYNON: $:00in-source
DB#: MetaboBASE0889
InChIKey: UKMSUNONTOPOIO-UHFFFAOYSA-N
Precursor_type: [M-H]-
Spectrum_type: MS2
PrecursorMZ: 339.3265
Instrument_type: LC-ESI-TOF
Instrument: impact HD
Ion_mode: N
Collision_energy: 30
InChIKey: UKMSUNONTOPOIO-UHFFFAOYSA-N
Formula: C22H44O2
MW: 340
ExactMass: 340.334130648
Comments: "license=License CC-BY-NC-SA 4.0 International" "author=Plant Biology, The Noble Foundation, Ardmore, OK, US/Dennis Fine, Daniel Wherritt, and Lloyd Sumner" "instrument type=LC-ESI-TOF" "instrument=impact HD" "ionization=ESI" "ionization mode=negative" "ms level=MS2" "precursor m/z=339.3265" "isolation width=5" "collision gas=Nitrogen" "collision energy=30" "peak width=0.016" "date=2014-08-20 03:38:18+02:00" "column=Waters Acquity BEH C18 1.7um x 2.1 x 150 mm" "retention time=2062.2" "raw data file=C:\Data\Confirmed standards 19_Aug_2014\Behenic acid vial 135 MSMS_1-C,1_01_667.d" "precursor type=[M-H]-" "mass accuracy=1.045152677389126" "mass error=-3.5464799998408125E-4" "cas number=112-85-6" "SMILES=CCCCCCCCCCCCCCCCCCCCCC(=O)O" "InChI=InChI=1S/C22H44O2/c1-2-3-4-5-6-7-8-9-10-11-12-13-14-15-16-17-18-19-20-21-22(23)24/h2-21H2,1H3,(H,23,24)" "InChIKey=UKMSUNONTOPOIO-UHFFFAOYSA-N" "molecular formula=C22H44O2" "total exact mass=340.334130648" "SMILES=CCCCCCCCCCCCCCCCCCCCCC(=O)O"
Num Peaks: 4
 321 0.800801; 
 339 100.000000; 
 340 24.824825; 
 341 0.900901; 


Name: Behenic acid
SYNON: $:00in-source
DB#: MetaboBASE0890
InChIKey: UKMSUNONTOPOIO-UHFFFAOYSA-N
Instrument_type: LC-ESI-TOF
Instrument: impact HD
Ion_mode: N
InChIKey: UKMSUNONTOPOIO-UHFFFAOYSA-N
Formula: C22H44O2
MW: 340
ExactMass: 340.334130648
Comments: "license=License CC-BY-NC-SA 4.0 International" "author=Plant Biology, The Noble Foundation, Ardmore, OK, US/Dennis Fine, Daniel Wherritt, and Lloyd Sumner" "instrument type=LC-ESI-TOF" "instrument=impact HD" "ionization=ESI" "ionization mode=negative" "collision gas=Nitrogen" "peak width=0.012" "date=2014-08-20 03:38:18+02:00" "column=Waters Acquity BEH C18 1.7um x 2.1 x 150 mm" "retention time=2062.2" "raw data file=C:\Data\Confirmed standards 19_Aug_2014\Behenic acid vial 135 MSMS_1-C,1_01_667.d" "cas number=112-85-6" "SMILES=CCCCCCCCCCCCCCCCCCCCCC(=O)O" "InChI=InChI=1S/C22H44O2/c1-2-3-4-5-6-7-8-9-10-11-12-13-14-15-16-17-18-19-20-21-22(23)24/h2-21H2,1H3,(H,23,24)" "InChIKey=UKMSUNONTOPOIO-UHFFFAOYSA-N" "molecular formula=C22H44O2" "total exact mass=340.334130648" "SMILES=CCCCCCCCCCCCCCCCCCCCCC(=O)O"
Num Peaks: 30
 128 0.100100; 
 217 0.100100; 
 248 0.200200; 
 264 2.302302; 
 279 0.800801; 
 280 0.400400; 
 285 1.101101; 
 339 100.000000; 
 340 26.626627; 
 341 3.603604; 
 342 0.400400; 
 353 0.800801; 
 368 0.500501; 
 407 1.601602; 
 408 0.200200; 
 430 0.500501; 
 436 0.500501; 
 439 0.400400; 
 475 0.400400; 
 489 0.100100; 
 490 1.601602; 
 491 0.500501; 
 526 0.400400; 
 556 0.500501; 
 557 0.200200; 
 558 0.300300; 
 594 0.200200; 
 611 0.300300; 
 625 0.100100; 
 626 0.100100; 


Name: Behenic acid
SYNON: $:00in-source
DB#: MetaboBASE0891
InChIKey: UKMSUNONTOPOIO-UHFFFAOYSA-N
Precursor_type: [M-H]-
Spectrum_type: MS2
PrecursorMZ: 339.3276
Instrument_type: LC-ESI-TOF
Instrument: impact HD
Ion_mode: N
Collision_energy: 20
InChIKey: UKMSUNONTOPOIO-UHFFFAOYSA-N
Formula: C22H44O2
MW: 340
ExactMass: 340.334130648
Comments: "license=License CC-BY-NC-SA 4.0 International" "author=Plant Biology, The Noble Foundation, Ardmore, OK, US/Dennis Fine, Daniel Wherritt, and Lloyd Sumner" "instrument type=LC-ESI-TOF" "instrument=impact HD" "ionization=ESI" "ionization mode=negative" "ms level=MS2" "precursor m/z=339.3276" "isolation width=5" "collision gas=Nitrogen" "collision energy=20" "peak width=0.013" "date=2014-08-20 03:38:18+02:00" "column=Waters Acquity BEH C18 1.7um x 2.1 x 150 mm" "retention time=2062.2" "raw data file=C:\Data\Confirmed standards 19_Aug_2014\Behenic acid vial 135 MSMS_1-C,1_01_667.d" "precursor type=[M-H]-" "mass accuracy=2.1965557768481347" "mass error=7.453520000240133E-4" "cas number=112-85-6" "SMILES=CCCCCCCCCCCCCCCCCCCCCC(=O)O" "InChI=InChI=1S/C22H44O2/c1-2-3-4-5-6-7-8-9-10-11-12-13-14-15-16-17-18-19-20-21-22(23)24/h2-21H2,1H3,(H,23,24)" "InChIKey=UKMSUNONTOPOIO-UHFFFAOYSA-N" "molecular formula=C22H44O2" "total exact mass=340.334130648" "SMILES=CCCCCCCCCCCCCCCCCCCCCC(=O)O"
Num Peaks: 4
 339 0.100100; 
 339 100.000000; 
 340 23.423423; 
 341 1.001001; 


Name: Catechin gallate
SYNON: $:00in-source
DB#: MetaboBASE0892
InChIKey: LSHVYAFMTMFKBA-CTNGQTDRSA-N
Precursor_type: [M-H]-
Spectrum_type: MS2
PrecursorMZ: 441.0824
Instrument_type: LC-ESI-TOF
Instrument: impact HD
Ion_mode: N
Collision_energy: 30
InChIKey: LSHVYAFMTMFKBA-CTNGQTDRSA-N
Formula: C22H18O10
MW: 442
ExactMass: 442.089996776
Comments: "license=License CC-BY-NC-SA 4.0 International" "author=Plant Biology, The Noble Foundation, Ardmore, OK, US/Dennis Fine, Daniel Wherritt, and Lloyd Sumner" "instrument type=LC-ESI-TOF" "instrument=impact HD" "ionization=ESI" "ionization mode=negative" "ms level=MS2" "precursor m/z=441.0824" "isolation width=5" "collision gas=Nitrogen" "collision energy=30" "peak width=0.017" "date=2014-08-19 20:50:17+02:00" "column=Waters Acquity BEH C18 1.7um x 2.1 x 150 mm" "retention time=283.8" "raw data file=C:\Data\Confirmed standards 19_Aug_2014\Catechin gallate vial 371_1-E,3_01_657.d" "precursor type=[M-H]-" "mass accuracy=0.727247335245456" "mass error=-3.2077600002367035E-4" "cas number=130405-40-2" "SMILES=c1cc(c(cc1[C@H]2[C@@H](Cc3c(cc(cc3O2)O)O)OC(=O)c4cc(c(c(c4)O)O)O)O)O" "InChI=InChI=1S/C22H18O10/c23-11-6-14(25)12-8-19(32-22(30)10-4-16(27)20(29)17(28)5-10)21(31-18(12)7-11)9-1-2-13(24)15(26)3-9/h1-7,19,21,23-29H,8H2/t19-,21+/m1/s1" "InChIKey=LSHVYAFMTMFKBA-CTNGQTDRSA-N" "molecular formula=C22H18O10" "total exact mass=442.089996776" "SMILES=C1C(C(OC2=CC(=CC(=C21)O)O)C3=CC(=C(C=C3)O)O)OC(=O)C4=CC(=C(C(=C4)O)O)O"
Num Peaks: 44
 109 2.502503; 
 123 3.903904; 
 123 1.601602; 
 124 2.902903; 
 125 38.038038; 
 126 2.402402; 
 137 5.105105; 
 145 1.901902; 
 149 1.701702; 
 151 3.603604; 
 161 1.001001; 
 161 1.101101; 
 165 2.602603; 
 166 1.801802; 
 168 3.103103; 
 169 100.000000; 
 170 6.606607; 
 179 3.503504; 
 193 5.705706; 
 203 3.603604; 
 205 1.101101; 
 205 2.702703; 
 221 1.401401; 
 227 2.502503; 
 231 0.900901; 
 245 1.801802; 
 245 25.525526; 
 246 4.204204; 
 247 1.101101; 
 253 1.601602; 
 257 1.101101; 
 259 3.503504; 
 269 1.601602; 
 271 5.505506; 
 272 1.401401; 
 285 1.501502; 
 287 2.002002; 
 289 62.762763; 
 290 11.311311; 
 301 3.903904; 
 302 1.101101; 
 303 2.502503; 
 313 1.401401; 
 331 2.002002; 


Name: Catechin gallate
SYNON: $:00in-source
DB#: MetaboBASE0893
InChIKey: LSHVYAFMTMFKBA-CTNGQTDRSA-N
Instrument_type: LC-ESI-TOF
Instrument: impact HD
Ion_mode: N
InChIKey: LSHVYAFMTMFKBA-CTNGQTDRSA-N
Formula: C22H18O10
MW: 442
ExactMass: 442.08999677599996
Comments: "license=License CC-BY-NC-SA 4.0 International" "author=Plant Biology, The Noble Foundation, Ardmore, OK, US/Dennis Fine, Daniel Wherritt, and Lloyd Sumner" "instrument type=LC-ESI-TOF" "instrument=impact HD" "ionization=ESI" "ionization mode=negative" "collision gas=Nitrogen" "peak width=0.015" "date=2014-08-19 20:50:17+02:00" "column=Waters Acquity BEH C18 1.7um x 2.1 x 150 mm" "retention time=283.8" "raw data file=C:\Data\Confirmed standards 19_Aug_2014\Catechin gallate vial 371_1-E,3_01_657.d" "cas number=130405-40-2" "SMILES=c1cc(c(cc1[C@H]2[C@@H](Cc3c(cc(cc3O2)O)O)OC(=O)c4cc(c(c(c4)O)O)O)O)O" "InChI=InChI=1S/C22H18O10/c23-11-6-14(25)12-8-19(32-22(30)10-4-16(27)20(29)17(28)5-10)21(31-18(12)7-11)9-1-2-13(24)15(26)3-9/h1-7,19,21,23-29H,8H2/t19-,21+/m1/s1" "InChIKey=LSHVYAFMTMFKBA-CTNGQTDRSA-N" "molecular formula=C22H18O10" "total exact mass=442.08999677599996" "SMILES=C1C(C(OC2=CC(=CC(=C21)O)O)C3=CC(=C(C=C3)O)O)OC(=O)C4=CC(=C(C(=C4)O)O)O"
Num Peaks: 29
 289 1.301301; 
 411 1.801802; 
 429 1.301301; 
 437 1.701702; 
 439 7.207207; 
 440 2.202202; 
 441 100.000000; 
 442 26.226226; 
 443 5.305305; 
 455 1.201201; 
 463 3.803804; 
 464 1.101101; 
 540 1.301301; 
 556 1.501502; 
 879 4.604605; 
 880 2.802803; 
 881 8.108108; 
 882 4.604605; 
 883 45.445445; 
 884 25.625626; 
 885 8.708709; 
 886 2.402402; 
 895 1.101101; 
 897 2.602603; 
 898 1.401401; 
 905 1.101101; 
 936 1.101101; 
 1325 1.201201; 
 1326 1.001001; 


Name: Catechin gallate
SYNON: $:00in-source
DB#: MetaboBASE0894
InChIKey: LSHVYAFMTMFKBA-CTNGQTDRSA-N
Precursor_type: [M-H]-
Spectrum_type: MS2
PrecursorMZ: 441.0835
Instrument_type: LC-ESI-TOF
Instrument: impact HD
Ion_mode: N
Collision_energy: 20
InChIKey: LSHVYAFMTMFKBA-CTNGQTDRSA-N
Formula: C22H18O10
MW: 442
ExactMass: 442.089996776
Comments: "license=License CC-BY-NC-SA 4.0 International" "author=Plant Biology, The Noble Foundation, Ardmore, OK, US/Dennis Fine, Daniel Wherritt, and Lloyd Sumner" "instrument type=LC-ESI-TOF" "instrument=impact HD" "ionization=ESI" "ionization mode=negative" "ms level=MS2" "precursor m/z=441.0835" "isolation width=5" "collision gas=Nitrogen" "collision energy=20" "peak width=0.016" "date=2014-08-19 20:50:17+02:00" "column=Waters Acquity BEH C18 1.7um x 2.1 x 150 mm" "retention time=283.8" "raw data file=C:\Data\Confirmed standards 19_Aug_2014\Catechin gallate vial 371_1-E,3_01_657.d" "precursor type=[M-H]-" "mass accuracy=1.7666133509515185" "mass error=7.792239999844242E-4" "cas number=130405-40-2" "SMILES=c1cc(c(cc1[C@H]2[C@@H](Cc3c(cc(cc3O2)O)O)OC(=O)c4cc(c(c(c4)O)O)O)O)O" "InChI=InChI=1S/C22H18O10/c23-11-6-14(25)12-8-19(32-22(30)10-4-16(27)20(29)17(28)5-10)21(31-18(12)7-11)9-1-2-13(24)15(26)3-9/h1-7,19,21,23-29H,8H2/t19-,21+/m1/s1" "InChIKey=LSHVYAFMTMFKBA-CTNGQTDRSA-N" "molecular formula=C22H18O10" "total exact mass=442.089996776" "SMILES=C1C(C(OC2=CC(=CC(=C21)O)O)C3=CC(=C(C=C3)O)O)OC(=O)C4=CC(=C(C(=C4)O)O)O"
Num Peaks: 30
 123 1.401401; 
 125 9.409409; 
 137 3.403403; 
 166 3.503504; 
 168 2.202202; 
 169 86.086086; 
 170 5.705706; 
 193 2.202202; 
 245 1.001001; 
 245 6.006006; 
 253 2.202202; 
 259 3.003003; 
 269 1.201201; 
 271 11.711712; 
 272 2.502503; 
 287 3.503504; 
 289 100.000000; 
 290 18.418418; 
 291 1.301301; 
 301 6.106106; 
 302 1.001001; 
 303 4.604605; 
 313 3.003003; 
 315 1.201201; 
 331 7.207207; 
 332 1.401401; 
 397 1.501502; 
 439 1.101101; 
 441 18.718719; 
 442 5.705706; 


Name: Catechin gallate
SYNON: $:00in-source
DB#: MetaboBASE0895
InChIKey: LSHVYAFMTMFKBA-CTNGQTDRSA-N
Precursor_type: [M-H]-
Spectrum_type: MS2
PrecursorMZ: 441.0846
Instrument_type: LC-ESI-TOF
Instrument: impact HD
Ion_mode: N
Collision_energy: 10
InChIKey: LSHVYAFMTMFKBA-CTNGQTDRSA-N
Formula: C22H18O10
MW: 442
ExactMass: 442.089996776
Comments: "license=License CC-BY-NC-SA 4.0 International" "author=Plant Biology, The Noble Foundation, Ardmore, OK, US/Dennis Fine, Daniel Wherritt, and Lloyd Sumner" "instrument type=LC-ESI-TOF" "instrument=impact HD" "ionization=ESI" "ionization mode=negative" "ms level=MS2" "precursor m/z=441.0846" "isolation width=5" "collision gas=Nitrogen" "collision energy=10" "peak width=0.016" "date=2014-08-19 20:50:17+02:00" "column=Waters Acquity BEH C18 1.7um x 2.1 x 150 mm" "retention time=283.8" "raw data file=C:\Data\Confirmed standards 19_Aug_2014\Catechin gallate vial 371_1-E,3_01_657.d" "precursor type=[M-H]-" "mass accuracy=4.260461598506315" "mass error=0.0018792239999925187" "cas number=130405-40-2" "SMILES=c1cc(c(cc1[C@H]2[C@@H](Cc3c(cc(cc3O2)O)O)OC(=O)c4cc(c(c(c4)O)O)O)O)O" "InChI=InChI=1S/C22H18O10/c23-11-6-14(25)12-8-19(32-22(30)10-4-16(27)20(29)17(28)5-10)21(31-18(12)7-11)9-1-2-13(24)15(26)3-9/h1-7,19,21,23-29H,8H2/t19-,21+/m1/s1" "InChIKey=LSHVYAFMTMFKBA-CTNGQTDRSA-N" "molecular formula=C22H18O10" "total exact mass=442.089996776" "SMILES=C1C(C(OC2=CC(=CC(=C21)O)O)C3=CC(=C(C=C3)O)O)OC(=O)C4=CC(=C(C(=C4)O)O)O"
Num Peaks: 12
 166 1.001001; 
 169 10.910911; 
 271 3.403403; 
 289 17.017017; 
 290 3.003003; 
 301 2.502503; 
 313 1.201201; 
 439 4.304304; 
 440 1.801802; 
 441 100.000000; 
 442 26.926927; 
 443 1.801802; 


Name: Catechin gallate
SYNON: $:00in-source
DB#: MetaboBASE0896
InChIKey: LSHVYAFMTMFKBA-CTNGQTDRSA-N
Precursor_type: [M-H]-
Spectrum_type: MS2
PrecursorMZ: 441.09
Instrument_type: LC-ESI-TOF
Instrument: impact HD
Ion_mode: N
Collision_energy: 40
InChIKey: LSHVYAFMTMFKBA-CTNGQTDRSA-N
Formula: C22H18O10
MW: 442
ExactMass: 442.089996776
Comments: "license=License CC-BY-NC-SA 4.0 International" "author=Plant Biology, The Noble Foundation, Ardmore, OK, US/Dennis Fine, Daniel Wherritt, and Lloyd Sumner" "instrument type=LC-ESI-TOF" "instrument=impact HD" "ionization=ESI" "ionization mode=negative" "ms level=MS2" "precursor m/z=441.09" "isolation width=5" "collision gas=Nitrogen" "collision energy=40" "peak width=0.018" "date=2014-08-19 20:50:17+02:00" "column=Waters Acquity BEH C18 1.7um x 2.1 x 150 mm" "retention time=283.8" "raw data file=C:\Data\Confirmed standards 19_Aug_2014\Catechin gallate vial 371_1-E,3_01_657.d" "precursor type=[M-H]-" "mass accuracy=16.50280895042827" "mass error=0.007279223999944406" "cas number=130405-40-2" "SMILES=c1cc(c(cc1[C@H]2[C@@H](Cc3c(cc(cc3O2)O)O)OC(=O)c4cc(c(c(c4)O)O)O)O)O" "InChI=InChI=1S/C22H18O10/c23-11-6-14(25)12-8-19(32-22(30)10-4-16(27)20(29)17(28)5-10)21(31-18(12)7-11)9-1-2-13(24)15(26)3-9/h1-7,19,21,23-29H,8H2/t19-,21+/m1/s1" "InChIKey=LSHVYAFMTMFKBA-CTNGQTDRSA-N" "molecular formula=C22H18O10" "total exact mass=442.089996776" "SMILES=C1C(C(OC2=CC(=CC(=C21)O)O)C3=CC(=C(C=C3)O)O)OC(=O)C4=CC(=C(C(=C4)O)O)O"
Num Peaks: 66
 107 1.201201; 
 108 1.201201; 
 109 9.509510; 
 110 1.101101; 
 121 2.402402; 
 123 7.007007; 
 123 8.208208; 
 124 7.607608; 
 125 100.000000; 
 126 6.506507; 
 135 2.002002; 
 137 10.210210; 
 138 1.301301; 
 139 1.301301; 
 139 1.801802; 
 140 1.301301; 
 145 4.004004; 
 149 5.705706; 
 150 1.601602; 
 151 9.209209; 
 152 1.301301; 
 159 1.901902; 
 160 1.001001; 
 161 2.502503; 
 161 3.603604; 
 162 1.201201; 
 164 2.202202; 
 165 3.903904; 
 166 1.201201; 
 167 1.501502; 
 168 1.101101; 
 169 76.476476; 
 170 6.306306; 
 175 1.401401; 
 175 1.001001; 
 179 4.204204; 
 185 1.501502; 
 187 3.603604; 
 188 2.502503; 
 193 7.407407; 
 201 1.001001; 
 202 2.502503; 
 203 8.908909; 
 204 1.301301; 
 205 1.101101; 
 205 5.105105; 
 221 5.905906; 
 227 3.703704; 
 229 1.101101; 
 230 1.501502; 
 231 1.601602; 
 241 1.201201; 
 245 1.601602; 
 245 16.616617; 
 246 3.503504; 
 247 2.202202; 
 253 1.501502; 
 255 1.601602; 
 256 1.001001; 
 257 1.101101; 
 259 2.002002; 
 269 1.301301; 
 271 2.402402; 
 289 11.911912; 
 290 2.602603; 
 301 1.301301; 


Name: Epigallocatechin gallate
SYNON: $:00in-source
DB#: MetaboBASE0897
InChIKey: WMBWREPUVVBILR-WIYYLYMNSA-N
Precursor_type: [M-H]-
Spectrum_type: MS2
PrecursorMZ: 457.0834
Instrument_type: LC-ESI-TOF
Instrument: impact HD
Ion_mode: N
Collision_energy: 10
InChIKey: WMBWREPUVVBILR-WIYYLYMNSA-N
Formula: C22H18O11
MW: 458
ExactMass: 458.084911396
Comments: "license=License CC-BY-NC-SA 4.0 International" "author=Plant Biology, The Noble Foundation, Ardmore, OK, US/Dennis Fine, Daniel Wherritt, and Lloyd Sumner" "instrument type=LC-ESI-TOF" "instrument=impact HD" "ionization=ESI" "ionization mode=negative" "ms level=MS2" "precursor m/z=457.0834" "isolation width=5" "collision gas=Nitrogen" "collision energy=10" "peak width=0.016" "date=2014-08-19 22:11:47+02:00" "column=Waters Acquity BEH C18 1.7um x 2.1 x 150 mm" "retention time=173.4" "raw data file=C:\Data\Confirmed standards 19_Aug_2014\Epigallocatechin gallate v373_1-E,5_01_659.d" "precursor type=[M-H]-" "mass accuracy=12.611711560687032" "mass error=0.005764603999978135" "cas number=989-51-5" "SMILES=c1c(cc(c(c1O)O)O)[C@@H]2[C@@H](Cc3c(cc(cc3O2)O)O)OC(=O)c4cc(c(c(c4)O)O)O" "InChI=InChI=1S/C22H18O11/c23-10-5-12(24)11-7-18(33-22(31)9-3-15(27)20(30)16(28)4-9)21(32-17(11)6-10)8-1-13(25)19(29)14(26)2-8/h1-6,18,21,23-30H,7H2/t18-,21-/m1/s1" "InChIKey=WMBWREPUVVBILR-WIYYLYMNSA-N" "molecular formula=C22H18O11" "total exact mass=458.084911396" "SMILES=C1C(C(OC2=CC(=CC(=C21)O)O)C3=CC(=C(C(=C3)O)O)O)OC(=O)C4=CC(=C(C(=C4)O)O)O" "InChI=InChI=1S/C22H18O11/c23-10-5-12(24)11-7-18(33-22(31)9-3-15(27)20(30)16(28)4-9)21(32-17(11)6-10)8-1-13(25)19(29)14(26)2-8/h1-6,18,21,23-30H,7H2/t18-,21-/m0/s1" "InChIKey=WMBWREPUVVBILR-RXVVDRJESA-N"
Num Peaks: 55
 123 0.500501; 
 125 2.402402; 
 126 0.200200; 
 137 0.200200; 
 166 4.504505; 
 168 0.600601; 
 169 52.352352; 
 170 2.902903; 
 171 0.400400; 
 177 0.200200; 
 229 0.400400; 
 241 1.201201; 
 242 0.400400; 
 244 0.300300; 
 269 2.502503; 
 270 0.700701; 
 273 0.300300; 
 285 1.801802; 
 286 1.001001; 
 287 0.300300; 
 287 7.707708; 
 288 2.402402; 
 289 0.400400; 
 289 0.400400; 
 303 2.502503; 
 304 1.101101; 
 305 9.009009; 
 306 2.602603; 
 316 0.400400; 
 317 3.803804; 
 318 1.201201; 
 319 0.900901; 
 320 0.300300; 
 329 2.802803; 
 330 1.701702; 
 331 3.203203; 
 332 0.700701; 
 383 0.300300; 
 393 0.200200; 
 410 0.400400; 
 411 0.800801; 
 412 0.300300; 
 454 4.804805; 
 455 24.124124; 
 455 0.200200; 
 456 13.013013; 
 457 100.000000; 
 458 43.743744; 
 458 0.300300; 
 459 4.704705; 
 460 0.300300; 
 1013 0.300300; 
 1209 0.300300; 
 1286 0.300300; 
 1345 0.300300; 


Name: Epigallocatechin gallate
SYNON: $:00in-source
DB#: MetaboBASE0898
InChIKey: WMBWREPUVVBILR-WIYYLYMNSA-N
Precursor_type: [M-H]-
Spectrum_type: MS2
PrecursorMZ: 457.08
Instrument_type: LC-ESI-TOF
Instrument: impact HD
Ion_mode: N
Collision_energy: 40
InChIKey: WMBWREPUVVBILR-WIYYLYMNSA-N
Formula: C22H18O11
MW: 458
ExactMass: 458.084911396
Comments: "license=License CC-BY-NC-SA 4.0 International" "author=Plant Biology, The Noble Foundation, Ardmore, OK, US/Dennis Fine, Daniel Wherritt, and Lloyd Sumner" "instrument type=LC-ESI-TOF" "instrument=impact HD" "ionization=ESI" "ionization mode=negative" "ms level=MS2" "precursor m/z=457.08" "isolation width=5" "collision gas=Nitrogen" "collision energy=40" "peak width=0.019" "date=2014-08-19 22:11:47+02:00" "column=Waters Acquity BEH C18 1.7um x 2.1 x 150 mm" "retention time=173.4" "raw data file=C:\Data\Confirmed standards 19_Aug_2014\Epigallocatechin gallate v373_1-E,5_01_659.d" "precursor type=[M-H]-" "mass accuracy=5.173282576308203" "mass error=0.0023646039999789537" "cas number=989-51-5" "SMILES=c1c(cc(c(c1O)O)O)[C@@H]2[C@@H](Cc3c(cc(cc3O2)O)O)OC(=O)c4cc(c(c(c4)O)O)O" "InChI=InChI=1S/C22H18O11/c23-10-5-12(24)11-7-18(33-22(31)9-3-15(27)20(30)16(28)4-9)21(32-17(11)6-10)8-1-13(25)19(29)14(26)2-8/h1-6,18,21,23-30H,7H2/t18-,21-/m1/s1" "InChIKey=WMBWREPUVVBILR-WIYYLYMNSA-N" "molecular formula=C22H18O11" "total exact mass=458.084911396" "SMILES=C1C(C(OC2=CC(=CC(=C21)O)O)C3=CC(=C(C(=C3)O)O)O)OC(=O)C4=CC(=C(C(=C4)O)O)O" "InChI=InChI=1S/C22H18O11/c23-10-5-12(24)11-7-18(33-22(31)9-3-15(27)20(30)16(28)4-9)21(32-17(11)6-10)8-1-13(25)19(29)14(26)2-8/h1-6,18,21,23-30H,7H2/t18-,21-/m0/s1" "InChIKey=WMBWREPUVVBILR-RXVVDRJESA-N"
Num Peaks: 53
 109 1.001001; 
 111 0.700701; 
 123 14.514515; 
 124 3.103103; 
 125 100.000000; 
 126 8.308308; 
 133 0.700701; 
 137 3.903904; 
 138 1.401401; 
 139 0.900901; 
 139 2.102102; 
 149 0.800801; 
 161 7.507508; 
 162 1.001001; 
 164 1.401401; 
 165 4.104104; 
 166 0.900901; 
 166 1.901902; 
 167 3.303303; 
 168 1.201201; 
 169 82.782783; 
 170 5.005005; 
 175 1.001001; 
 177 4.004004; 
 177 1.601602; 
 179 2.702703; 
 193 2.502503; 
 201 1.301301; 
 203 0.900901; 
 217 1.301301; 
 219 3.003003; 
 221 1.601602; 
 225 1.101101; 
 227 1.701702; 
 228 1.501502; 
 229 1.101101; 
 241 0.900901; 
 243 1.101101; 
 243 0.900901; 
 244 1.101101; 
 245 0.800801; 
 257 1.201201; 
 261 1.301301; 
 269 0.700701; 
 271 1.001001; 
 272 1.001001; 
 285 0.900901; 
 287 1.101101; 
 289 0.900901; 
 299 0.600601; 
 305 1.801802; 
 306 0.800801; 
 317 0.600601; 


Name: Epigallocatechin gallate
SYNON: $:00in-source
DB#: MetaboBASE0899
InChIKey: WMBWREPUVVBILR-WIYYLYMNSA-N
Instrument_type: LC-ESI-TOF
Instrument: impact HD
Ion_mode: N
InChIKey: WMBWREPUVVBILR-WIYYLYMNSA-N
Formula: C22H18O11
MW: 458
ExactMass: 458.084911396
Comments: "license=License CC-BY-NC-SA 4.0 International" "author=Plant Biology, The Noble Foundation, Ardmore, OK, US/Dennis Fine, Daniel Wherritt, and Lloyd Sumner" "instrument type=LC-ESI-TOF" "instrument=impact HD" "ionization=ESI" "ionization mode=negative" "collision gas=Nitrogen" "peak width=0.017" "date=2014-08-19 22:11:47+02:00" "column=Waters Acquity BEH C18 1.7um x 2.1 x 150 mm" "retention time=173.4" "raw data file=C:\Data\Confirmed standards 19_Aug_2014\Epigallocatechin gallate v373_1-E,5_01_659.d" "cas number=989-51-5" "SMILES=c1c(cc(c(c1O)O)O)[C@@H]2[C@@H](Cc3c(cc(cc3O2)O)O)OC(=O)c4cc(c(c(c4)O)O)O" "InChI=InChI=1S/C22H18O11/c23-10-5-12(24)11-7-18(33-22(31)9-3-15(27)20(30)16(28)4-9)21(32-17(11)6-10)8-1-13(25)19(29)14(26)2-8/h1-6,18,21,23-30H,7H2/t18-,21-/m1/s1" "InChIKey=WMBWREPUVVBILR-WIYYLYMNSA-N" "molecular formula=C22H18O11" "total exact mass=458.084911396" "SMILES=C1C(C(OC2=CC(=CC(=C21)O)O)C3=CC(=C(C(=C3)O)O)O)OC(=O)C4=CC(=C(C(=C4)O)O)O" "InChI=InChI=1S/C22H18O11/c23-10-5-12(24)11-7-18(33-22(31)9-3-15(27)20(30)16(28)4-9)21(32-17(11)6-10)8-1-13(25)19(29)14(26)2-8/h1-6,18,21,23-30H,7H2/t18-,21-/m0/s1" "InChIKey=WMBWREPUVVBILR-RXVVDRJESA-N"
Num Peaks: 68
 169 6.606607; 
 381 2.202202; 
 382 1.001001; 
 397 3.403403; 
 398 1.501502; 
 423 1.701702; 
 425 2.002002; 
 427 2.602603; 
 428 1.101101; 
 453 16.616617; 
 454 6.906907; 
 455 22.822823; 
 456 10.110110; 
 457 100.000000; 
 458 42.942943; 
 459 10.610611; 
 460 2.102102; 
 469 4.304304; 
 470 2.102102; 
 471 4.904905; 
 472 2.402402; 
 473 4.004004; 
 474 1.701702; 
 477 1.401401; 
 479 5.005005; 
 480 2.302302; 
 487 2.902903; 
 488 1.501502; 
 491 1.001001; 
 541 1.001001; 
 554 1.101101; 
 556 2.802803; 
 557 1.901902; 
 575 1.501502; 
 909 1.901902; 
 910 2.002002; 
 911 9.209209; 
 912 7.907908; 
 913 19.119119; 
 914 16.316316; 
 915 45.345345; 
 916 36.236236; 
 917 18.318318; 
 918 6.506507; 
 919 1.701702; 
 927 3.603604; 
 928 3.203203; 
 929 9.009009; 
 930 7.707708; 
 931 7.007007; 
 932 3.903904; 
 933 2.002002; 
 935 1.401401; 
 937 1.301301; 
 938 1.001001; 
 943 1.001001; 
 944 1.001001; 
 945 2.402402; 
 946 2.402402; 
 947 3.203203; 
 948 2.002002; 
 949 4.804805; 
 950 3.703704; 
 951 1.901902; 
 963 1.301301; 
 964 1.001001; 
 968 1.501502; 
 969 1.001001; 


Name: Epigallocatechin gallate
SYNON: $:00in-source
DB#: MetaboBASE0900
InChIKey: WMBWREPUVVBILR-WIYYLYMNSA-N
Precursor_type: [M-H]-
Spectrum_type: MS2
PrecursorMZ: 457.083
Instrument_type: LC-ESI-TOF
Instrument: impact HD
Ion_mode: N
Collision_energy: 20
InChIKey: WMBWREPUVVBILR-WIYYLYMNSA-N
Formula: C22H18O11
MW: 458
ExactMass: 458.084911396
Comments: "license=License CC-BY-NC-SA 4.0 International" "author=Plant Biology, The Noble Foundation, Ardmore, OK, US/Dennis Fine, Daniel Wherritt, and Lloyd Sumner" "instrument type=LC-ESI-TOF" "instrument=impact HD" "ionization=ESI" "ionization mode=negative" "ms level=MS2" "precursor m/z=457.083" "isolation width=5" "collision gas=Nitrogen" "collision energy=20" "peak width=0.017" "date=2014-08-19 22:11:47+02:00" "column=Waters Acquity BEH C18 1.7um x 2.1 x 150 mm" "retention time=173.4" "raw data file=C:\Data\Confirmed standards 19_Aug_2014\Epigallocatechin gallate v373_1-E,5_01_659.d" "precursor type=[M-H]-" "mass accuracy=11.73660801215906" "mass error=0.0053646040000217" "cas number=989-51-5" "SMILES=c1c(cc(c(c1O)O)O)[C@@H]2[C@@H](Cc3c(cc(cc3O2)O)O)OC(=O)c4cc(c(c(c4)O)O)O" "InChI=InChI=1S/C22H18O11/c23-10-5-12(24)11-7-18(33-22(31)9-3-15(27)20(30)16(28)4-9)21(32-17(11)6-10)8-1-13(25)19(29)14(26)2-8/h1-6,18,21,23-30H,7H2/t18-,21-/m1/s1" "InChIKey=WMBWREPUVVBILR-WIYYLYMNSA-N" "molecular formula=C22H18O11" "total exact mass=458.084911396" "SMILES=C1C(C(OC2=CC(=CC(=C21)O)O)C3=CC(=C(C(=C3)O)O)O)OC(=O)C4=CC(=C(C(=C4)O)O)O" "InChI=InChI=1S/C22H18O11/c23-10-5-12(24)11-7-18(33-22(31)9-3-15(27)20(30)16(28)4-9)21(32-17(11)6-10)8-1-13(25)19(29)14(26)2-8/h1-6,18,21,23-30H,7H2/t18-,21-/m0/s1" "InChIKey=WMBWREPUVVBILR-RXVVDRJESA-N"
Num Peaks: 74
 123 3.703704; 
 124 0.500501; 
 125 16.716717; 
 126 1.201201; 
 137 0.800801; 
 139 0.500501; 
 161 4.204204; 
 165 0.500501; 
 166 10.810811; 
 168 0.900901; 
 169 100.000000; 
 169 0.400400; 
 170 6.606607; 
 171 0.300300; 
 177 1.201201; 
 193 1.201201; 
 205 0.400400; 
 217 0.500501; 
 219 0.400400; 
 227 0.300300; 
 228 0.600601; 
 229 0.900901; 
 229 0.300300; 
 241 1.101101; 
 243 0.600601; 
 243 0.500501; 
 244 0.400400; 
 245 0.400400; 
 246 0.300300; 
 255 0.400400; 
 256 0.300300; 
 257 0.400400; 
 259 0.700701; 
 261 0.300300; 
 261 0.600601; 
 269 3.403403; 
 270 1.101101; 
 273 0.800801; 
 275 0.400400; 
 285 1.801802; 
 286 0.500501; 
 287 0.400400; 
 287 3.803804; 
 288 1.601602; 
 289 0.900901; 
 303 0.900901; 
 304 0.400400; 
 305 20.020020; 
 306 5.405405; 
 307 0.500501; 
 315 0.400400; 
 316 1.001001; 
 317 3.603604; 
 318 1.001001; 
 319 1.101101; 
 320 0.600601; 
 329 3.503504; 
 329 0.300300; 
 330 1.301301; 
 331 5.305305; 
 332 1.001001; 
 333 0.400400; 
 366 0.400400; 
 393 0.300300; 
 410 0.600601; 
 411 0.500501; 
 426 0.300300; 
 454 0.900901; 
 455 1.101101; 
 456 0.500501; 
 457 3.703704; 
 458 1.401401; 
 647 0.300300; 
 1170 0.300300; 


Name: Epigallocatechin gallate
SYNON: $:00in-source
DB#: MetaboBASE0901
InChIKey: WMBWREPUVVBILR-WIYYLYMNSA-N
Precursor_type: [M-H]-
Spectrum_type: MS2
PrecursorMZ: 457.08
Instrument_type: LC-ESI-TOF
Instrument: impact HD
Ion_mode: N
Collision_energy: 50
InChIKey: WMBWREPUVVBILR-WIYYLYMNSA-N
Formula: C22H18O11
MW: 458
ExactMass: 458.084911396
Comments: "license=License CC-BY-NC-SA 4.0 International" "author=Plant Biology, The Noble Foundation, Ardmore, OK, US/Dennis Fine, Daniel Wherritt, and Lloyd Sumner" "instrument type=LC-ESI-TOF" "instrument=impact HD" "ionization=ESI" "ionization mode=negative" "ms level=MS2" "precursor m/z=457.08" "isolation width=5" "collision gas=Nitrogen" "collision energy=50" "peak width=0.019" "date=2014-08-19 22:11:47+02:00" "column=Waters Acquity BEH C18 1.7um x 2.1 x 150 mm" "retention time=173.4" "raw data file=C:\Data\Confirmed standards 19_Aug_2014\Epigallocatechin gallate v373_1-E,5_01_659.d" "precursor type=[M-H]-" "mass accuracy=5.173282576308203" "mass error=0.0023646039999789537" "cas number=989-51-5" "SMILES=c1c(cc(c(c1O)O)O)[C@@H]2[C@@H](Cc3c(cc(cc3O2)O)O)OC(=O)c4cc(c(c(c4)O)O)O" "InChI=InChI=1S/C22H18O11/c23-10-5-12(24)11-7-18(33-22(31)9-3-15(27)20(30)16(28)4-9)21(32-17(11)6-10)8-1-13(25)19(29)14(26)2-8/h1-6,18,21,23-30H,7H2/t18-,21-/m1/s1" "InChIKey=WMBWREPUVVBILR-WIYYLYMNSA-N" "molecular formula=C22H18O11" "total exact mass=458.084911396" "SMILES=C1C(C(OC2=CC(=CC(=C21)O)O)C3=CC(=C(C(=C3)O)O)O)OC(=O)C4=CC(=C(C(=C4)O)O)O" "InChI=InChI=1S/C22H18O11/c23-10-5-12(24)11-7-18(33-22(31)9-3-15(27)20(30)16(28)4-9)21(32-17(11)6-10)8-1-13(25)19(29)14(26)2-8/h1-6,18,21,23-30H,7H2/t18-,21-/m0/s1" "InChIKey=WMBWREPUVVBILR-RXVVDRJESA-N"
Num Peaks: 41
 107 1.301301; 
 109 2.102102; 
 121 1.501502; 
 123 8.208208; 
 124 4.504505; 
 125 100.000000; 
 126 7.807808; 
 133 0.800801; 
 137 5.205205; 
 138 1.901902; 
 139 3.003003; 
 149 1.101101; 
 151 0.700701; 
 160 0.800801; 
 161 4.704705; 
 162 1.801802; 
 164 1.001001; 
 165 2.702703; 
 166 1.701702; 
 167 3.603604; 
 169 32.932933; 
 170 1.801802; 
 171 0.600601; 
 175 0.700701; 
 177 2.502503; 
 177 1.101101; 
 178 0.700701; 
 186 0.700701; 
 193 3.003003; 
 199 0.900901; 
 201 1.001001; 
 203 0.800801; 
 204 1.101101; 
 215 0.900901; 
 217 0.800801; 
 219 1.801802; 
 227 1.201201; 
 243 1.401401; 
 255 0.700701; 
 257 0.800801; 
 271 0.600601; 


Name: Epigallocatechin gallate
SYNON: $:00in-source
DB#: MetaboBASE0902
InChIKey: WMBWREPUVVBILR-WIYYLYMNSA-N
Precursor_type: [M-H]-
Spectrum_type: MS2
PrecursorMZ: 457.08
Instrument_type: LC-ESI-TOF
Instrument: impact HD
Ion_mode: N
Collision_energy: 30
InChIKey: WMBWREPUVVBILR-WIYYLYMNSA-N
Formula: C22H18O11
MW: 458
ExactMass: 458.084911396
Comments: "license=License CC-BY-NC-SA 4.0 International" "author=Plant Biology, The Noble Foundation, Ardmore, OK, US/Dennis Fine, Daniel Wherritt, and Lloyd Sumner" "instrument type=LC-ESI-TOF" "instrument=impact HD" "ionization=ESI" "ionization mode=negative" "ms level=MS2" "precursor m/z=457.08" "isolation width=5" "collision gas=Nitrogen" "collision energy=30" "peak width=0.018" "date=2014-08-19 22:11:47+02:00" "column=Waters Acquity BEH C18 1.7um x 2.1 x 150 mm" "retention time=173.4" "raw data file=C:\Data\Confirmed standards 19_Aug_2014\Epigallocatechin gallate v373_1-E,5_01_659.d" "precursor type=[M-H]-" "mass accuracy=5.173282576308203" "mass error=0.0023646039999789537" "cas number=989-51-5" "SMILES=c1c(cc(c(c1O)O)O)[C@@H]2[C@@H](Cc3c(cc(cc3O2)O)O)OC(=O)c4cc(c(c(c4)O)O)O" "InChI=InChI=1S/C22H18O11/c23-10-5-12(24)11-7-18(33-22(31)9-3-15(27)20(30)16(28)4-9)21(32-17(11)6-10)8-1-13(25)19(29)14(26)2-8/h1-6,18,21,23-30H,7H2/t18-,21-/m1/s1" "InChIKey=WMBWREPUVVBILR-WIYYLYMNSA-N" "molecular formula=C22H18O11" "total exact mass=458.084911396" "SMILES=C1C(C(OC2=CC(=CC(=C21)O)O)C3=CC(=C(C(=C3)O)O)O)OC(=O)C4=CC(=C(C(=C4)O)O)O" "InChI=InChI=1S/C22H18O11/c23-10-5-12(24)11-7-18(33-22(31)9-3-15(27)20(30)16(28)4-9)21(32-17(11)6-10)8-1-13(25)19(29)14(26)2-8/h1-6,18,21,23-30H,7H2/t18-,21-/m0/s1" "InChIKey=WMBWREPUVVBILR-RXVVDRJESA-N"
Num Peaks: 75
 123 11.511512; 
 124 1.401401; 
 125 46.246246; 
 126 3.103103; 
 137 2.902903; 
 138 0.500501; 
 139 0.800801; 
 139 1.201201; 
 161 5.805806; 
 162 1.301301; 
 165 2.102102; 
 166 4.904905; 
 167 1.901902; 
 168 1.001001; 
 168 0.400400; 
 169 100.000000; 
 170 6.506507; 
 171 0.700701; 
 177 2.202202; 
 178 0.700701; 
 179 2.102102; 
 193 3.603604; 
 194 0.700701; 
 199 0.600601; 
 201 0.600601; 
 205 1.001001; 
 217 0.900901; 
 219 1.801802; 
 220 0.700701; 
 221 1.601602; 
 227 1.001001; 
 228 0.700701; 
 229 0.600601; 
 232 0.500501; 
 235 0.400400; 
 241 0.700701; 
 243 1.601602; 
 243 0.600601; 
 244 1.001001; 
 245 0.700701; 
 245 0.800801; 
 246 0.600601; 
 255 0.500501; 
 257 0.600601; 
 259 0.500501; 
 260 0.500501; 
 261 1.801802; 
 262 0.700701; 
 269 2.102102; 
 270 0.500501; 
 270 0.500501; 
 271 0.800801; 
 272 0.700701; 
 273 0.500501; 
 275 0.800801; 
 285 1.201201; 
 286 0.700701; 
 287 0.600601; 
 287 1.401401; 
 288 0.500501; 
 289 0.700701; 
 299 0.700701; 
 305 11.311311; 
 306 4.104104; 
 307 0.600601; 
 311 0.500501; 
 313 0.500501; 
 316 0.500501; 
 317 2.002002; 
 318 0.800801; 
 319 0.700701; 
 329 1.201201; 
 330 0.400400; 
 331 1.001001; 
 332 0.600601; 


Name: Gallocatechin
SYNON: $:00in-source
DB#: MetaboBASE0903
InChIKey: XMOCLSLCDHWDHP-DOMZBBRYSA-N
Precursor_type: [M-H]-
Spectrum_type: MS2
PrecursorMZ: 305.06
Instrument_type: LC-ESI-TOF
Instrument: impact HD
Ion_mode: N
Collision_energy: 40
InChIKey: XMOCLSLCDHWDHP-DOMZBBRYSA-N
Formula: C15H14O7
MW: 306
ExactMass: 306.073952788
Comments: "license=License CC-BY-NC-SA 4.0 International" "author=Plant Biology, The Noble Foundation, Ardmore, OK, US/Dennis Fine, Daniel Wherritt, and Lloyd Sumner" "instrument type=LC-ESI-TOF" "instrument=impact HD" "ionization=ESI" "ionization mode=negative" "ms level=MS2" "precursor m/z=305.06" "isolation width=5" "collision gas=Nitrogen" "collision energy=40" "peak width=0.02" "date=2014-08-19 19:55:39+02:00" "column=Waters Acquity BEH C18 1.7um x 2.1 x 150 mm" "retention time=67.8" "raw data file=C:\Data\Confirmed standards 19_Aug_2014\Gallocatechin vial 370_1-E,2_01_656.d" "precursor type=[M-H]-" "mass accuracy=21.886802596187433" "mass error=-0.006676787999992939" "cas number=3371-27-5" "SMILES=C1[C@H]([C@@H](OC2=CC(=CC(=C21)O)O)C3=CC(=C(C(=C3)O)O)O)O" "InChI=InChI=1S/C15H14O7/c16-7-3-9(17)8-5-12(20)15(22-13(8)4-7)6-1-10(18)14(21)11(19)2-6/h1-4,12,15-21H,5H2/t12-,15+/m1/s1" "InChIKey=XMOCLSLCDHWDHP-DOMZBBRYSA-N" "molecular formula=C15H14O7" "total exact mass=306.073952788" "SMILES=C1C(C(OC2=CC(=CC(=C21)O)O)C3=CC(=C(C(=C3)O)O)O)O" "InChI=InChI=1S/C15H14O7/c16-7-3-9(17)8-5-12(20)15(22-13(8)4-7)6-1-10(18)14(21)11(19)2-6/h1-4,12,15-21H,5H2/t12-,15+/m0/s1" "InChIKey=XMOCLSLCDHWDHP-SWLSCSKDSA-N"
Num Peaks: 96
 107 2.402402; 
 108 2.402402; 
 109 66.066066; 
 110 8.408408; 
 111 7.207207; 
 115 1.401401; 
 117 2.402402; 
 119 3.503504; 
 120 1.201201; 
 121 16.516517; 
 121 2.702703; 
 122 2.802803; 
 123 19.919920; 
 123 2.902903; 
 124 24.324324; 
 125 100.000000; 
 126 9.509510; 
 130 1.701702; 
 131 3.103103; 
 132 1.101101; 
 133 4.204204; 
 133 2.502503; 
 134 1.101101; 
 135 1.201201; 
 135 3.203203; 
 137 87.487487; 
 137 1.001001; 
 138 23.423423; 
 139 48.048048; 
 139 1.001001; 
 140 4.504505; 
 143 2.102102; 
 145 5.005005; 
 145 2.002002; 
 146 2.202202; 
 147 4.504505; 
 148 1.501502; 
 149 7.307307; 
 149 3.603604; 
 150 3.703704; 
 151 9.109109; 
 152 1.901902; 
 153 3.903904; 
 155 1.501502; 
 157 1.901902; 
 158 2.302302; 
 159 5.905906; 
 160 1.801802; 
 161 9.709710; 
 161 2.002002; 
 162 2.402402; 
 163 2.702703; 
 163 1.401401; 
 164 11.411411; 
 164 2.302302; 
 165 13.613614; 
 165 1.801802; 
 166 5.505506; 
 167 15.615616; 
 168 2.002002; 
 170 1.101101; 
 171 1.301301; 
 172 2.302302; 
 173 2.202202; 
 173 3.403403; 
 174 2.202202; 
 175 8.608609; 
 176 3.603604; 
 177 4.604605; 
 177 4.404404; 
 178 2.902903; 
 179 1.601602; 
 186 1.401401; 
 187 4.004004; 
 188 2.002002; 
 189 1.501502; 
 189 3.003003; 
 190 1.301301; 
 191 3.503504; 
 191 1.901902; 
 193 2.002002; 
 199 2.302302; 
 201 1.901902; 
 202 1.201201; 
 203 2.502503; 
 204 2.102102; 
 211 1.401401; 
 212 1.001001; 
 215 1.701702; 
 217 1.901902; 
 219 4.404404; 
 227 1.101101; 
 229 1.401401; 
 231 1.001001; 
 237 1.301301; 
 242 1.101101; 


Name: Gallocatechin
SYNON: $:00in-source
DB#: MetaboBASE0904
InChIKey: XMOCLSLCDHWDHP-DOMZBBRYSA-N
Precursor_type: [M-H]-
Spectrum_type: MS2
PrecursorMZ: 305.066
Instrument_type: LC-ESI-TOF
Instrument: impact HD
Ion_mode: N
Collision_energy: 30
InChIKey: XMOCLSLCDHWDHP-DOMZBBRYSA-N
Formula: C15H14O7
MW: 306
ExactMass: 306.073952788
Comments: "license=License CC-BY-NC-SA 4.0 International" "author=Plant Biology, The Noble Foundation, Ardmore, OK, US/Dennis Fine, Daniel Wherritt, and Lloyd Sumner" "instrument type=LC-ESI-TOF" "instrument=impact HD" "ionization=ESI" "ionization mode=negative" "ms level=MS2" "precursor m/z=305.066" "isolation width=5" "collision gas=Nitrogen" "collision energy=30" "peak width=0.019" "date=2014-08-19 19:55:39+02:00" "column=Waters Acquity BEH C18 1.7um x 2.1 x 150 mm" "retention time=67.8" "raw data file=C:\Data\Confirmed standards 19_Aug_2014\Gallocatechin vial 370_1-E,2_01_656.d" "precursor type=[M-H]-" "mass accuracy=2.21849698105044" "mass error=-6.767880000211335E-4" "cas number=3371-27-5" "SMILES=C1[C@H]([C@@H](OC2=CC(=CC(=C21)O)O)C3=CC(=C(C(=C3)O)O)O)O" "InChI=InChI=1S/C15H14O7/c16-7-3-9(17)8-5-12(20)15(22-13(8)4-7)6-1-10(18)14(21)11(19)2-6/h1-4,12,15-21H,5H2/t12-,15+/m1/s1" "InChIKey=XMOCLSLCDHWDHP-DOMZBBRYSA-N" "molecular formula=C15H14O7" "total exact mass=306.073952788" "SMILES=C1C(C(OC2=CC(=CC(=C21)O)O)C3=CC(=C(C(=C3)O)O)O)O" "InChI=InChI=1S/C15H14O7/c16-7-3-9(17)8-5-12(20)15(22-13(8)4-7)6-1-10(18)14(21)11(19)2-6/h1-4,12,15-21H,5H2/t12-,15+/m0/s1" "InChIKey=XMOCLSLCDHWDHP-SWLSCSKDSA-N"
Num Peaks: 86
 109 26.526527; 
 110 2.802803; 
 111 6.406406; 
 112 1.101101; 
 121 6.106106; 
 122 1.201201; 
 123 9.409409; 
 123 1.601602; 
 124 10.110110; 
 125 100.000000; 
 126 9.609610; 
 131 1.001001; 
 133 1.201201; 
 133 1.401401; 
 135 2.702703; 
 137 69.469469; 
 138 13.513514; 
 139 28.928929; 
 140 3.603604; 
 143 1.101101; 
 145 1.101101; 
 145 1.001001; 
 147 2.902903; 
 149 4.904905; 
 149 2.902903; 
 150 2.102102; 
 151 5.605606; 
 153 1.901902; 
 159 2.502503; 
 160 1.201201; 
 161 3.403403; 
 161 1.201201; 
 162 2.502503; 
 163 1.801802; 
 164 9.709710; 
 165 21.421421; 
 165 1.101101; 
 166 5.105105; 
 167 24.724725; 
 168 3.503504; 
 171 1.101101; 
 173 1.501502; 
 173 2.702703; 
 174 1.601602; 
 175 6.106106; 
 175 1.201201; 
 176 3.803804; 
 177 4.904905; 
 177 5.205205; 
 178 2.802803; 
 179 6.206206; 
 181 1.001001; 
 187 2.002002; 
 189 3.403403; 
 191 2.602603; 
 191 2.302302; 
 192 1.101101; 
 193 2.602603; 
 199 1.601602; 
 201 2.802803; 
 203 4.204204; 
 204 3.003003; 
 205 2.002002; 
 207 1.401401; 
 213 1.301301; 
 215 1.501502; 
 215 1.001001; 
 217 3.103103; 
 218 1.801802; 
 219 10.210210; 
 220 2.402402; 
 221 4.104104; 
 227 1.201201; 
 229 2.402402; 
 230 1.001001; 
 231 1.201201; 
 233 1.101101; 
 235 1.101101; 
 237 4.304304; 
 238 1.001001; 
 242 1.201201; 
 243 1.301301; 
 243 1.601602; 
 245 1.301301; 
 257 1.701702; 
 274 1.801802; 


Name: Gallocatechin
SYNON: $:00in-source
DB#: MetaboBASE0905
InChIKey: XMOCLSLCDHWDHP-DOMZBBRYSA-N
Instrument_type: LC-ESI-TOF
Instrument: impact HD
Ion_mode: N
InChIKey: XMOCLSLCDHWDHP-DOMZBBRYSA-N
Formula: C15H14O7
MW: 306
ExactMass: 306.073952788
Comments: "license=License CC-BY-NC-SA 4.0 International" "author=Plant Biology, The Noble Foundation, Ardmore, OK, US/Dennis Fine, Daniel Wherritt, and Lloyd Sumner" "instrument type=LC-ESI-TOF" "instrument=impact HD" "ionization=ESI" "ionization mode=negative" "collision gas=Nitrogen" "peak width=0.015" "date=2014-08-19 19:55:39+02:00" "column=Waters Acquity BEH C18 1.7um x 2.1 x 150 mm" "retention time=67.8" "raw data file=C:\Data\Confirmed standards 19_Aug_2014\Gallocatechin vial 370_1-E,2_01_656.d" "cas number=3371-27-5" "SMILES=C1[C@H]([C@@H](OC2=CC(=CC(=C21)O)O)C3=CC(=C(C(=C3)O)O)O)O" "InChI=InChI=1S/C15H14O7/c16-7-3-9(17)8-5-12(20)15(22-13(8)4-7)6-1-10(18)14(21)11(19)2-6/h1-4,12,15-21H,5H2/t12-,15+/m1/s1" "InChIKey=XMOCLSLCDHWDHP-DOMZBBRYSA-N" "molecular formula=C15H14O7" "total exact mass=306.073952788" "SMILES=C1C(C(OC2=CC(=CC(=C21)O)O)C3=CC(=C(C(=C3)O)O)O)O" "InChI=InChI=1S/C15H14O7/c16-7-3-9(17)8-5-12(20)15(22-13(8)4-7)6-1-10(18)14(21)11(19)2-6/h1-4,12,15-21H,5H2/t12-,15+/m0/s1" "InChIKey=XMOCLSLCDHWDHP-SWLSCSKDSA-N"
Num Peaks: 20
 259 3.403403; 
 261 2.402402; 
 275 3.303303; 
 285 2.802803; 
 303 35.435435; 
 304 9.209209; 
 305 100.000000; 
 306 25.825826; 
 307 4.204204; 
 607 3.403403; 
 608 2.002002; 
 609 5.805806; 
 610 3.203203; 
 611 28.328328; 
 612 15.715716; 
 613 5.305305; 
 614 1.401401; 
 913 1.201201; 
 914 1.101101; 
 915 1.201201; 


Name: Gallocatechin
SYNON: $:00in-source
DB#: MetaboBASE0906
InChIKey: XMOCLSLCDHWDHP-DOMZBBRYSA-N
Precursor_type: [M-H]-
Spectrum_type: MS2
PrecursorMZ: 305.0686
Instrument_type: LC-ESI-TOF
Instrument: impact HD
Ion_mode: N
Collision_energy: 10
InChIKey: XMOCLSLCDHWDHP-DOMZBBRYSA-N
Formula: C15H14O7
MW: 306
ExactMass: 306.073952788
Comments: "license=License CC-BY-NC-SA 4.0 International" "author=Plant Biology, The Noble Foundation, Ardmore, OK, US/Dennis Fine, Daniel Wherritt, and Lloyd Sumner" "instrument type=LC-ESI-TOF" "instrument=impact HD" "ionization=ESI" "ionization mode=negative" "ms level=MS2" "precursor m/z=305.0686" "isolation width=5" "collision gas=Nitrogen" "collision energy=10" "peak width=0.018" "date=2014-08-19 19:55:39+02:00" "column=Waters Acquity BEH C18 1.7um x 2.1 x 150 mm" "retention time=67.8" "raw data file=C:\Data\Confirmed standards 19_Aug_2014\Gallocatechin vial 370_1-E,2_01_656.d" "precursor type=[M-H]-" "mass accuracy=6.304195187601523" "mass error=0.0019232120000083341" "cas number=3371-27-5" "SMILES=C1[C@H]([C@@H](OC2=CC(=CC(=C21)O)O)C3=CC(=C(C(=C3)O)O)O)O" "InChI=InChI=1S/C15H14O7/c16-7-3-9(17)8-5-12(20)15(22-13(8)4-7)6-1-10(18)14(21)11(19)2-6/h1-4,12,15-21H,5H2/t12-,15+/m1/s1" "InChIKey=XMOCLSLCDHWDHP-DOMZBBRYSA-N" "molecular formula=C15H14O7" "total exact mass=306.073952788" "SMILES=C1C(C(OC2=CC(=CC(=C21)O)O)C3=CC(=C(C(=C3)O)O)O)O" "InChI=InChI=1S/C15H14O7/c16-7-3-9(17)8-5-12(20)15(22-13(8)4-7)6-1-10(18)14(21)11(19)2-6/h1-4,12,15-21H,5H2/t12-,15+/m0/s1" "InChIKey=XMOCLSLCDHWDHP-SWLSCSKDSA-N"
Num Peaks: 22
 125 4.404404; 
 137 2.802803; 
 165 3.403403; 
 179 2.702703; 
 219 1.801802; 
 221 1.501502; 
 235 1.701702; 
 241 1.301301; 
 257 1.601602; 
 259 2.402402; 
 261 4.304304; 
 262 1.101101; 
 274 1.001001; 
 275 5.305305; 
 276 2.002002; 
 285 4.104104; 
 286 1.501502; 
 303 14.114114; 
 304 5.805806; 
 305 100.000000; 
 306 27.427427; 
 307 2.402402; 


Name: Gallocatechin
SYNON: $:00in-source
DB#: MetaboBASE0907
InChIKey: XMOCLSLCDHWDHP-DOMZBBRYSA-N
Precursor_type: [M-H]-
Spectrum_type: MS2
PrecursorMZ: 305.0674
Instrument_type: LC-ESI-TOF
Instrument: impact HD
Ion_mode: N
Collision_energy: 20
InChIKey: XMOCLSLCDHWDHP-DOMZBBRYSA-N
Formula: C15H14O7
MW: 306
ExactMass: 306.073952788
Comments: "license=License CC-BY-NC-SA 4.0 International" "author=Plant Biology, The Noble Foundation, Ardmore, OK, US/Dennis Fine, Daniel Wherritt, and Lloyd Sumner" "instrument type=LC-ESI-TOF" "instrument=impact HD" "ionization=ESI" "ionization mode=negative" "ms level=MS2" "precursor m/z=305.0674" "isolation width=5" "collision gas=Nitrogen" "collision energy=20" "peak width=0.018" "date=2014-08-19 19:55:39+02:00" "column=Waters Acquity BEH C18 1.7um x 2.1 x 150 mm" "retention time=67.8" "raw data file=C:\Data\Confirmed standards 19_Aug_2014\Gallocatechin vial 370_1-E,2_01_656.d" "precursor type=[M-H]-" "mass accuracy=2.3706630076676225" "mass error=7.232120000253417E-4" "cas number=3371-27-5" "SMILES=C1[C@H]([C@@H](OC2=CC(=CC(=C21)O)O)C3=CC(=C(C(=C3)O)O)O)O" "InChI=InChI=1S/C15H14O7/c16-7-3-9(17)8-5-12(20)15(22-13(8)4-7)6-1-10(18)14(21)11(19)2-6/h1-4,12,15-21H,5H2/t12-,15+/m1/s1" "InChIKey=XMOCLSLCDHWDHP-DOMZBBRYSA-N" "molecular formula=C15H14O7" "total exact mass=306.073952788" "SMILES=C1C(C(OC2=CC(=CC(=C21)O)O)C3=CC(=C(C(=C3)O)O)O)O" "InChI=InChI=1S/C15H14O7/c16-7-3-9(17)8-5-12(20)15(22-13(8)4-7)6-1-10(18)14(21)11(19)2-6/h1-4,12,15-21H,5H2/t12-,15+/m0/s1" "InChIKey=XMOCLSLCDHWDHP-SWLSCSKDSA-N"
Num Peaks: 102
 109 9.409409; 
 110 1.001001; 
 111 3.203203; 
 121 2.502503; 
 123 3.503504; 
 123 1.301301; 
 124 2.502503; 
 125 100.000000; 
 126 10.210210; 
 135 1.601602; 
 137 51.851852; 
 138 8.208208; 
 139 22.222222; 
 140 2.702703; 
 147 1.001001; 
 149 3.703704; 
 150 2.102102; 
 151 4.404404; 
 153 1.201201; 
 159 1.501502; 
 161 2.802803; 
 162 1.001001; 
 163 2.102102; 
 164 6.106106; 
 165 39.239239; 
 166 7.007007; 
 167 28.928929; 
 168 3.503504; 
 173 1.401401; 
 175 4.404404; 
 175 1.401401; 
 176 1.101101; 
 177 7.207207; 
 177 5.905906; 
 178 2.702703; 
 178 1.001001; 
 179 23.623624; 
 180 4.704705; 
 181 1.701702; 
 185 1.301301; 
 189 3.003003; 
 191 3.703704; 
 191 2.802803; 
 193 2.502503; 
 199 1.901902; 
 200 1.001001; 
 201 2.402402; 
 203 4.904905; 
 204 4.504505; 
 205 2.002002; 
 207 4.004004; 
 208 1.201201; 
 213 1.701702; 
 215 1.101101; 
 215 1.301301; 
 217 6.206206; 
 218 3.503504; 
 219 1.401401; 
 219 24.324324; 
 220 5.905906; 
 221 16.116116; 
 222 3.703704; 
 228 1.101101; 
 229 2.002002; 
 230 1.101101; 
 231 3.303303; 
 232 1.001001; 
 233 3.203203; 
 233 2.202202; 
 234 1.201201; 
 235 4.604605; 
 236 1.701702; 
 237 7.007007; 
 238 1.801802; 
 239 1.001001; 
 241 3.503504; 
 242 1.101101; 
 242 1.101101; 
 243 2.002002; 
 243 4.504505; 
 244 1.501502; 
 245 1.901902; 
 247 1.701702; 
 257 6.706707; 
 258 2.202202; 
 259 1.101101; 
 259 2.102102; 
 261 1.101101; 
 261 14.514515; 
 262 4.004004; 
 263 2.502503; 
 274 7.607608; 
 275 8.208208; 
 276 2.102102; 
 285 4.504505; 
 286 1.601602; 
 287 2.102102; 
 288 1.001001; 
 303 2.402402; 
 304 1.301301; 
 305 38.938939; 
 306 11.611612; 


Name: Heptadecanoic acid
SYNON: $:00in-source
DB#: MetaboBASE0908
InChIKey: KEMQGTRYUADPNZ-UHFFFAOYSA-N
Precursor_type: [M-H]-
Spectrum_type: MS2
PrecursorMZ: 269.2493
Instrument_type: LC-ESI-TOF
Instrument: impact HD
Ion_mode: N
Collision_energy: 20
InChIKey: KEMQGTRYUADPNZ-UHFFFAOYSA-N
Formula: C17H34O2
MW: 270
ExactMass: 270.255880328
Comments: "license=License CC-BY-NC-SA 4.0 International" "author=Plant Biology, The Noble Foundation, Ardmore, OK, US/Dennis Fine, Daniel Wherritt, and Lloyd Sumner" "instrument type=LC-ESI-TOF" "instrument=impact HD" "ionization=ESI" "ionization mode=negative" "ms level=MS2" "precursor m/z=269.2493" "isolation width=5" "collision gas=Nitrogen" "collision energy=20" "peak width=0.012" "date=2014-08-20 04:19:05+02:00" "column=Waters Acquity BEH C18 1.7um x 2.1 x 150 mm" "retention time=1935.6" "raw data file=C:\Data\Confirmed standards 19_Aug_2014\Heptadecanoic acid v164 MSMS_1-C,2_01_668.d" "precursor type=[M-H]-" "mass accuracy=2.5837467358548296" "mass error=6.956720000061978E-4" "cas number=506-12-7" "SMILES=CCCCCCCCCCCCCCCCC(=O)O" "InChI=InChI=1S/C17H34O2/c1-2-3-4-5-6-7-8-9-10-11-12-13-14-15-16-17(18)19/h2-16H2,1H3,(H,18,19)" "InChIKey=KEMQGTRYUADPNZ-UHFFFAOYSA-N" "molecular formula=C17H34O2" "total exact mass=270.255880328" "SMILES=CCCCCCCCCCCCCCCCC(=O)O"
Num Peaks: 4
 251 0.300300; 
 269 100.000000; 
 270 13.713714; 
 271 0.700701; 


Name: Heptadecanoic acid
SYNON: $:00in-source
DB#: MetaboBASE0909
InChIKey: KEMQGTRYUADPNZ-UHFFFAOYSA-N
Precursor_type: [M-H]-
Spectrum_type: MS2
PrecursorMZ: 269.2484
Instrument_type: LC-ESI-TOF
Instrument: impact HD
Ion_mode: N
Collision_energy: 30
InChIKey: KEMQGTRYUADPNZ-UHFFFAOYSA-N
Formula: C17H34O2
MW: 270
ExactMass: 270.255880328
Comments: "license=License CC-BY-NC-SA 4.0 International" "author=Plant Biology, The Noble Foundation, Ardmore, OK, US/Dennis Fine, Daniel Wherritt, and Lloyd Sumner" "instrument type=LC-ESI-TOF" "instrument=impact HD" "ionization=ESI" "ionization mode=negative" "ms level=MS2" "precursor m/z=269.2484" "isolation width=5" "collision gas=Nitrogen" "collision energy=30" "peak width=0.017" "date=2014-08-20 04:19:05+02:00" "column=Waters Acquity BEH C18 1.7um x 2.1 x 150 mm" "retention time=1935.6" "raw data file=C:\Data\Confirmed standards 19_Aug_2014\Heptadecanoic acid v164 MSMS_1-C,2_01_668.d" "precursor type=[M-H]-" "mass accuracy=0.7588828754237997" "mass error=-2.0432799999525741E-4" "cas number=506-12-7" "SMILES=CCCCCCCCCCCCCCCCC(=O)O" "InChI=InChI=1S/C17H34O2/c1-2-3-4-5-6-7-8-9-10-11-12-13-14-15-16-17(18)19/h2-16H2,1H3,(H,18,19)" "InChIKey=KEMQGTRYUADPNZ-UHFFFAOYSA-N" "molecular formula=C17H34O2" "total exact mass=270.255880328" "SMILES=CCCCCCCCCCCCCCCCC(=O)O"
Num Peaks: 4
 251 5.205205; 
 269 100.000000; 
 270 16.416416; 
 271 1.101101; 


Name: Heptadecanoic acid
SYNON: $:00in-source
DB#: MetaboBASE0910
InChIKey: KEMQGTRYUADPNZ-UHFFFAOYSA-N
Instrument_type: LC-ESI-TOF
Instrument: impact HD
Ion_mode: N
InChIKey: KEMQGTRYUADPNZ-UHFFFAOYSA-N
Formula: C17H34O2
MW: 270
ExactMass: 270.255880328
Comments: "license=License CC-BY-NC-SA 4.0 International" "author=Plant Biology, The Noble Foundation, Ardmore, OK, US/Dennis Fine, Daniel Wherritt, and Lloyd Sumner" "instrument type=LC-ESI-TOF" "instrument=impact HD" "ionization=ESI" "ionization mode=negative" "collision gas=Nitrogen" "peak width=0.018" "date=2014-08-20 04:19:05+02:00" "column=Waters Acquity BEH C18 1.7um x 2.1 x 150 mm" "retention time=1935.6" "raw data file=C:\Data\Confirmed standards 19_Aug_2014\Heptadecanoic acid v164 MSMS_1-C,2_01_668.d" "cas number=506-12-7" "SMILES=CCCCCCCCCCCCCCCCC(=O)O" "InChI=InChI=1S/C17H34O2/c1-2-3-4-5-6-7-8-9-10-11-12-13-14-15-16-17(18)19/h2-16H2,1H3,(H,18,19)" "InChIKey=KEMQGTRYUADPNZ-UHFFFAOYSA-N" "molecular formula=C17H34O2" "total exact mass=270.255880328" "SMILES=CCCCCCCCCCCCCCCCC(=O)O"
Num Peaks: 17
 128 0.700701; 
 248 0.200200; 
 269 100.000000; 
 269 0.600601; 
 270 15.615616; 
 271 1.701702; 
 279 1.701702; 
 337 0.600601; 
 367 0.300300; 
 368 0.200200; 
 369 5.305305; 
 370 1.501502; 
 371 0.400400; 
 420 0.500501; 
 430 2.902903; 
 431 0.400400; 
 431 0.300300; 


Name: Heptadecanoic acid
SYNON: $:00in-source
DB#: MetaboBASE0911
InChIKey: KEMQGTRYUADPNZ-UHFFFAOYSA-N
Precursor_type: [M-H]-
Spectrum_type: MS2
PrecursorMZ: 269.2496
Instrument_type: LC-ESI-TOF
Instrument: impact HD
Ion_mode: N
Collision_energy: 10
InChIKey: KEMQGTRYUADPNZ-UHFFFAOYSA-N
Formula: C17H34O2
MW: 270
ExactMass: 270.255880328
Comments: "license=License CC-BY-NC-SA 4.0 International" "author=Plant Biology, The Noble Foundation, Ardmore, OK, US/Dennis Fine, Daniel Wherritt, and Lloyd Sumner" "instrument type=LC-ESI-TOF" "instrument=impact HD" "ionization=ESI" "ionization mode=negative" "ms level=MS2" "precursor m/z=269.2496" "isolation width=5" "collision gas=Nitrogen" "collision energy=10" "peak width=0.011" "date=2014-08-20 04:19:05+02:00" "column=Waters Acquity BEH C18 1.7um x 2.1 x 150 mm" "retention time=1935.6" "raw data file=C:\Data\Confirmed standards 19_Aug_2014\Heptadecanoic acid v164 MSMS_1-C,2_01_668.d" "precursor type=[M-H]-" "mass accuracy=3.6979516403654267" "mass error=9.95671999987735E-4" "cas number=506-12-7" "SMILES=CCCCCCCCCCCCCCCCC(=O)O" "InChI=InChI=1S/C17H34O2/c1-2-3-4-5-6-7-8-9-10-11-12-13-14-15-16-17(18)19/h2-16H2,1H3,(H,18,19)" "InChIKey=KEMQGTRYUADPNZ-UHFFFAOYSA-N" "molecular formula=C17H34O2" "total exact mass=270.255880328" "SMILES=CCCCCCCCCCCCCCCCC(=O)O"
Num Peaks: 4
 269 100.000000; 
 269 0.400400; 
 270 13.013013; 
 271 0.700701; 


Name: Heptadecanoic acid
SYNON: $:00in-source
DB#: MetaboBASE0912
InChIKey: KEMQGTRYUADPNZ-UHFFFAOYSA-N
Precursor_type: [M-H]-
Spectrum_type: MS2
PrecursorMZ: 269.25
Instrument_type: LC-ESI-TOF
Instrument: impact HD
Ion_mode: N
Collision_energy: 40
InChIKey: KEMQGTRYUADPNZ-UHFFFAOYSA-N
Formula: C17H34O2
MW: 270
ExactMass: 270.255880328
Comments: "license=License CC-BY-NC-SA 4.0 International" "author=Plant Biology, The Noble Foundation, Ardmore, OK, US/Dennis Fine, Daniel Wherritt, and Lloyd Sumner" "instrument type=LC-ESI-TOF" "instrument=impact HD" "ionization=ESI" "ionization mode=negative" "ms level=MS2" "precursor m/z=269.25" "isolation width=5" "collision gas=Nitrogen" "collision energy=40" "peak width=0.015" "date=2014-08-20 04:19:05+02:00" "column=Waters Acquity BEH C18 1.7um x 2.1 x 150 mm" "retention time=1935.6" "raw data file=C:\Data\Confirmed standards 19_Aug_2014\Heptadecanoic acid v164 MSMS_1-C,2_01_668.d" "precursor type=[M-H]-" "mass accuracy=5.183554317552511" "mass error=0.0013956720000010137" "cas number=506-12-7" "SMILES=CCCCCCCCCCCCCCCCC(=O)O" "InChI=InChI=1S/C17H34O2/c1-2-3-4-5-6-7-8-9-10-11-12-13-14-15-16-17(18)19/h2-16H2,1H3,(H,18,19)" "InChIKey=KEMQGTRYUADPNZ-UHFFFAOYSA-N" "molecular formula=C17H34O2" "total exact mass=270.255880328" "SMILES=CCCCCCCCCCCCCCCCC(=O)O"
Num Peaks: 1
 116 100.000000; 


Name: Tricosanoic acid
SYNON: $:00in-source
DB#: MetaboBASE0913
InChIKey: XEZVDURJDFGERA-UHFFFAOYSA-N
Precursor_type: [M-H]-
Spectrum_type: MS2
PrecursorMZ: 353.35
Instrument_type: LC-ESI-TOF
Instrument: impact HD
Ion_mode: N
Collision_energy: 40
InChIKey: XEZVDURJDFGERA-UHFFFAOYSA-N
Formula: C23H46O2
MW: 354
ExactMass: 354.349780712
Comments: "license=License CC-BY-NC-SA 4.0 International" "author=Plant Biology, The Noble Foundation, Ardmore, OK, US/Dennis Fine, Daniel Wherritt, and Lloyd Sumner" "instrument type=LC-ESI-TOF" "instrument=impact HD" "ionization=ESI" "ionization mode=negative" "ms level=MS2" "precursor m/z=353.35" "isolation width=5" "collision gas=Nitrogen" "collision energy=40" "peak width=0.018" "date=2014-08-20 04:59:53+02:00" "column=Waters Acquity BEH C18 1.7um x 2.1 x 150 mm" "retention time=2086.2" "raw data file=C:\Data\Confirmed standards 19_Aug_2014\Tricosanoic acid v219 MSMS_1-D,4_01_669.d" "precursor type=[M-H]-" "mass accuracy=21.21207867561803" "mass error=0.007495288000029632" "cas number=2433-96-7" "SMILES=CCCCCCCCCCCCCCCCCCCCCCC(=O)O" "InChI=InChI=1S/C23H46O2/c1-2-3-4-5-6-7-8-9-10-11-12-13-14-15-16-17-18-19-20-21-22-23(24)25/h2-22H2,1H3,(H,24,25)" "InChIKey=XEZVDURJDFGERA-UHFFFAOYSA-N" "molecular formula=C23H46O2" "total exact mass=354.349780712" "SMILES=CCCCCCCCCCCCCCCCCCCCCCC(=O)O"
Num Peaks: 2
 106 60.260260; 
 223 100.000000; 


Name: Tricosanoic acid
SYNON: $:00in-source
DB#: MetaboBASE0914
InChIKey: XEZVDURJDFGERA-UHFFFAOYSA-N
Precursor_type: [M-H]-
Spectrum_type: MS2
PrecursorMZ: 353.3415
Instrument_type: LC-ESI-TOF
Instrument: impact HD
Ion_mode: N
Collision_energy: 30
InChIKey: XEZVDURJDFGERA-UHFFFAOYSA-N
Formula: C23H46O2
MW: 354
ExactMass: 354.349780712
Comments: "license=License CC-BY-NC-SA 4.0 International" "author=Plant Biology, The Noble Foundation, Ardmore, OK, US/Dennis Fine, Daniel Wherritt, and Lloyd Sumner" "instrument type=LC-ESI-TOF" "instrument=impact HD" "ionization=ESI" "ionization mode=negative" "ms level=MS2" "precursor m/z=353.3415" "isolation width=5" "collision gas=Nitrogen" "collision energy=30" "peak width=0.019" "date=2014-08-20 04:59:53+02:00" "column=Waters Acquity BEH C18 1.7um x 2.1 x 150 mm" "retention time=2086.2" "raw data file=C:\Data\Confirmed standards 19_Aug_2014\Tricosanoic acid v219 MSMS_1-D,4_01_669.d" "precursor type=[M-H]-" "mass accuracy=2.843458806839116" "mass error=-0.0010047119999967435" "cas number=2433-96-7" "SMILES=CCCCCCCCCCCCCCCCCCCCCCC(=O)O" "InChI=InChI=1S/C23H46O2/c1-2-3-4-5-6-7-8-9-10-11-12-13-14-15-16-17-18-19-20-21-22-23(24)25/h2-22H2,1H3,(H,24,25)" "InChIKey=XEZVDURJDFGERA-UHFFFAOYSA-N" "molecular formula=C23H46O2" "total exact mass=354.349780712" "SMILES=CCCCCCCCCCCCCCCCCCCCCCC(=O)O"
Num Peaks: 3
 217 5.305305; 
 353 100.000000; 
 354 28.228228; 


Name: Tricosanoic acid
SYNON: $:00in-source
DB#: MetaboBASE0915
InChIKey: XEZVDURJDFGERA-UHFFFAOYSA-N
Precursor_type: [M-H]-
Spectrum_type: MS2
PrecursorMZ: 353.3427
Instrument_type: LC-ESI-TOF
Instrument: impact HD
Ion_mode: N
Collision_energy: 10
InChIKey: XEZVDURJDFGERA-UHFFFAOYSA-N
Formula: C23H46O2
MW: 354
ExactMass: 354.349780712
Comments: "license=License CC-BY-NC-SA 4.0 International" "author=Plant Biology, The Noble Foundation, Ardmore, OK, US/Dennis Fine, Daniel Wherritt, and Lloyd Sumner" "instrument type=LC-ESI-TOF" "instrument=impact HD" "ionization=ESI" "ionization mode=negative" "ms level=MS2" "precursor m/z=353.3427" "isolation width=5" "collision gas=Nitrogen" "collision energy=10" "peak width=0.016" "date=2014-08-20 04:59:53+02:00" "column=Waters Acquity BEH C18 1.7um x 2.1 x 150 mm" "retention time=2086.2" "raw data file=C:\Data\Confirmed standards 19_Aug_2014\Tricosanoic acid v219 MSMS_1-D,4_01_669.d" "precursor type=[M-H]-" "mass accuracy=0.552687235327768" "mass error=1.952879999862489E-4" "cas number=2433-96-7" "SMILES=CCCCCCCCCCCCCCCCCCCCCCC(=O)O" "InChI=InChI=1S/C23H46O2/c1-2-3-4-5-6-7-8-9-10-11-12-13-14-15-16-17-18-19-20-21-22-23(24)25/h2-22H2,1H3,(H,24,25)" "InChIKey=XEZVDURJDFGERA-UHFFFAOYSA-N" "molecular formula=C23H46O2" "total exact mass=354.349780712" "SMILES=CCCCCCCCCCCCCCCCCCCCCCC(=O)O"
Num Peaks: 3
 285 27.427427; 
 353 100.000000; 
 354 22.522523; 


Name: Tricosanoic acid
SYNON: $:00in-source
DB#: MetaboBASE0916
InChIKey: XEZVDURJDFGERA-UHFFFAOYSA-N
Precursor_type: [M-H]-
Spectrum_type: MS2
PrecursorMZ: 353.3424
Instrument_type: LC-ESI-TOF
Instrument: impact HD
Ion_mode: N
Collision_energy: 20
InChIKey: XEZVDURJDFGERA-UHFFFAOYSA-N
Formula: C23H46O2
MW: 354
ExactMass: 354.349780712
Comments: "license=License CC-BY-NC-SA 4.0 International" "author=Plant Biology, The Noble Foundation, Ardmore, OK, US/Dennis Fine, Daniel Wherritt, and Lloyd Sumner" "instrument type=LC-ESI-TOF" "instrument=impact HD" "ionization=ESI" "ionization mode=negative" "ms level=MS2" "precursor m/z=353.3424" "isolation width=5" "collision gas=Nitrogen" "collision energy=20" "peak width=0.017" "date=2014-08-20 04:59:53+02:00" "column=Waters Acquity BEH C18 1.7um x 2.1 x 150 mm" "retention time=2086.2" "raw data file=C:\Data\Confirmed standards 19_Aug_2014\Tricosanoic acid v219 MSMS_1-D,4_01_669.d" "precursor type=[M-H]-" "mass accuracy=0.2963471125890591" "mass error=-1.0471199999528835E-4" "cas number=2433-96-7" "SMILES=CCCCCCCCCCCCCCCCCCCCCCC(=O)O" "InChI=InChI=1S/C23H46O2/c1-2-3-4-5-6-7-8-9-10-11-12-13-14-15-16-17-18-19-20-21-22-23(24)25/h2-22H2,1H3,(H,24,25)" "InChIKey=XEZVDURJDFGERA-UHFFFAOYSA-N" "molecular formula=C23H46O2" "total exact mass=354.349780712" "SMILES=CCCCCCCCCCCCCCCCCCCCCCC(=O)O"
Num Peaks: 4
 217 6.006006; 
 285 2.402402; 
 353 100.000000; 
 354 24.124124; 


Name: Tricosanoic acid
SYNON: $:00in-source
DB#: MetaboBASE0917
InChIKey: XEZVDURJDFGERA-UHFFFAOYSA-N
Instrument_type: LC-ESI-TOF
Instrument: impact HD
Ion_mode: N
InChIKey: XEZVDURJDFGERA-UHFFFAOYSA-N
Formula: C23H46O2
MW: 354
ExactMass: 354.349780712
Comments: "license=License CC-BY-NC-SA 4.0 International" "author=Plant Biology, The Noble Foundation, Ardmore, OK, US/Dennis Fine, Daniel Wherritt, and Lloyd Sumner" "instrument type=LC-ESI-TOF" "instrument=impact HD" "ionization=ESI" "ionization mode=negative" "collision gas=Nitrogen" "peak width=0.016" "date=2014-08-20 04:59:53+02:00" "column=Waters Acquity BEH C18 1.7um x 2.1 x 150 mm" "retention time=2086.2" "raw data file=C:\Data\Confirmed standards 19_Aug_2014\Tricosanoic acid v219 MSMS_1-D,4_01_669.d" "cas number=2433-96-7" "SMILES=CCCCCCCCCCCCCCCCCCCCCCC(=O)O" "InChI=InChI=1S/C23H46O2/c1-2-3-4-5-6-7-8-9-10-11-12-13-14-15-16-17-18-19-20-21-22-23(24)25/h2-22H2,1H3,(H,24,25)" "InChIKey=XEZVDURJDFGERA-UHFFFAOYSA-N" "molecular formula=C23H46O2" "total exact mass=354.349780712" "SMILES=CCCCCCCCCCCCCCCCCCCCCCC(=O)O"
Num Peaks: 4
 353 100.000000; 
 354 22.822823; 
 655 5.105105; 
 730 9.009009; 


Name: 2,3-Trans-3,4-trans-Leucocyanidin
SYNON: $:00in-source
DB#: MetaboBASE0918
InChIKey: SBZWTSHAFILOTE-UHFFFAOYSA-N
Spectrum_type: MS2
PrecursorMZ: 303.05
Instrument_type: LC-ESI-TOF
Instrument: impact HD
Ion_mode: N
Collision_energy: 20
InChIKey: SBZWTSHAFILOTE-UHFFFAOYSA-N
Formula: C15H14O7
MW: 306
ExactMass: 306.073952788
Comments: "synonym=Trans,trans-Leucocyanidin" "license=License CC-BY-NC-SA 4.0 International" "author=Plant Biology, The Noble Foundation, Ardmore, OK, US/Dennis Fine, Daniel Wherritt, and Lloyd Sumner" "instrument type=LC-ESI-TOF" "instrument=impact HD" "ionization=ESI" "ionization mode=negative" "ms level=MS2" "precursor m/z=303.05" "isolation width=5" "collision gas=Nitrogen" "collision energy=20" "peak width=0.017" "date=2014-08-22 01:17:25+02:00" "column=Waters Acquity BEH C18 1.7um x 2.1 x 150 mm" "retention time=115.2" "raw data file=C:\Data\Confirmed standards 21_Aug_2014\trans,trans-Leucocyanidin v378_1-F,2_01_684.d" "cas number=480-17-1" "SMILES=c1cc(c(cc1C2C(C(c3c(cc(cc3O2)O)O)O)O)O)O" "InChI=InChI=1S/C15H14O7/c16-7-4-10(19)12-11(5-7)22-15(14(21)13(12)20)6-1-2-8(17)9(18)3-6/h1-5,13-21H" "InChIKey=SBZWTSHAFILOTE-UHFFFAOYSA-N" "molecular formula=C15H14O7" "total exact mass=306.073952788" "SMILES=C1=CC(=C(C=C1C2C(C(C3=C(C=C(C=C3O2)O)O)O)O)O)O"
Num Peaks: 20
 121 8.608609; 
 125 100.000000; 
 126 22.322322; 
 137 40.340340; 
 151 14.214214; 
 152 9.109109; 
 153 35.535536; 
 154 8.408408; 
 175 13.213213; 
 213 7.207207; 
 217 9.809810; 
 229 11.211211; 
 232 6.706707; 
 241 16.316316; 
 243 7.507508; 
 245 13.813814; 
 257 20.820821; 
 258 13.313313; 
 285 34.534535; 
 286 8.108108; 


Name: 2,3-Trans-3,4-trans-Leucocyanidin
SYNON: $:00in-source
DB#: MetaboBASE0919
InChIKey: SBZWTSHAFILOTE-UHFFFAOYSA-N
Spectrum_type: MS2
PrecursorMZ: 303.05
Instrument_type: LC-ESI-TOF
Instrument: impact HD
Ion_mode: N
Collision_energy: 30
InChIKey: SBZWTSHAFILOTE-UHFFFAOYSA-N
Formula: C15H14O7
MW: 306
ExactMass: 306.073952788
Comments: "synonym=Trans,trans-Leucocyanidin" "license=License CC-BY-NC-SA 4.0 International" "author=Plant Biology, The Noble Foundation, Ardmore, OK, US/Dennis Fine, Daniel Wherritt, and Lloyd Sumner" "instrument type=LC-ESI-TOF" "instrument=impact HD" "ionization=ESI" "ionization mode=negative" "ms level=MS2" "precursor m/z=303.05" "isolation width=5" "collision gas=Nitrogen" "collision energy=30" "peak width=0.019" "date=2014-08-22 01:17:25+02:00" "column=Waters Acquity BEH C18 1.7um x 2.1 x 150 mm" "retention time=115.2" "raw data file=C:\Data\Confirmed standards 21_Aug_2014\trans,trans-Leucocyanidin v378_1-F,2_01_684.d" "cas number=480-17-1" "SMILES=c1cc(c(cc1C2C(C(c3c(cc(cc3O2)O)O)O)O)O)O" "InChI=InChI=1S/C15H14O7/c16-7-4-10(19)12-11(5-7)22-15(14(21)13(12)20)6-1-2-8(17)9(18)3-6/h1-5,13-21H" "InChIKey=SBZWTSHAFILOTE-UHFFFAOYSA-N" "molecular formula=C15H14O7" "total exact mass=306.073952788" "SMILES=C1=CC(=C(C=C1C2C(C(C3=C(C=C(C=C3O2)O)O)O)O)O)O"
Num Peaks: 14
 109 27.027027; 
 121 28.528529; 
 123 14.814815; 
 125 100.000000; 
 126 23.423423; 
 137 64.564565; 
 149 13.313313; 
 151 18.418418; 
 152 15.015015; 
 153 43.843844; 
 174 19.619620; 
 175 15.415415; 
 188 14.414414; 
 229 19.819820; 


Name: 2,3-Trans-3,4-trans-Leucocyanidin
SYNON: $:00in-source
DB#: MetaboBASE0920
InChIKey: SBZWTSHAFILOTE-UHFFFAOYSA-N
Spectrum_type: MS2
PrecursorMZ: 303.0515
Instrument_type: LC-ESI-TOF
Instrument: impact HD
Ion_mode: N
Collision_energy: 10
InChIKey: SBZWTSHAFILOTE-UHFFFAOYSA-N
Formula: C15H14O7
MW: 306
ExactMass: 306.073952788
Comments: "synonym=Trans,trans-Leucocyanidin" "license=License CC-BY-NC-SA 4.0 International" "author=Plant Biology, The Noble Foundation, Ardmore, OK, US/Dennis Fine, Daniel Wherritt, and Lloyd Sumner" "instrument type=LC-ESI-TOF" "instrument=impact HD" "ionization=ESI" "ionization mode=negative" "ms level=MS2" "precursor m/z=303.0515" "isolation width=5" "collision gas=Nitrogen" "collision energy=10" "peak width=0.018" "date=2014-08-22 01:17:25+02:00" "column=Waters Acquity BEH C18 1.7um x 2.1 x 150 mm" "retention time=115.2" "raw data file=C:\Data\Confirmed standards 21_Aug_2014\trans,trans-Leucocyanidin v378_1-F,2_01_684.d" "cas number=480-17-1" "SMILES=c1cc(c(cc1C2C(C(c3c(cc(cc3O2)O)O)O)O)O)O" "InChI=InChI=1S/C15H14O7/c16-7-4-10(19)12-11(5-7)22-15(14(21)13(12)20)6-1-2-8(17)9(18)3-6/h1-5,13-21H" "InChIKey=SBZWTSHAFILOTE-UHFFFAOYSA-N" "molecular formula=C15H14O7" "total exact mass=306.073952788" "SMILES=C1=CC(=C(C=C1C2C(C(C3=C(C=C(C=C3O2)O)O)O)O)O)O"
Num Peaks: 25
 125 100.000000; 
 126 16.016016; 
 137 16.416416; 
 149 4.804805; 
 153 19.219219; 
 165 9.209209; 
 177 10.910911; 
 217 8.308308; 
 231 7.907908; 
 241 17.817818; 
 242 6.706707; 
 243 5.705706; 
 245 34.434434; 
 246 8.708709; 
 257 18.218218; 
 258 5.905906; 
 259 10.210210; 
 275 41.441441; 
 276 22.822823; 
 285 68.768769; 
 286 36.636637; 
 301 4.904905; 
 303 31.731732; 
 304 13.913914; 
 305 5.505506; 


Name: 2,3-Trans-3,4-trans-Leucocyanidin
SYNON: $:00in-source
DB#: MetaboBASE0921
InChIKey: SBZWTSHAFILOTE-UHFFFAOYSA-N
Instrument_type: LC-ESI-TOF
Instrument: impact HD
Ion_mode: N
Collision_energy: 10
InChIKey: SBZWTSHAFILOTE-UHFFFAOYSA-N
Formula: C15H14O7
MW: 306
ExactMass: 306.073952788
Comments: "synonym=Trans,trans-Leucocyanidin" "license=License CC-BY-NC-SA 4.0 International" "author=Plant Biology, The Noble Foundation, Ardmore, OK, US/Dennis Fine, Daniel Wherritt, and Lloyd Sumner" "instrument type=LC-ESI-TOF" "instrument=impact HD" "ionization=ESI" "ionization mode=negative" "collision gas=Nitrogen" "collision energy=10" "peak width=0.018" "date=2014-08-20 01:35:45+02:00" "column=Waters Acquity BEH C18 1.7um x 2.1 x 150 mm" "retention time=115.2" "raw data file=C:\Data\Confirmed standards 19_Aug_2014\trans,trans-Leucocyanidin v378_1-F,2_01_664.d" "cas number=480-17-1" "SMILES=c1cc(c(cc1C2C(C(c3c(cc(cc3O2)O)O)O)O)O)O" "InChI=InChI=1S/C15H14O7/c16-7-4-10(19)12-11(5-7)22-15(14(21)13(12)20)6-1-2-8(17)9(18)3-6/h1-5,13-21H" "InChIKey=SBZWTSHAFILOTE-UHFFFAOYSA-N" "molecular formula=C15H14O7" "total exact mass=306.073952788" "SMILES=C1=CC(=C(C=C1C2C(C(C3=C(C=C(C=C3O2)O)O)O)O)O)O"
Num Peaks: 66
 116 2.102102; 
 123 1.901902; 
 125 41.741742; 
 126 10.810811; 
 137 9.309309; 
 149 1.301301; 
 151 16.216216; 
 151 5.805806; 
 152 4.004004; 
 153 78.878879; 
 154 22.822823; 
 155 2.002002; 
 163 2.302302; 
 165 9.009009; 
 166 1.301301; 
 177 8.708709; 
 178 1.401401; 
 181 0.600601; 
 217 6.506507; 
 221 0.600601; 
 231 2.202202; 
 236 3.503504; 
 241 11.711712; 
 242 2.802803; 
 243 3.703704; 
 245 12.412412; 
 246 2.802803; 
 257 27.227227; 
 258 9.109109; 
 259 11.411411; 
 260 2.802803; 
 275 66.966967; 
 276 26.126126; 
 277 5.105105; 
 285 76.276276; 
 286 27.327327; 
 287 7.707708; 
 301 7.907908; 
 302 0.600601; 
 303 100.000000; 
 304 37.137137; 
 305 24.324324; 
 306 7.107107; 
 309 6.106106; 
 319 4.404404; 
 325 0.700701; 
 327 6.506507; 
 357 4.604605; 
 371 8.808809; 
 372 1.201201; 
 387 4.104104; 
 388 0.700701; 
 389 0.800801; 
 404 0.700701; 
 447 4.804805; 
 449 15.215215; 
 450 7.207207; 
 481 4.704705; 
 482 0.700701; 
 499 2.002002; 
 607 6.606607; 
 608 5.305305; 
 609 10.110110; 
 610 6.306306; 
 611 9.609610; 
 612 6.106106; 


Name: 2,3-Trans-3,4-cis-Leucocyanidin
SYNON: $:00in-source
DB#: MetaboBASE0922
InChIKey: SBZWTSHAFILOTE-SOUVJXGZSA-N
Instrument_type: LC-ESI-TOF
Instrument: impact HD
Ion_mode: N
Collision_energy: 10
InChIKey: SBZWTSHAFILOTE-SOUVJXGZSA-N
Formula: C15H14O7
MW: 306
ExactMass: 306.073952788
Comments: "license=License CC-BY-NC-SA 4.0 International" "author=Plant Biology, The Noble Foundation, Ardmore, OK, US/Dennis Fine, Daniel Wherritt, and Lloyd Sumner" "instrument type=LC-ESI-TOF" "instrument=impact HD" "ionization=ESI" "ionization mode=negative" "collision gas=Nitrogen" "collision energy=10" "peak width=0.018" "date=2014-08-20 00:54:56+02:00" "column=Waters Acquity BEH C18 1.7um x 2.1 x 150 mm" "retention time=85.8" "raw data file=C:\Data\Confirmed standards 19_Aug_2014\trans,cis-Leucocyanidin v377_1-F,1_01_663.d" "cas number=93527-39-0" "SMILES=c1cc(c(cc1[C@@H]2[C@H]([C@H](c3c(cc(cc3O2)O)O)O)O)O)O" "InChI=InChI=1S/C15H14O7/c16-7-4-10(19)12-11(5-7)22-15(14(21)13(12)20)6-1-2-8(17)9(18)3-6/h1-5,13-21H/t13-,14-,15+/m0/s1" "InChIKey=SBZWTSHAFILOTE-SOUVJXGZSA-N" "molecular formula=C15H14O7" "total exact mass=306.073952788" "SMILES=C1=CC(=C(C=C1C2C(C(C3=C(C=C(C=C3O2)O)O)O)O)O)O" "InChI=InChI=1S/C15H14O7/c16-7-4-10(19)12-11(5-7)22-15(14(21)13(12)20)6-1-2-8(17)9(18)3-6/h1-5,13-21H" "InChIKey=SBZWTSHAFILOTE-UHFFFAOYSA-N"
Num Peaks: 10
 289 0.300300; 
 290 0.100100; 
 301 0.200200; 
 303 100.000000; 
 304 45.545546; 
 305 27.627628; 
 306 9.809810; 
 307 0.100100; 
 309 3.003003; 
 310 0.600601; 


Name: 2,3-Trans-3,4-cis-Leucocyanidin
SYNON: $:00in-source
DB#: MetaboBASE0923
InChIKey: SBZWTSHAFILOTE-SOUVJXGZSA-N
Spectrum_type: MS2
PrecursorMZ: 303.05
Instrument_type: LC-ESI-TOF
Instrument: impact HD
Ion_mode: N
Collision_energy: 30
InChIKey: SBZWTSHAFILOTE-SOUVJXGZSA-N
Formula: C15H14O7
MW: 306
ExactMass: 306.073952788
Comments: "license=License CC-BY-NC-SA 4.0 International" "author=Plant Biology, The Noble Foundation, Ardmore, OK, US/Dennis Fine, Daniel Wherritt, and Lloyd Sumner" "instrument type=LC-ESI-TOF" "instrument=impact HD" "ionization=ESI" "ionization mode=negative" "ms level=MS2" "precursor m/z=303.05" "isolation width=5" "collision gas=Nitrogen" "collision energy=30" "peak width=0.02" "date=2014-08-22 00:36:33+02:00" "column=Waters Acquity BEH C18 1.7um x 2.1 x 150 mm" "retention time=85.8" "raw data file=C:\Data\Confirmed standards 21_Aug_2014\trans,cis-Leucocyanidin v377_1-F,1_01_683.d" "cas number=93527-39-0" "SMILES=c1cc(c(cc1[C@@H]2[C@H]([C@H](c3c(cc(cc3O2)O)O)O)O)O)O" "InChI=InChI=1S/C15H14O7/c16-7-4-10(19)12-11(5-7)22-15(14(21)13(12)20)6-1-2-8(17)9(18)3-6/h1-5,13-21H/t13-,14-,15+/m0/s1" "InChIKey=SBZWTSHAFILOTE-SOUVJXGZSA-N" "molecular formula=C15H14O7" "total exact mass=306.073952788" "SMILES=C1=CC(=C(C=C1C2C(C(C3=C(C=C(C=C3O2)O)O)O)O)O)O" "InChI=InChI=1S/C15H14O7/c16-7-4-10(19)12-11(5-7)22-15(14(21)13(12)20)6-1-2-8(17)9(18)3-6/h1-5,13-21H" "InChIKey=SBZWTSHAFILOTE-UHFFFAOYSA-N"
Num Peaks: 26
 109 12.812813; 
 121 25.525526; 
 123 14.614615; 
 125 100.000000; 
 126 32.632633; 
 137 50.650651; 
 147 12.612613; 
 149 16.616617; 
 150 10.710711; 
 151 27.927928; 
 151 8.708709; 
 152 13.513514; 
 153 58.458458; 
 154 15.315315; 
 159 8.208208; 
 171 6.006006; 
 174 7.207207; 
 175 11.011011; 
 185 6.306306; 
 187 6.706707; 
 188 7.807808; 
 189 8.808809; 
 213 5.905906; 
 228 6.606607; 
 229 15.315315; 
 257 10.510511; 


Name: 2,3-Trans-3,4-cis-Leucocyanidin
SYNON: $:00in-source
DB#: MetaboBASE0924
InChIKey: SBZWTSHAFILOTE-SOUVJXGZSA-N
Spectrum_type: MS2
PrecursorMZ: 303.05
Instrument_type: LC-ESI-TOF
Instrument: impact HD
Ion_mode: N
Collision_energy: 20
InChIKey: SBZWTSHAFILOTE-SOUVJXGZSA-N
Formula: C15H14O7
MW: 306
ExactMass: 306.073952788
Comments: "license=License CC-BY-NC-SA 4.0 International" "author=Plant Biology, The Noble Foundation, Ardmore, OK, US/Dennis Fine, Daniel Wherritt, and Lloyd Sumner" "instrument type=LC-ESI-TOF" "instrument=impact HD" "ionization=ESI" "ionization mode=negative" "ms level=MS2" "precursor m/z=303.05" "isolation width=5" "collision gas=Nitrogen" "collision energy=20" "peak width=0.02" "date=2014-08-22 00:36:33+02:00" "column=Waters Acquity BEH C18 1.7um x 2.1 x 150 mm" "retention time=85.8" "raw data file=C:\Data\Confirmed standards 21_Aug_2014\trans,cis-Leucocyanidin v377_1-F,1_01_683.d" "cas number=93527-39-0" "SMILES=c1cc(c(cc1[C@@H]2[C@H]([C@H](c3c(cc(cc3O2)O)O)O)O)O)O" "InChI=InChI=1S/C15H14O7/c16-7-4-10(19)12-11(5-7)22-15(14(21)13(12)20)6-1-2-8(17)9(18)3-6/h1-5,13-21H/t13-,14-,15+/m0/s1" "InChIKey=SBZWTSHAFILOTE-SOUVJXGZSA-N" "molecular formula=C15H14O7" "total exact mass=306.073952788" "SMILES=C1=CC(=C(C=C1C2C(C(C3=C(C=C(C=C3O2)O)O)O)O)O)O" "InChI=InChI=1S/C15H14O7/c16-7-4-10(19)12-11(5-7)22-15(14(21)13(12)20)6-1-2-8(17)9(18)3-6/h1-5,13-21H" "InChIKey=SBZWTSHAFILOTE-UHFFFAOYSA-N"
Num Peaks: 36
 109 6.306306; 
 121 6.606607; 
 123 4.004004; 
 125 100.000000; 
 126 23.423423; 
 137 25.025025; 
 149 15.615616; 
 150 3.703704; 
 151 10.310310; 
 151 4.004004; 
 152 4.804805; 
 153 50.050050; 
 154 16.316316; 
 163 4.604605; 
 165 3.703704; 
 175 7.507508; 
 177 6.206206; 
 178 3.203203; 
 189 4.304304; 
 199 3.403403; 
 213 5.205205; 
 217 12.612613; 
 218 5.805806; 
 229 7.907908; 
 230 4.504505; 
 231 3.603604; 
 241 10.710711; 
 242 3.203203; 
 243 3.103103; 
 256 4.604605; 
 257 22.022022; 
 258 8.108108; 
 275 7.207207; 
 276 3.503504; 
 285 19.119119; 
 286 8.608609; 


Name: 2,3-Trans-3,4-cis-Leucocyanidin
SYNON: $:00in-source
DB#: MetaboBASE0925
InChIKey: SBZWTSHAFILOTE-SOUVJXGZSA-N
Spectrum_type: MS2
PrecursorMZ: 303.0525
Instrument_type: LC-ESI-TOF
Instrument: impact HD
Ion_mode: N
Collision_energy: 10
InChIKey: SBZWTSHAFILOTE-SOUVJXGZSA-N
Formula: C15H14O7
MW: 306
ExactMass: 306.073952788
Comments: "license=License CC-BY-NC-SA 4.0 International" "author=Plant Biology, The Noble Foundation, Ardmore, OK, US/Dennis Fine, Daniel Wherritt, and Lloyd Sumner" "instrument type=LC-ESI-TOF" "instrument=impact HD" "ionization=ESI" "ionization mode=negative" "ms level=MS2" "precursor m/z=303.0525" "isolation width=5" "collision gas=Nitrogen" "collision energy=10" "peak width=0.019" "date=2014-08-22 00:36:33+02:00" "column=Waters Acquity BEH C18 1.7um x 2.1 x 150 mm" "retention time=85.8" "raw data file=C:\Data\Confirmed standards 21_Aug_2014\trans,cis-Leucocyanidin v377_1-F,1_01_683.d" "cas number=93527-39-0" "SMILES=c1cc(c(cc1[C@@H]2[C@H]([C@H](c3c(cc(cc3O2)O)O)O)O)O)O" "InChI=InChI=1S/C15H14O7/c16-7-4-10(19)12-11(5-7)22-15(14(21)13(12)20)6-1-2-8(17)9(18)3-6/h1-5,13-21H/t13-,14-,15+/m0/s1" "InChIKey=SBZWTSHAFILOTE-SOUVJXGZSA-N" "molecular formula=C15H14O7" "total exact mass=306.073952788" "SMILES=C1=CC(=C(C=C1C2C(C(C3=C(C=C(C=C3O2)O)O)O)O)O)O" "InChI=InChI=1S/C15H14O7/c16-7-4-10(19)12-11(5-7)22-15(14(21)13(12)20)6-1-2-8(17)9(18)3-6/h1-5,13-21H" "InChIKey=SBZWTSHAFILOTE-UHFFFAOYSA-N"
Num Peaks: 32
 125 89.589590; 
 126 22.422422; 
 137 16.916917; 
 149 5.605606; 
 151 5.005005; 
 153 47.347347; 
 154 10.910911; 
 165 7.507508; 
 166 4.104104; 
 175 4.104104; 
 177 10.710711; 
 178 4.104104; 
 181 4.404404; 
 217 3.503504; 
 231 3.803804; 
 241 19.219219; 
 242 5.205205; 
 243 3.603604; 
 245 3.703704; 
 257 19.619620; 
 258 6.906907; 
 259 8.808809; 
 260 3.803804; 
 275 49.849850; 
 276 21.021021; 
 277 3.503504; 
 285 100.000000; 
 286 35.735736; 
 287 4.404404; 
 303 36.236236; 
 304 16.316316; 
 305 7.507508; 


Name: Lignoceric acid
SYNON: $:00in-source
DB#: MetaboBASE0926
InChIKey: QZZGJDVWLFXDLK-UHFFFAOYSA-N
Precursor_type: [M-H]-
Spectrum_type: MS2
PrecursorMZ: 367.3596
Instrument_type: LC-ESI-TOF
Instrument: impact HD
Ion_mode: N
Collision_energy: 20
InChIKey: QZZGJDVWLFXDLK-UHFFFAOYSA-N
Formula: C24H48O2
MW: 368
ExactMass: 368.365430776
Comments: "license=License CC-BY-NC-SA 4.0 International" "author=Plant Biology, The Noble Foundation, Ardmore, OK, US/Dennis Fine, Daniel Wherritt, and Lloyd Sumner" "instrument type=LC-ESI-TOF" "instrument=impact HD" "ionization=ESI" "ionization mode=negative" "ms level=MS2" "precursor m/z=367.3596" "isolation width=5" "collision gas=Nitrogen" "collision energy=20" "peak width=0.017" "date=2014-08-21 23:55:37+02:00" "column=Waters Acquity BEH C18 1.7um x 2.1 x 150 mm" "retention time=2113.2" "raw data file=C:\Data\Confirmed standards 21_Aug_2014\Lignoceric acid vial 183_1-C,6_01_682.d" "precursor type=[M-H]-" "mass accuracy=3.9340852941048454" "mass error=0.0014452240000082384" "cas number=557-59-5" "SMILES=CCCCCCCCCCCCCCCCCCCCCCCC(=O)O" "InChI=InChI=1S/C24H48O2/c1-2-3-4-5-6-7-8-9-10-11-12-13-14-15-16-17-18-19-20-21-22-23-24(25)26/h2-23H2,1H3,(H,25,26)" "InChIKey=QZZGJDVWLFXDLK-UHFFFAOYSA-N" "molecular formula=C24H48O2" "total exact mass=368.365430776" "SMILES=CCCCCCCCCCCCCCCCCCCCCCCC(=O)O"
Num Peaks: 3
 367 100.000000; 
 368 24.824825; 
 369 0.800801; 


Name: Lignoceric acid
SYNON: $:00in-source
DB#: MetaboBASE0927
InChIKey: QZZGJDVWLFXDLK-UHFFFAOYSA-N
Precursor_type: [M-H]-
Spectrum_type: MS2
PrecursorMZ: 367.3592
Instrument_type: LC-ESI-TOF
Instrument: impact HD
Ion_mode: N
Collision_energy: 10
InChIKey: QZZGJDVWLFXDLK-UHFFFAOYSA-N
Formula: C24H48O2
MW: 368
ExactMass: 368.365430776
Comments: "license=License CC-BY-NC-SA 4.0 International" "author=Plant Biology, The Noble Foundation, Ardmore, OK, US/Dennis Fine, Daniel Wherritt, and Lloyd Sumner" "instrument type=LC-ESI-TOF" "instrument=impact HD" "ionization=ESI" "ionization mode=negative" "ms level=MS2" "precursor m/z=367.3592" "isolation width=5" "collision gas=Nitrogen" "collision energy=10" "peak width=0.017" "date=2014-08-21 23:55:37+02:00" "column=Waters Acquity BEH C18 1.7um x 2.1 x 150 mm" "retention time=2113.2" "raw data file=C:\Data\Confirmed standards 21_Aug_2014\Lignoceric acid vial 183_1-C,6_01_682.d" "precursor type=[M-H]-" "mass accuracy=2.84523703229689" "mass error=0.0010452239999949597" "cas number=557-59-5" "SMILES=CCCCCCCCCCCCCCCCCCCCCCCC(=O)O" "InChI=InChI=1S/C24H48O2/c1-2-3-4-5-6-7-8-9-10-11-12-13-14-15-16-17-18-19-20-21-22-23-24(25)26/h2-23H2,1H3,(H,25,26)" "InChIKey=QZZGJDVWLFXDLK-UHFFFAOYSA-N" "molecular formula=C24H48O2" "total exact mass=368.365430776" "SMILES=CCCCCCCCCCCCCCCCCCCCCCCC(=O)O"
Num Peaks: 2
 367 100.000000; 
 368 24.524525; 


Name: Lignoceric acid
SYNON: $:00in-source
DB#: MetaboBASE0928
InChIKey: QZZGJDVWLFXDLK-UHFFFAOYSA-N
Instrument_type: LC-ESI-TOF
Instrument: impact HD
Ion_mode: N
Collision_energy: 10
InChIKey: QZZGJDVWLFXDLK-UHFFFAOYSA-N
Formula: C24H48O2
MW: 368
ExactMass: 368.365430776
Comments: "license=License CC-BY-NC-SA 4.0 International" "author=Plant Biology, The Noble Foundation, Ardmore, OK, US/Dennis Fine, Daniel Wherritt, and Lloyd Sumner" "instrument type=LC-ESI-TOF" "instrument=impact HD" "ionization=ESI" "ionization mode=negative" "collision gas=Nitrogen" "collision energy=10" "peak width=0.017" "date=2014-08-15 00:15:25+02:00" "column=Waters Acquity BEH C18 1.7um x 2.1 x 150 mm" "retention time=2113.2" "raw data file=G:\Sumner Lab Data Management Workspace Jun2013\Projects\NSF-JST Metabolomics Nov2011-Sep2014\UPLC-MS-MSMS\Confirmed standards 14Aug2014\Lignoceric acid vial 183_1-C,6_01_622.d" "cas number=557-59-5" "SMILES=CCCCCCCCCCCCCCCCCCCCCCCC(=O)O" "InChI=InChI=1S/C24H48O2/c1-2-3-4-5-6-7-8-9-10-11-12-13-14-15-16-17-18-19-20-21-22-23-24(25)26/h2-23H2,1H3,(H,25,26)" "InChIKey=QZZGJDVWLFXDLK-UHFFFAOYSA-N" "molecular formula=C24H48O2" "total exact mass=368.365430776" "SMILES=CCCCCCCCCCCCCCCCCCCCCCCC(=O)O"
Num Peaks: 7
 248 1.701702; 
 265 1.301301; 
 280 0.800801; 
 293 1.001001; 
 367 100.000000; 
 368 27.427427; 
 369 3.203203; 


Name: Lignoceric acid
SYNON: $:00in-source
DB#: MetaboBASE0929
InChIKey: QZZGJDVWLFXDLK-UHFFFAOYSA-N
Precursor_type: [M-H]-
Spectrum_type: MS2
PrecursorMZ: 367.359
Instrument_type: LC-ESI-TOF
Instrument: impact HD
Ion_mode: N
Collision_energy: 30
InChIKey: QZZGJDVWLFXDLK-UHFFFAOYSA-N
Formula: C24H48O2
MW: 368
ExactMass: 368.365430776
Comments: "license=License CC-BY-NC-SA 4.0 International" "author=Plant Biology, The Noble Foundation, Ardmore, OK, US/Dennis Fine, Daniel Wherritt, and Lloyd Sumner" "instrument type=LC-ESI-TOF" "instrument=impact HD" "ionization=ESI" "ionization mode=negative" "ms level=MS2" "precursor m/z=367.359" "isolation width=5" "collision gas=Nitrogen" "collision energy=30" "peak width=0.017" "date=2014-08-21 23:55:37+02:00" "column=Waters Acquity BEH C18 1.7um x 2.1 x 150 mm" "retention time=2113.2" "raw data file=C:\Data\Confirmed standards 21_Aug_2014\Lignoceric acid vial 183_1-C,6_01_682.d" "precursor type=[M-H]-" "mass accuracy=2.3008120121960274" "mass error=8.452239999883204E-4" "cas number=557-59-5" "SMILES=CCCCCCCCCCCCCCCCCCCCCCCC(=O)O" "InChI=InChI=1S/C24H48O2/c1-2-3-4-5-6-7-8-9-10-11-12-13-14-15-16-17-18-19-20-21-22-23-24(25)26/h2-23H2,1H3,(H,25,26)" "InChIKey=QZZGJDVWLFXDLK-UHFFFAOYSA-N" "molecular formula=C24H48O2" "total exact mass=368.365430776" "SMILES=CCCCCCCCCCCCCCCCCCCCCCCC(=O)O"
Num Peaks: 2
 367 100.000000; 
 368 27.227227; 


Name: Stearic acid
SYNON: $:00in-source
DB#: MetaboBASE0930
InChIKey: QIQXTHQIDYTFRH-UHFFFAOYSA-N
Precursor_type: [M-H]-
Spectrum_type: MS2
PrecursorMZ: 283.2655
Instrument_type: LC-ESI-TOF
Instrument: impact HD
Ion_mode: N
Collision_energy: 10
InChIKey: QIQXTHQIDYTFRH-UHFFFAOYSA-N
Formula: C18H36O2
MW: 284
ExactMass: 284.271530392
Comments: "license=License CC-BY-NC-SA 4.0 International" "author=Plant Biology, The Noble Foundation, Ardmore, OK, US/Dennis Fine, Daniel Wherritt, and Lloyd Sumner" "instrument type=LC-ESI-TOF" "instrument=impact HD" "ionization=ESI" "ionization mode=negative" "ms level=MS2" "precursor m/z=283.2655" "isolation width=5" "collision gas=Nitrogen" "collision energy=10" "peak width=0.01" "date=2014-08-22 02:38:57+02:00" "column=Waters Acquity BEH C18 1.7um x 2.1 x 150 mm" "retention time=1971.6" "raw data file=C:\Data\Confirmed standards 21_Aug_2014\Stearic acid vial 223_1-D,6_01_686.d" "precursor type=[M-H]-" "mass accuracy=4.397316298583937" "mass error=0.001245607999976528" "cas number=57-11-4" "SMILES=CCCCCCCCCCCCCCCCCC(=O)O" "InChI=InChI=1S/C18H36O2/c1-2-3-4-5-6-7-8-9-10-11-12-13-14-15-16-17-18(19)20/h2-17H2,1H3,(H,19,20)" "InChIKey=QIQXTHQIDYTFRH-UHFFFAOYSA-N" "molecular formula=C18H36O2" "total exact mass=284.271530392" "SMILES=CCCCCCCCCCCCCCCCCC(=O)O"
Num Peaks: 6
 283 0.200200; 
 283 100.000000; 
 283 0.300300; 
 283 0.700701; 
 284 15.215215; 
 285 0.700701; 


Name: Stearic acid
SYNON: $:00in-source
DB#: MetaboBASE0931
InChIKey: QIQXTHQIDYTFRH-UHFFFAOYSA-N
Instrument_type: LC-ESI-TOF
Instrument: impact HD
Ion_mode: N
InChIKey: QIQXTHQIDYTFRH-UHFFFAOYSA-N
Formula: C18H36O2
MW: 284
ExactMass: 284.271530392
Comments: "license=License CC-BY-NC-SA 4.0 International" "author=Plant Biology, The Noble Foundation, Ardmore, OK, US/Dennis Fine, Daniel Wherritt, and Lloyd Sumner" "instrument type=LC-ESI-TOF" "instrument=impact HD" "ionization=ESI" "ionization mode=negative" "collision gas=Nitrogen" "peak width=0.011" "date=2014-08-22 02:38:57+02:00" "column=Waters Acquity BEH C18 1.7um x 2.1 x 150 mm" "retention time=1971.6" "raw data file=C:\Data\Confirmed standards 21_Aug_2014\Stearic acid vial 223_1-D,6_01_686.d" "cas number=57-11-4" "SMILES=CCCCCCCCCCCCCCCCCC(=O)O" "InChI=InChI=1S/C18H36O2/c1-2-3-4-5-6-7-8-9-10-11-12-13-14-15-16-17-18(19)20/h2-17H2,1H3,(H,19,20)" "InChIKey=QIQXTHQIDYTFRH-UHFFFAOYSA-N" "molecular formula=C18H36O2" "total exact mass=284.271530392" "SMILES=CCCCCCCCCCCCCCCCCC(=O)O"
Num Peaks: 8
 283 0.300300; 
 283 100.000000; 
 283 0.300300; 
 283 0.100100; 
 283 0.100100; 
 283 1.201201; 
 284 19.919920; 
 285 2.302302; 


Name: Stearic acid
SYNON: $:00in-source
DB#: MetaboBASE0932
InChIKey: QIQXTHQIDYTFRH-UHFFFAOYSA-N
Precursor_type: [M-H]-
Spectrum_type: MS2
PrecursorMZ: 283.2654
Instrument_type: LC-ESI-TOF
Instrument: impact HD
Ion_mode: N
Collision_energy: 20
InChIKey: QIQXTHQIDYTFRH-UHFFFAOYSA-N
Formula: C18H36O2
MW: 284
ExactMass: 284.271530392
Comments: "license=License CC-BY-NC-SA 4.0 International" "author=Plant Biology, The Noble Foundation, Ardmore, OK, US/Dennis Fine, Daniel Wherritt, and Lloyd Sumner" "instrument type=LC-ESI-TOF" "instrument=impact HD" "ionization=ESI" "ionization mode=negative" "ms level=MS2" "precursor m/z=283.2654" "isolation width=5" "collision gas=Nitrogen" "collision energy=20" "peak width=0.011" "date=2014-08-22 02:38:57+02:00" "column=Waters Acquity BEH C18 1.7um x 2.1 x 150 mm" "retention time=1971.6" "raw data file=C:\Data\Confirmed standards 21_Aug_2014\Stearic acid vial 223_1-D,6_01_686.d" "precursor type=[M-H]-" "mass accuracy=4.044292031436349" "mass error=0.00114560800000163" "cas number=57-11-4" "SMILES=CCCCCCCCCCCCCCCCCC(=O)O" "InChI=InChI=1S/C18H36O2/c1-2-3-4-5-6-7-8-9-10-11-12-13-14-15-16-17-18(19)20/h2-17H2,1H3,(H,19,20)" "InChIKey=QIQXTHQIDYTFRH-UHFFFAOYSA-N" "molecular formula=C18H36O2" "total exact mass=284.271530392" "SMILES=CCCCCCCCCCCCCCCCCC(=O)O"
Num Peaks: 5
 265 0.200200; 
 283 100.000000; 
 283 0.400400; 
 284 16.016016; 
 285 0.900901; 


Name: Stearic acid
SYNON: $:00in-source
DB#: MetaboBASE0933
InChIKey: QIQXTHQIDYTFRH-UHFFFAOYSA-N
Precursor_type: [M-H]-
Spectrum_type: MS2
PrecursorMZ: 283.2647
Instrument_type: LC-ESI-TOF
Instrument: impact HD
Ion_mode: N
Collision_energy: 30
InChIKey: QIQXTHQIDYTFRH-UHFFFAOYSA-N
Formula: C18H36O2
MW: 284
ExactMass: 284.271530392
Comments: "license=License CC-BY-NC-SA 4.0 International" "author=Plant Biology, The Noble Foundation, Ardmore, OK, US/Dennis Fine, Daniel Wherritt, and Lloyd Sumner" "instrument type=LC-ESI-TOF" "instrument=impact HD" "ionization=ESI" "ionization mode=negative" "ms level=MS2" "precursor m/z=283.2647" "isolation width=5" "collision gas=Nitrogen" "collision energy=30" "peak width=0.0095" "date=2014-08-22 02:38:57+02:00" "column=Waters Acquity BEH C18 1.7um x 2.1 x 150 mm" "retention time=1971.6" "raw data file=C:\Data\Confirmed standards 21_Aug_2014\Stearic acid vial 223_1-D,6_01_686.d" "precursor type=[M-H]-" "mass accuracy=1.5731151816898261" "mass error=4.456080000068141E-4" "cas number=57-11-4" "SMILES=CCCCCCCCCCCCCCCCCC(=O)O" "InChI=InChI=1S/C18H36O2/c1-2-3-4-5-6-7-8-9-10-11-12-13-14-15-16-17-18(19)20/h2-17H2,1H3,(H,19,20)" "InChIKey=QIQXTHQIDYTFRH-UHFFFAOYSA-N" "molecular formula=C18H36O2" "total exact mass=284.271530392" "SMILES=CCCCCCCCCCCCCCCCCC(=O)O"
Num Peaks: 24
 263 0.300300; 
 265 3.303303; 
 266 0.400400; 
 283 100.000000; 
 283 0.300300; 
 284 17.817818; 
 285 1.001001; 
 309 0.200200; 
 630 0.200200; 
 705 0.200200; 
 867 0.200200; 
 1014 0.300300; 
 1019 0.200200; 
 1153 0.200200; 
 1187 0.200200; 
 1240 0.300300; 
 1277 0.300300; 
 1288 0.300300; 
 1320 0.300300; 
 1373 0.300300; 
 1397 0.200200; 
 1427 0.300300; 
 1482 0.200200; 
 1482 0.300300; 


Name: Heneicosanoic acid
SYNON: $:00in-source
DB#: MetaboBASE0934
InChIKey: CKDDRHZIAZRDBW-UHFFFAOYSA-N
Precursor_type: [M-H]-
Spectrum_type: MS2
PrecursorMZ: 325.3113
Instrument_type: LC-ESI-TOF
Instrument: impact HD
Ion_mode: N
Collision_energy: 40
InChIKey: CKDDRHZIAZRDBW-UHFFFAOYSA-N
Formula: C21H42O2
MW: 326
ExactMass: 326.318480584
Comments: "license=License CC-BY-NC-SA 4.0 International" "author=Plant Biology, The Noble Foundation, Ardmore, OK, US/Dennis Fine, Daniel Wherritt, and Lloyd Sumner" "instrument type=LC-ESI-TOF" "instrument=impact HD" "ionization=ESI" "ionization mode=negative" "ms level=MS2" "precursor m/z=325.3113" "isolation width=5" "collision gas=Nitrogen" "collision energy=40" "peak width=0.017" "date=2014-08-21 23:14:42+02:00" "column=Waters Acquity BEH C18 1.7um x 2.1 x 150 mm" "retention time=2042.4" "raw data file=C:\Data\Confirmed standards 21_Aug_2014\n-Heneicosanoic acid vial 174_1-C,5_01_681.d" "precursor type=[M-H]-" "mass accuracy=0.29330674963317205" "mass error=9.541600002194173E-5" "cas number=2363-71-5" "SMILES=CCCCCCCCCCCCCCCCCCCCC(=O)O" "InChI=InChI=1S/C21H42O2/c1-2-3-4-5-6-7-8-9-10-11-12-13-14-15-16-17-18-19-20-21(22)23/h2-20H2,1H3,(H,22,23)" "InChIKey=CKDDRHZIAZRDBW-UHFFFAOYSA-N" "molecular formula=C21H42O2" "total exact mass=326.318480584" "SMILES=CCCCCCCCCCCCCCCCCCCCC(=O)O"
Num Peaks: 2
 325 100.000000; 
 326 27.627628; 


Name: Heneicosanoic acid
SYNON: $:00in-source
DB#: MetaboBASE0935
InChIKey: CKDDRHZIAZRDBW-UHFFFAOYSA-N
Precursor_type: [M-H]-
Spectrum_type: MS2
PrecursorMZ: 325.3135
Instrument_type: LC-ESI-TOF
Instrument: impact HD
Ion_mode: N
Collision_energy: 10
InChIKey: CKDDRHZIAZRDBW-UHFFFAOYSA-N
Formula: C21H42O2
MW: 326
ExactMass: 326.318480584
Comments: "license=License CC-BY-NC-SA 4.0 International" "author=Plant Biology, The Noble Foundation, Ardmore, OK, US/Dennis Fine, Daniel Wherritt, and Lloyd Sumner" "instrument type=LC-ESI-TOF" "instrument=impact HD" "ionization=ESI" "ionization mode=negative" "ms level=MS2" "precursor m/z=325.3135" "isolation width=5" "collision gas=Nitrogen" "collision energy=10" "peak width=0.011" "date=2014-08-21 23:14:42+02:00" "column=Waters Acquity BEH C18 1.7um x 2.1 x 150 mm" "retention time=2042.4" "raw data file=C:\Data\Confirmed standards 21_Aug_2014\n-Heneicosanoic acid vial 174_1-C,5_01_681.d" "precursor type=[M-H]-" "mass accuracy=7.056012123632397" "mass error=0.0022954159999812873" "cas number=2363-71-5" "SMILES=CCCCCCCCCCCCCCCCCCCCC(=O)O" "InChI=InChI=1S/C21H42O2/c1-2-3-4-5-6-7-8-9-10-11-12-13-14-15-16-17-18-19-20-21(22)23/h2-20H2,1H3,(H,22,23)" "InChIKey=CKDDRHZIAZRDBW-UHFFFAOYSA-N" "molecular formula=C21H42O2" "total exact mass=326.318480584" "SMILES=CCCCCCCCCCCCCCCCCCCCC(=O)O"
Num Peaks: 3
 325 100.000000; 
 326 20.120120; 
 327 1.001001; 


Name: Heneicosanoic acid
SYNON: $:00in-source
DB#: MetaboBASE0936
InChIKey: CKDDRHZIAZRDBW-UHFFFAOYSA-N
Precursor_type: [M-H]-
Spectrum_type: MS2
PrecursorMZ: 325.3134
Instrument_type: LC-ESI-TOF
Instrument: impact HD
Ion_mode: N
Collision_energy: 20
InChIKey: CKDDRHZIAZRDBW-UHFFFAOYSA-N
Formula: C21H42O2
MW: 326
ExactMass: 326.318480584
Comments: "license=License CC-BY-NC-SA 4.0 International" "author=Plant Biology, The Noble Foundation, Ardmore, OK, US/Dennis Fine, Daniel Wherritt, and Lloyd Sumner" "instrument type=LC-ESI-TOF" "instrument=impact HD" "ionization=ESI" "ionization mode=negative" "ms level=MS2" "precursor m/z=325.3134" "isolation width=5" "collision gas=Nitrogen" "collision energy=20" "peak width=0.011" "date=2014-08-21 23:14:42+02:00" "column=Waters Acquity BEH C18 1.7um x 2.1 x 150 mm" "retention time=2042.4" "raw data file=C:\Data\Confirmed standards 21_Aug_2014\n-Heneicosanoic acid vial 174_1-C,5_01_681.d" "precursor type=[M-H]-" "mass accuracy=6.748618409221352" "mass error=0.0021954160000063894" "cas number=2363-71-5" "SMILES=CCCCCCCCCCCCCCCCCCCCC(=O)O" "InChI=InChI=1S/C21H42O2/c1-2-3-4-5-6-7-8-9-10-11-12-13-14-15-16-17-18-19-20-21(22)23/h2-20H2,1H3,(H,22,23)" "InChIKey=CKDDRHZIAZRDBW-UHFFFAOYSA-N" "molecular formula=C21H42O2" "total exact mass=326.318480584" "SMILES=CCCCCCCCCCCCCCCCCCCCC(=O)O"
Num Peaks: 3
 325 100.000000; 
 326 20.820821; 
 327 1.001001; 


Name: Heneicosanoic acid
SYNON: $:00in-source
DB#: MetaboBASE0937
InChIKey: CKDDRHZIAZRDBW-UHFFFAOYSA-N
Precursor_type: [M-H]-
Spectrum_type: MS2
PrecursorMZ: 325.3128
Instrument_type: LC-ESI-TOF
Instrument: impact HD
Ion_mode: N
Collision_energy: 30
InChIKey: CKDDRHZIAZRDBW-UHFFFAOYSA-N
Formula: C21H42O2
MW: 326
ExactMass: 326.318480584
Comments: "license=License CC-BY-NC-SA 4.0 International" "author=Plant Biology, The Noble Foundation, Ardmore, OK, US/Dennis Fine, Daniel Wherritt, and Lloyd Sumner" "instrument type=LC-ESI-TOF" "instrument=impact HD" "ionization=ESI" "ionization mode=negative" "ms level=MS2" "precursor m/z=325.3128" "isolation width=5" "collision gas=Nitrogen" "collision energy=30" "peak width=0.015" "date=2014-08-21 23:14:42+02:00" "column=Waters Acquity BEH C18 1.7um x 2.1 x 150 mm" "retention time=2042.4" "raw data file=C:\Data\Confirmed standards 21_Aug_2014\n-Heneicosanoic acid vial 174_1-C,5_01_681.d" "precursor type=[M-H]-" "mass accuracy=4.904252153577946" "mass error=0.0015954159999864714" "cas number=2363-71-5" "SMILES=CCCCCCCCCCCCCCCCCCCCC(=O)O" "InChI=InChI=1S/C21H42O2/c1-2-3-4-5-6-7-8-9-10-11-12-13-14-15-16-17-18-19-20-21(22)23/h2-20H2,1H3,(H,22,23)" "InChIKey=CKDDRHZIAZRDBW-UHFFFAOYSA-N" "molecular formula=C21H42O2" "total exact mass=326.318480584" "SMILES=CCCCCCCCCCCCCCCCCCCCC(=O)O"
Num Peaks: 5
 307 1.201201; 
 308 0.300300; 
 325 100.000000; 
 326 22.922923; 
 327 1.201201; 


Name: Procyanidin B2
SYNON: $:00in-source
DB#: MetaboBASE0938
InChIKey: XFZJEEAOWLFHDH-NFJBMHMQSA-N
Precursor_type: [M-H]-
Spectrum_type: MS2
PrecursorMZ: 577.14
Instrument_type: LC-ESI-TOF
Instrument: impact HD
Ion_mode: N
Collision_energy: 50
InChIKey: XFZJEEAOWLFHDH-NFJBMHMQSA-N
Formula: C30H26O12
MW: 578
ExactMass: 578.142426272
Comments: "license=License CC-BY-NC-SA 4.0 International" "author=Plant Biology, The Noble Foundation, Ardmore, OK, US/Dennis Fine, Daniel Wherritt, and Lloyd Sumner" "instrument type=LC-ESI-TOF" "instrument=impact HD" "ionization=ESI" "ionization mode=negative" "ms level=MS2" "precursor m/z=577.14" "isolation width=5" "collision gas=Nitrogen" "collision energy=50" "peak width=0.018" "date=2014-08-20 00:14:06+02:00" "column=Waters Acquity BEH C18 1.7um x 2.1 x 150 mm" "retention time=152.4" "raw data file=C:\Data\Confirmed standards 19_Aug_2014\Procyanidin B2 vial 376_1-E,8_01_662.d" "precursor type=[M-H]-" "mass accuracy=8.403035658709229" "mass error=0.004849728000067444" "cas number=29106-49-8" "SMILES=c1cc(c(cc1[C@@H]2[C@@H](Cc3c(cc(c(c3O2)[C@H]4c5c(cc(cc5O[C@@H]([C@@H]4O)c6ccc(c(c6)O)O)O)O)O)O)O)O)O" "InChI=InChI=1S/C30H26O12/c31-13-7-20(37)24-23(8-13)41-29(12-2-4-16(33)19(36)6-12)27(40)26(24)25-21(38)10-17(34)14-9-22(39)28(42-30(14)25)11-1-3-15(32)18(35)5-11/h1-8,10,22,26-29,31-40H,9H2/t22-,26-,27-,28-,29-/m1/s1" "InChIKey=XFZJEEAOWLFHDH-NFJBMHMQSA-N" "molecular formula=C30H26O12" "total exact mass=578.142426272" "SMILES=C1C(C(OC2=C1C(=CC(=C2C3C(C(OC4=CC(=CC(=C34)O)O)C5=CC(=C(C=C5)O)O)O)O)O)C6=CC(=C(C=C6)O)O)O"
Num Peaks: 43
 109 15.015015; 
 123 16.916917; 
 125 100.000000; 
 126 12.012012; 
 137 32.732733; 
 149 12.812813; 
 151 24.024024; 
 161 38.038038; 
 163 7.907908; 
 164 11.511512; 
 165 13.913914; 
 175 18.418418; 
 177 15.315315; 
 179 11.811812; 
 187 12.612613; 
 203 20.920921; 
 205 7.407407; 
 205 15.615616; 
 217 7.607608; 
 221 10.210210; 
 227 8.608609; 
 229 16.916917; 
 230 7.707708; 
 243 15.615616; 
 245 12.712713; 
 245 57.757758; 
 246 9.109109; 
 247 7.107107; 
 255 31.131131; 
 256 32.132132; 
 257 16.616617; 
 269 9.509510; 
 273 7.507508; 
 281 15.615616; 
 283 11.611612; 
 285 26.726727; 
 286 9.909910; 
 289 54.654655; 
 290 10.510511; 
 297 8.608609; 
 339 16.516517; 
 407 47.047047; 
 408 16.416416; 


Name: Procyanidin B2
SYNON: $:00in-source
DB#: MetaboBASE0939
InChIKey: XFZJEEAOWLFHDH-NFJBMHMQSA-N
Instrument_type: LC-ESI-TOF
Instrument: impact HD
Ion_mode: N
InChIKey: XFZJEEAOWLFHDH-NFJBMHMQSA-N
Formula: C30H26O12
MW: 578
ExactMass: 578.142426272
Comments: "license=License CC-BY-NC-SA 4.0 International" "author=Plant Biology, The Noble Foundation, Ardmore, OK, US/Dennis Fine, Daniel Wherritt, and Lloyd Sumner" "instrument type=LC-ESI-TOF" "instrument=impact HD" "ionization=ESI" "ionization mode=negative" "collision gas=Nitrogen" "peak width=0.016" "date=2014-08-20 00:14:06+02:00" "column=Waters Acquity BEH C18 1.7um x 2.1 x 150 mm" "retention time=152.4" "raw data file=C:\Data\Confirmed standards 19_Aug_2014\Procyanidin B2 vial 376_1-E,8_01_662.d" "cas number=29106-49-8" "SMILES=c1cc(c(cc1[C@@H]2[C@@H](Cc3c(cc(c(c3O2)[C@H]4c5c(cc(cc5O[C@@H]([C@@H]4O)c6ccc(c(c6)O)O)O)O)O)O)O)O)O" "InChI=InChI=1S/C30H26O12/c31-13-7-20(37)24-23(8-13)41-29(12-2-4-16(33)19(36)6-12)27(40)26(24)25-21(38)10-17(34)14-9-22(39)28(42-30(14)25)11-1-3-15(32)18(35)5-11/h1-8,10,22,26-29,31-40H,9H2/t22-,26-,27-,28-,29-/m1/s1" "InChIKey=XFZJEEAOWLFHDH-NFJBMHMQSA-N" "molecular formula=C30H26O12" "total exact mass=578.142426272" "SMILES=C1C(C(OC2=C1C(=CC(=C2C3C(C(OC4=CC(=CC(=C34)O)O)C5=CC(=C(C=C5)O)O)O)O)O)C6=CC(=C(C=C6)O)O)O"
Num Peaks: 41
 423 1.601602; 
 424 1.001001; 
 425 1.801802; 
 426 1.001001; 
 555 1.301301; 
 571 3.503504; 
 572 1.701702; 
 573 12.512513; 
 574 8.608609; 
 575 20.020020; 
 576 13.213213; 
 577 100.000000; 
 578 73.673674; 
 579 25.325325; 
 580 6.106106; 
 581 1.301301; 
 599 1.701702; 
 600 1.201201; 
 695 1.101101; 
 1149 2.302302; 
 1150 2.702703; 
 1151 6.506507; 
 1152 7.807808; 
 1153 10.310310; 
 1154 9.809810; 
 1155 17.317317; 
 1156 20.020020; 
 1157 13.213213; 
 1158 6.806807; 
 1159 2.302302; 
 1441 1.101101; 
 1441 1.501502; 
 1442 1.801802; 
 1442 2.002002; 
 1443 2.202202; 
 1443 2.202202; 
 1444 2.302302; 
 1444 2.302302; 
 1445 1.901902; 
 1445 1.601602; 
 1446 1.101101; 


Name: Procyanidin B2
SYNON: $:00in-source
DB#: MetaboBASE0940
InChIKey: XFZJEEAOWLFHDH-NFJBMHMQSA-N
Precursor_type: [M-H]-
Spectrum_type: MS2
PrecursorMZ: 577.1368
Instrument_type: LC-ESI-TOF
Instrument: impact HD
Ion_mode: N
Collision_energy: 10
InChIKey: XFZJEEAOWLFHDH-NFJBMHMQSA-N
Formula: C30H26O12
MW: 578
ExactMass: 578.142426272
Comments: "license=License CC-BY-NC-SA 4.0 International" "author=Plant Biology, The Noble Foundation, Ardmore, OK, US/Dennis Fine, Daniel Wherritt, and Lloyd Sumner" "instrument type=LC-ESI-TOF" "instrument=impact HD" "ionization=ESI" "ionization mode=negative" "ms level=MS2" "precursor m/z=577.1368" "isolation width=5" "collision gas=Nitrogen" "collision energy=10" "peak width=0.017" "date=2014-08-20 00:14:06+02:00" "column=Waters Acquity BEH C18 1.7um x 2.1 x 150 mm" "retention time=152.4" "raw data file=C:\Data\Confirmed standards 19_Aug_2014\Procyanidin B2 vial 376_1-E,8_01_662.d" "precursor type=[M-H]-" "mass accuracy=2.858469603870177" "mass error=0.0016497280000749015" "cas number=29106-49-8" "SMILES=c1cc(c(cc1[C@@H]2[C@@H](Cc3c(cc(c(c3O2)[C@H]4c5c(cc(cc5O[C@@H]([C@@H]4O)c6ccc(c(c6)O)O)O)O)O)O)O)O)O" "InChI=InChI=1S/C30H26O12/c31-13-7-20(37)24-23(8-13)41-29(12-2-4-16(33)19(36)6-12)27(40)26(24)25-21(38)10-17(34)14-9-22(39)28(42-30(14)25)11-1-3-15(32)18(35)5-11/h1-8,10,22,26-29,31-40H,9H2/t22-,26-,27-,28-,29-/m1/s1" "InChIKey=XFZJEEAOWLFHDH-NFJBMHMQSA-N" "molecular formula=C30H26O12" "total exact mass=578.142426272" "SMILES=C1C(C(OC2=C1C(=CC(=C2C3C(C(OC4=CC(=CC(=C34)O)O)C5=CC(=C(C=C5)O)O)O)O)O)C6=CC(=C(C=C6)O)O)O"
Num Peaks: 51
 125 0.400400; 
 245 0.400400; 
 285 0.900901; 
 286 0.900901; 
 287 3.403403; 
 288 0.800801; 
 289 2.902903; 
 290 0.600601; 
 299 0.300300; 
 405 0.100100; 
 406 0.100100; 
 407 1.901902; 
 408 0.800801; 
 409 0.200200; 
 422 0.100100; 
 423 3.203203; 
 424 2.202202; 
 425 16.016016; 
 426 5.605606; 
 427 0.600601; 
 447 0.100100; 
 448 0.100100; 
 449 1.101101; 
 450 0.500501; 
 451 1.601602; 
 452 0.200200; 
 452 0.400400; 
 453 0.300300; 
 464 0.200200; 
 465 0.100100; 
 531 0.100100; 
 539 0.100100; 
 546 0.100100; 
 556 0.600601; 
 557 0.400400; 
 558 0.200200; 
 559 0.300300; 
 560 0.100100; 
 573 0.200200; 
 574 4.604605; 
 575 18.918919; 
 575 0.100100; 
 576 13.513514; 
 577 100.000000; 
 577 0.200200; 
 577 0.200200; 
 578 44.144144; 
 578 0.100100; 
 578 0.100100; 
 579 6.606607; 
 580 1.201201; 


Name: Procyanidin B2
SYNON: $:00in-source
DB#: MetaboBASE0941
InChIKey: XFZJEEAOWLFHDH-NFJBMHMQSA-N
Precursor_type: [M-H]-
Spectrum_type: MS2
PrecursorMZ: 577.136
Instrument_type: LC-ESI-TOF
Instrument: impact HD
Ion_mode: N
Collision_energy: 20
InChIKey: XFZJEEAOWLFHDH-NFJBMHMQSA-N
Formula: C30H26O12
MW: 578
ExactMass: 578.142426272
Comments: "license=License CC-BY-NC-SA 4.0 International" "author=Plant Biology, The Noble Foundation, Ardmore, OK, US/Dennis Fine, Daniel Wherritt, and Lloyd Sumner" "instrument type=LC-ESI-TOF" "instrument=impact HD" "ionization=ESI" "ionization mode=negative" "ms level=MS2" "precursor m/z=577.136" "isolation width=5" "collision gas=Nitrogen" "collision energy=20" "peak width=0.016" "date=2014-08-20 00:14:06+02:00" "column=Waters Acquity BEH C18 1.7um x 2.1 x 150 mm" "retention time=152.4" "raw data file=C:\Data\Confirmed standards 19_Aug_2014\Procyanidin B2 vial 376_1-E,8_01_662.d" "precursor type=[M-H]-" "mass accuracy=1.472318483075643" "mass error=8.497280000483443E-4" "cas number=29106-49-8" "SMILES=c1cc(c(cc1[C@@H]2[C@@H](Cc3c(cc(c(c3O2)[C@H]4c5c(cc(cc5O[C@@H]([C@@H]4O)c6ccc(c(c6)O)O)O)O)O)O)O)O)O" "InChI=InChI=1S/C30H26O12/c31-13-7-20(37)24-23(8-13)41-29(12-2-4-16(33)19(36)6-12)27(40)26(24)25-21(38)10-17(34)14-9-22(39)28(42-30(14)25)11-1-3-15(32)18(35)5-11/h1-8,10,22,26-29,31-40H,9H2/t22-,26-,27-,28-,29-/m1/s1" "InChIKey=XFZJEEAOWLFHDH-NFJBMHMQSA-N" "molecular formula=C30H26O12" "total exact mass=578.142426272" "SMILES=C1C(C(OC2=C1C(=CC(=C2C3C(C(OC4=CC(=CC(=C34)O)O)C5=CC(=C(C=C5)O)O)O)O)O)C6=CC(=C(C=C6)O)O)O"
Num Peaks: 61
 125 15.315315; 
 126 1.801802; 
 161 3.503504; 
 243 1.101101; 
 245 7.607608; 
 245 2.202202; 
 246 1.601602; 
 255 1.001001; 
 273 4.304304; 
 274 1.101101; 
 285 9.509510; 
 286 5.805806; 
 287 32.832833; 
 288 8.308308; 
 289 89.489489; 
 290 16.116116; 
 291 1.501502; 
 297 1.101101; 
 299 10.610611; 
 300 2.302302; 
 327 1.601602; 
 328 1.001001; 
 329 3.003003; 
 331 1.301301; 
 339 1.301301; 
 381 3.803804; 
 382 1.301301; 
 405 1.801802; 
 406 1.401401; 
 407 75.075075; 
 408 24.924925; 
 409 3.603604; 
 413 1.001001; 
 423 10.810811; 
 424 8.508509; 
 425 100.000000; 
 426 36.436436; 
 427 5.005005; 
 447 1.401401; 
 448 1.301301; 
 449 10.610611; 
 450 4.704705; 
 451 36.636637; 
 452 10.310310; 
 453 1.801802; 
 454 1.101101; 
 533 1.201201; 
 539 2.302302; 
 540 1.301301; 
 556 3.503504; 
 557 3.003003; 
 558 1.501502; 
 559 4.604605; 
 560 1.701702; 
 574 5.605606; 
 575 23.123123; 
 576 16.616617; 
 577 85.085085; 
 578 39.839840; 
 579 5.705706; 
 580 1.101101; 


Name: Procyanidin B2
SYNON: $:00in-source
DB#: MetaboBASE0942
InChIKey: XFZJEEAOWLFHDH-NFJBMHMQSA-N
Precursor_type: [M-H]-
Spectrum_type: MS2
PrecursorMZ: 577.1351
Instrument_type: LC-ESI-TOF
Instrument: impact HD
Ion_mode: N
Collision_energy: 30
InChIKey: XFZJEEAOWLFHDH-NFJBMHMQSA-N
Formula: C30H26O12
MW: 578
ExactMass: 578.142426272
Comments: "license=License CC-BY-NC-SA 4.0 International" "author=Plant Biology, The Noble Foundation, Ardmore, OK, US/Dennis Fine, Daniel Wherritt, and Lloyd Sumner" "instrument type=LC-ESI-TOF" "instrument=impact HD" "ionization=ESI" "ionization mode=negative" "ms level=MS2" "precursor m/z=577.1351" "isolation width=5" "collision gas=Nitrogen" "collision energy=30" "peak width=0.016" "date=2014-08-20 00:14:06+02:00" "column=Waters Acquity BEH C18 1.7um x 2.1 x 150 mm" "retention time=152.4" "raw data file=C:\Data\Confirmed standards 19_Aug_2014\Procyanidin B2 vial 376_1-E,8_01_662.d" "precursor type=[M-H]-" "mass accuracy=0.08710612117182084" "mass error=-5.0271999953110935E-5" "cas number=29106-49-8" "SMILES=c1cc(c(cc1[C@@H]2[C@@H](Cc3c(cc(c(c3O2)[C@H]4c5c(cc(cc5O[C@@H]([C@@H]4O)c6ccc(c(c6)O)O)O)O)O)O)O)O)O" "InChI=InChI=1S/C30H26O12/c31-13-7-20(37)24-23(8-13)41-29(12-2-4-16(33)19(36)6-12)27(40)26(24)25-21(38)10-17(34)14-9-22(39)28(42-30(14)25)11-1-3-15(32)18(35)5-11/h1-8,10,22,26-29,31-40H,9H2/t22-,26-,27-,28-,29-/m1/s1" "InChIKey=XFZJEEAOWLFHDH-NFJBMHMQSA-N" "molecular formula=C30H26O12" "total exact mass=578.142426272" "SMILES=C1C(C(OC2=C1C(=CC(=C2C3C(C(OC4=CC(=CC(=C34)O)O)C5=CC(=C(C=C5)O)O)O)O)O)C6=CC(=C(C=C6)O)O)O"
Num Peaks: 63
 125 20.720721; 
 126 3.103103; 
 137 2.602603; 
 151 1.001001; 
 161 6.906907; 
 165 1.101101; 
 175 1.001001; 
 177 1.201201; 
 229 1.101101; 
 243 1.401401; 
 243 1.301301; 
 244 1.001001; 
 245 5.405405; 
 245 8.608609; 
 246 1.501502; 
 246 1.801802; 
 255 2.102102; 
 257 1.101101; 
 269 1.701702; 
 273 5.705706; 
 274 1.601602; 
 281 1.401401; 
 283 1.001001; 
 284 1.101101; 
 285 9.409409; 
 286 5.005005; 
 287 13.513514; 
 288 2.802803; 
 289 100.000000; 
 290 18.018018; 
 291 1.501502; 
 297 1.501502; 
 299 4.504505; 
 300 1.401401; 
 327 1.701702; 
 328 1.601602; 
 329 3.703704; 
 331 1.001001; 
 339 4.804805; 
 340 1.601602; 
 381 5.105105; 
 382 1.901902; 
 405 1.101101; 
 407 67.567568; 
 408 21.721722; 
 409 3.203203; 
 423 2.802803; 
 424 2.002002; 
 425 12.712713; 
 426 4.704705; 
 449 4.004004; 
 450 2.002002; 
 451 8.008008; 
 452 1.201201; 
 452 2.602603; 
 539 1.701702; 
 540 1.201201; 
 556 1.401401; 
 557 1.101101; 
 575 1.201201; 
 576 1.001001; 
 577 2.002002; 
 578 1.101101; 


Name: Procyanidin B2
SYNON: $:00in-source
DB#: MetaboBASE0943
InChIKey: XFZJEEAOWLFHDH-NFJBMHMQSA-N
Spectrum_type: MS2
PrecursorMZ: 575.108
Instrument_type: LC-ESI-TOF
Instrument: impact HD
Ion_mode: N
Collision_energy: 40
InChIKey: XFZJEEAOWLFHDH-NFJBMHMQSA-N
Formula: C30H26O12
MW: 578
ExactMass: 578.142426272
Comments: "license=License CC-BY-NC-SA 4.0 International" "author=Plant Biology, The Noble Foundation, Ardmore, OK, US/Dennis Fine, Daniel Wherritt, and Lloyd Sumner" "instrument type=LC-ESI-TOF" "instrument=impact HD" "ionization=ESI" "ionization mode=negative" "ms level=MS2" "precursor m/z=575.108" "isolation width=5" "collision gas=Nitrogen" "collision energy=40" "peak width=0.017" "date=2014-08-20 00:14:06+02:00" "column=Waters Acquity BEH C18 1.7um x 2.1 x 150 mm" "retention time=152.4" "raw data file=C:\Data\Confirmed standards 19_Aug_2014\Procyanidin B2 vial 376_1-E,8_01_662.d" "cas number=29106-49-8" "SMILES=c1cc(c(cc1[C@@H]2[C@@H](Cc3c(cc(c(c3O2)[C@H]4c5c(cc(cc5O[C@@H]([C@@H]4O)c6ccc(c(c6)O)O)O)O)O)O)O)O)O" "InChI=InChI=1S/C30H26O12/c31-13-7-20(37)24-23(8-13)41-29(12-2-4-16(33)19(36)6-12)27(40)26(24)25-21(38)10-17(34)14-9-22(39)28(42-30(14)25)11-1-3-15(32)18(35)5-11/h1-8,10,22,26-29,31-40H,9H2/t22-,26-,27-,28-,29-/m1/s1" "InChIKey=XFZJEEAOWLFHDH-NFJBMHMQSA-N" "molecular formula=C30H26O12" "total exact mass=578.142426272" "SMILES=C1C(C(OC2=C1C(=CC(=C2C3C(C(OC4=CC(=CC(=C34)O)O)C5=CC(=C(C=C5)O)O)O)O)O)C6=CC(=C(C=C6)O)O)O"
Num Peaks: 106
 109 3.403403; 
 121 1.001001; 
 123 2.602603; 
 125 46.046046; 
 126 5.905906; 
 137 10.310310; 
 138 1.001001; 
 149 2.202202; 
 151 5.905906; 
 161 15.015015; 
 161 1.201201; 
 162 2.802803; 
 163 2.002002; 
 163 1.401401; 
 164 2.302302; 
 165 4.604605; 
 167 1.301301; 
 175 5.905906; 
 177 5.605606; 
 178 1.101101; 
 179 4.404404; 
 187 1.901902; 
 188 1.101101; 
 201 1.001001; 
 203 1.401401; 
 203 3.903904; 
 205 3.003003; 
 205 5.205205; 
 215 1.601602; 
 217 1.801802; 
 219 1.501502; 
 221 1.601602; 
 225 1.101101; 
 227 1.901902; 
 227 2.102102; 
 228 1.101101; 
 229 4.304304; 
 230 2.002002; 
 231 2.102102; 
 231 1.001001; 
 241 2.302302; 
 243 5.605606; 
 243 2.002002; 
 244 2.602603; 
 245 9.209209; 
 245 38.438438; 
 246 2.002002; 
 246 5.905906; 
 247 3.403403; 
 253 1.701702; 
 255 7.907908; 
 255 1.601602; 
 256 6.006006; 
 257 5.105105; 
 258 1.701702; 
 259 2.002002; 
 269 3.603604; 
 270 1.301301; 
 271 2.402402; 
 273 8.108108; 
 274 2.602603; 
 275 1.101101; 
 281 5.705706; 
 282 1.801802; 
 283 4.004004; 
 283 1.401401; 
 284 3.503504; 
 285 15.615616; 
 285 1.201201; 
 286 7.207207; 
 287 7.807808; 
 288 2.802803; 
 289 100.000000; 
 290 16.316316; 
 291 1.701702; 
 297 3.703704; 
 297 2.002002; 
 298 1.801802; 
 299 3.103103; 
 307 1.301301; 
 313 1.301301; 
 315 1.701702; 
 326 1.001001; 
 327 2.302302; 
 328 2.302302; 
 329 3.003003; 
 331 1.001001; 
 339 14.114114; 
 340 4.304304; 
 341 2.002002; 
 357 1.901902; 
 363 1.601602; 
 381 4.504505; 
 382 1.601602; 
 389 1.501502; 
 405 1.301301; 
 407 70.470470; 
 408 24.724725; 
 409 3.403403; 
 423 1.201201; 
 425 2.302302; 
 449 1.501502; 
 451 1.201201; 
 471 1.601602; 
 539 1.601602; 
 540 1.601602; 


Name: Procyanidin B1
SYNON: $:00in-source
DB#: MetaboBASE0944
InChIKey: XFZJEEAOWLFHDH-UKWJTHFESA-N
Precursor_type: [M-H]-
Spectrum_type: MS2
PrecursorMZ: 577.14
Instrument_type: LC-ESI-TOF
Instrument: impact HD
Ion_mode: N
Collision_energy: 40
InChIKey: XFZJEEAOWLFHDH-UKWJTHFESA-N
Formula: C30H26O12
MW: 578
ExactMass: 578.142426272
Comments: "license=License CC-BY-NC-SA 4.0 International" "author=Plant Biology, The Noble Foundation, Ardmore, OK, US/Dennis Fine, Daniel Wherritt, and Lloyd Sumner" "instrument type=LC-ESI-TOF" "instrument=impact HD" "ionization=ESI" "ionization mode=negative" "ms level=MS2" "precursor m/z=577.14" "isolation width=5" "collision gas=Nitrogen" "collision energy=40" "peak width=0.015" "date=2014-08-19 23:33:22+02:00" "column=Waters Acquity BEH C18 1.7um x 2.1 x 150 mm" "retention time=106.2" "raw data file=C:\Data\Confirmed standards 19_Aug_2014\Procyanidin B1 vial 375_1-E,7_01_661.d" "precursor type=[M-H]-" "mass accuracy=8.403035658709229" "mass error=0.004849728000067444" "cas number=20315-25-7" "SMILES=c1cc(c(cc1[C@@H]2[C@H](Cc3c(cc(c(c3O2)[C@H]4c5c(cc(cc5O[C@@H]([C@@H]4O)c6ccc(c(c6)O)O)O)O)O)O)O)O)O" "InChI=InChI=1S/C30H26O12/c31-13-7-20(37)24-23(8-13)41-29(12-2-4-16(33)19(36)6-12)27(40)26(24)25-21(38)10-17(34)14-9-22(39)28(42-30(14)25)11-1-3-15(32)18(35)5-11/h1-8,10,22,26-29,31-40H,9H2/t22-,26+,27+,28+,29+/m0/s1" "InChIKey=XFZJEEAOWLFHDH-UKWJTHFESA-N" "molecular formula=C30H26O12" "total exact mass=578.142426272" "SMILES=OC=1C=CC(=CC1O)C2OC=3C=C(O)C=C(O)C3C(C=4C(O)=CC(O)=C5C4OC(C=6C=CC(O)=C(O)C6)C(O)C5)C2O" "InChI=InChI=1S/C30H26O12/c31-13-7-20(37)24-23(8-13)41-29(12-2-4-16(33)19(36)6-12)27(40)26(24)25-21(38)10-17(34)14-9-22(39)28(42-30(14)25)11-1-3-15(32)18(35)5-11/h1-8,10,22,26-29,31-40H,9H2/t22-,26?,27-,28-,29-/m1/s1" "InChIKey=XFZJEEAOWLFHDH-ATEOAPGCSA-N"
Num Peaks: 39
 109 4.004004; 
 125 45.245245; 
 126 3.703704; 
 137 9.109109; 
 151 4.504505; 
 161 16.716717; 
 165 5.005005; 
 175 4.804805; 
 177 4.604605; 
 179 3.203203; 
 203 4.204204; 
 205 4.504505; 
 229 5.105105; 
 243 7.607608; 
 245 7.807808; 
 245 34.434434; 
 246 5.605606; 
 247 3.103103; 
 255 9.409409; 
 256 6.906907; 
 257 4.804805; 
 269 3.503504; 
 273 8.108108; 
 281 5.105105; 
 283 3.703704; 
 284 3.003003; 
 285 21.521522; 
 286 6.206206; 
 287 6.006006; 
 289 100.000000; 
 290 15.515516; 
 297 4.204204; 
 299 3.203203; 
 329 3.803804; 
 339 14.014014; 
 340 3.103103; 
 381 4.104104; 
 407 69.269269; 
 408 17.417417; 


Name: Procyanidin B1
SYNON: $:00in-source
DB#: MetaboBASE0945
InChIKey: XFZJEEAOWLFHDH-UKWJTHFESA-N
Instrument_type: LC-ESI-TOF
Instrument: impact HD
Ion_mode: N
InChIKey: XFZJEEAOWLFHDH-UKWJTHFESA-N
Formula: C30H26O12
MW: 578
ExactMass: 578.142426272
Comments: "license=License CC-BY-NC-SA 4.0 International" "author=Plant Biology, The Noble Foundation, Ardmore, OK, US/Dennis Fine, Daniel Wherritt, and Lloyd Sumner" "instrument type=LC-ESI-TOF" "instrument=impact HD" "ionization=ESI" "ionization mode=negative" "collision gas=Nitrogen" "peak width=0.013" "date=2014-08-19 23:33:22+02:00" "column=Waters Acquity BEH C18 1.7um x 2.1 x 150 mm" "retention time=106.2" "raw data file=C:\Data\Confirmed standards 19_Aug_2014\Procyanidin B1 vial 375_1-E,7_01_661.d" "cas number=20315-25-7" "SMILES=c1cc(c(cc1[C@@H]2[C@H](Cc3c(cc(c(c3O2)[C@H]4c5c(cc(cc5O[C@@H]([C@@H]4O)c6ccc(c(c6)O)O)O)O)O)O)O)O)O" "InChI=InChI=1S/C30H26O12/c31-13-7-20(37)24-23(8-13)41-29(12-2-4-16(33)19(36)6-12)27(40)26(24)25-21(38)10-17(34)14-9-22(39)28(42-30(14)25)11-1-3-15(32)18(35)5-11/h1-8,10,22,26-29,31-40H,9H2/t22-,26+,27+,28+,29+/m0/s1" "InChIKey=XFZJEEAOWLFHDH-UKWJTHFESA-N" "molecular formula=C30H26O12" "total exact mass=578.142426272" "SMILES=OC=1C=CC(=CC1O)C2OC=3C=C(O)C=C(O)C3C(C=4C(O)=CC(O)=C5C4OC(C=6C=CC(O)=C(O)C6)C(O)C5)C2O" "InChI=InChI=1S/C30H26O12/c31-13-7-20(37)24-23(8-13)41-29(12-2-4-16(33)19(36)6-12)27(40)26(24)25-21(38)10-17(34)14-9-22(39)28(42-30(14)25)11-1-3-15(32)18(35)5-11/h1-8,10,22,26-29,31-40H,9H2/t22-,26?,27-,28-,29-/m1/s1" "InChIKey=XFZJEEAOWLFHDH-ATEOAPGCSA-N"
Num Peaks: 33
 423 1.701702; 
 425 1.201201; 
 555 1.301301; 
 556 1.701702; 
 571 2.002002; 
 573 12.712713; 
 574 6.506507; 
 575 22.922923; 
 576 12.312312; 
 577 100.000000; 
 578 52.652653; 
 579 15.115115; 
 580 3.503504; 
 591 1.101101; 
 597 1.301301; 
 599 3.903904; 
 600 2.102102; 
 661 1.101101; 
 676 1.401401; 
 677 1.101101; 
 695 1.401401; 
 865 1.201201; 
 866 1.301301; 
 1149 1.201201; 
 1150 1.201201; 
 1151 3.703704; 
 1152 3.903904; 
 1153 5.905906; 
 1154 4.904905; 
 1155 9.709710; 
 1156 9.109109; 
 1157 5.205205; 
 1158 2.002002; 


Name: Procyanidin B1
SYNON: $:00in-source
DB#: MetaboBASE0946
InChIKey: XFZJEEAOWLFHDH-UKWJTHFESA-N
Precursor_type: [M-H]-
Spectrum_type: MS2
PrecursorMZ: 577.1372
Instrument_type: LC-ESI-TOF
Instrument: impact HD
Ion_mode: N
Collision_energy: 10
InChIKey: XFZJEEAOWLFHDH-UKWJTHFESA-N
Formula: C30H26O12
MW: 578
ExactMass: 578.142426272
Comments: "license=License CC-BY-NC-SA 4.0 International" "author=Plant Biology, The Noble Foundation, Ardmore, OK, US/Dennis Fine, Daniel Wherritt, and Lloyd Sumner" "instrument type=LC-ESI-TOF" "instrument=impact HD" "ionization=ESI" "ionization mode=negative" "ms level=MS2" "precursor m/z=577.1372" "isolation width=5" "collision gas=Nitrogen" "collision energy=10" "peak width=0.015" "date=2014-08-19 23:33:22+02:00" "column=Waters Acquity BEH C18 1.7um x 2.1 x 150 mm" "retention time=106.2" "raw data file=C:\Data\Confirmed standards 19_Aug_2014\Procyanidin B1 vial 375_1-E,7_01_661.d" "precursor type=[M-H]-" "mass accuracy=3.5515437232051235" "mass error=0.00204972800008818" "cas number=20315-25-7" "SMILES=c1cc(c(cc1[C@@H]2[C@H](Cc3c(cc(c(c3O2)[C@H]4c5c(cc(cc5O[C@@H]([C@@H]4O)c6ccc(c(c6)O)O)O)O)O)O)O)O)O" "InChI=InChI=1S/C30H26O12/c31-13-7-20(37)24-23(8-13)41-29(12-2-4-16(33)19(36)6-12)27(40)26(24)25-21(38)10-17(34)14-9-22(39)28(42-30(14)25)11-1-3-15(32)18(35)5-11/h1-8,10,22,26-29,31-40H,9H2/t22-,26+,27+,28+,29+/m0/s1" "InChIKey=XFZJEEAOWLFHDH-UKWJTHFESA-N" "molecular formula=C30H26O12" "total exact mass=578.142426272" "SMILES=OC=1C=CC(=CC1O)C2OC=3C=C(O)C=C(O)C3C(C=4C(O)=CC(O)=C5C4OC(C=6C=CC(O)=C(O)C6)C(O)C5)C2O" "InChI=InChI=1S/C30H26O12/c31-13-7-20(37)24-23(8-13)41-29(12-2-4-16(33)19(36)6-12)27(40)26(24)25-21(38)10-17(34)14-9-22(39)28(42-30(14)25)11-1-3-15(32)18(35)5-11/h1-8,10,22,26-29,31-40H,9H2/t22-,26?,27-,28-,29-/m1/s1" "InChIKey=XFZJEEAOWLFHDH-ATEOAPGCSA-N"
Num Peaks: 19
 287 2.402402; 
 289 3.103103; 
 297 0.100100; 
 407 2.002002; 
 409 0.100100; 
 422 0.100100; 
 423 3.403403; 
 424 1.701702; 
 425 12.012012; 
 426 3.203203; 
 447 0.100100; 
 451 1.401401; 
 531 0.100100; 
 574 4.004004; 
 575 22.722723; 
 576 13.513514; 
 577 100.000000; 
 578 31.831832; 
 579 4.404404; 


Name: Procyanidin B1
SYNON: $:00in-source
DB#: MetaboBASE0947
InChIKey: XFZJEEAOWLFHDH-UKWJTHFESA-N
Precursor_type: [M-H]-
Spectrum_type: MS2
PrecursorMZ: 577.1358
Instrument_type: LC-ESI-TOF
Instrument: impact HD
Ion_mode: N
Collision_energy: 30
InChIKey: XFZJEEAOWLFHDH-UKWJTHFESA-N
Formula: C30H26O12
MW: 578
ExactMass: 578.142426272
Comments: "license=License CC-BY-NC-SA 4.0 International" "author=Plant Biology, The Noble Foundation, Ardmore, OK, US/Dennis Fine, Daniel Wherritt, and Lloyd Sumner" "instrument type=LC-ESI-TOF" "instrument=impact HD" "ionization=ESI" "ionization mode=negative" "ms level=MS2" "precursor m/z=577.1358" "isolation width=5" "collision gas=Nitrogen" "collision energy=30" "peak width=0.013" "date=2014-08-19 23:33:22+02:00" "column=Waters Acquity BEH C18 1.7um x 2.1 x 150 mm" "retention time=106.2" "raw data file=C:\Data\Confirmed standards 19_Aug_2014\Procyanidin B1 vial 375_1-E,7_01_661.d" "precursor type=[M-H]-" "mass accuracy=1.1257801025314116" "mass error=6.497280000985484E-4" "cas number=20315-25-7" "SMILES=c1cc(c(cc1[C@@H]2[C@H](Cc3c(cc(c(c3O2)[C@H]4c5c(cc(cc5O[C@@H]([C@@H]4O)c6ccc(c(c6)O)O)O)O)O)O)O)O)O" "InChI=InChI=1S/C30H26O12/c31-13-7-20(37)24-23(8-13)41-29(12-2-4-16(33)19(36)6-12)27(40)26(24)25-21(38)10-17(34)14-9-22(39)28(42-30(14)25)11-1-3-15(32)18(35)5-11/h1-8,10,22,26-29,31-40H,9H2/t22-,26+,27+,28+,29+/m0/s1" "InChIKey=XFZJEEAOWLFHDH-UKWJTHFESA-N" "molecular formula=C30H26O12" "total exact mass=578.142426272" "SMILES=OC=1C=CC(=CC1O)C2OC=3C=C(O)C=C(O)C3C(C=4C(O)=CC(O)=C5C4OC(C=6C=CC(O)=C(O)C6)C(O)C5)C2O" "InChI=InChI=1S/C30H26O12/c31-13-7-20(37)24-23(8-13)41-29(12-2-4-16(33)19(36)6-12)27(40)26(24)25-21(38)10-17(34)14-9-22(39)28(42-30(14)25)11-1-3-15(32)18(35)5-11/h1-8,10,22,26-29,31-40H,9H2/t22-,26?,27-,28-,29-/m1/s1" "InChIKey=XFZJEEAOWLFHDH-ATEOAPGCSA-N"
Num Peaks: 62
 124 0.100100; 
 125 19.619620; 
 126 1.701702; 
 137 2.702703; 
 161 7.607608; 
 229 1.101101; 
 243 2.102102; 
 243 1.201201; 
 245 4.904905; 
 245 8.508509; 
 246 1.301301; 
 255 1.901902; 
 256 1.101101; 
 257 1.001001; 
 269 1.601602; 
 273 5.205205; 
 274 1.101101; 
 281 1.501502; 
 283 1.301301; 
 284 1.001001; 
 285 11.511512; 
 286 4.504505; 
 287 11.311311; 
 288 2.302302; 
 289 100.000000; 
 290 15.515516; 
 291 1.201201; 
 297 1.401401; 
 299 4.604605; 
 300 1.201201; 
 313 1.101101; 
 325 0.100100; 
 327 1.701702; 
 328 1.701702; 
 329 3.303303; 
 339 4.604605; 
 340 1.001001; 
 341 1.001001; 
 381 4.504505; 
 382 1.301301; 
 405 1.301301; 
 407 63.863864; 
 408 16.816817; 
 409 2.202202; 
 423 3.403403; 
 424 1.801802; 
 425 11.911912; 
 426 3.403403; 
 449 4.704705; 
 450 2.002002; 
 451 7.807808; 
 452 1.501502; 
 452 2.002002; 
 453 1.201201; 
 471 1.101101; 
 539 3.103103; 
 540 1.501502; 
 556 1.401401; 
 557 1.101101; 
 575 1.701702; 
 576 1.001001; 
 577 2.602603; 


Name: Procyanidin B1
SYNON: $:00in-source
DB#: MetaboBASE0948
InChIKey: XFZJEEAOWLFHDH-UKWJTHFESA-N
Precursor_type: [M-H]-
Spectrum_type: MS2
PrecursorMZ: 577.136
Instrument_type: LC-ESI-TOF
Instrument: impact HD
Ion_mode: N
Collision_energy: 20
InChIKey: XFZJEEAOWLFHDH-UKWJTHFESA-N
Formula: C30H26O12
MW: 578
ExactMass: 578.142426272
Comments: "license=License CC-BY-NC-SA 4.0 International" "author=Plant Biology, The Noble Foundation, Ardmore, OK, US/Dennis Fine, Daniel Wherritt, and Lloyd Sumner" "instrument type=LC-ESI-TOF" "instrument=impact HD" "ionization=ESI" "ionization mode=negative" "ms level=MS2" "precursor m/z=577.136" "isolation width=5" "collision gas=Nitrogen" "collision energy=20" "peak width=0.011" "date=2014-08-19 23:33:22+02:00" "column=Waters Acquity BEH C18 1.7um x 2.1 x 150 mm" "retention time=106.2" "raw data file=C:\Data\Confirmed standards 19_Aug_2014\Procyanidin B1 vial 375_1-E,7_01_661.d" "precursor type=[M-H]-" "mass accuracy=1.472318483075643" "mass error=8.497280000483443E-4" "cas number=20315-25-7" "SMILES=c1cc(c(cc1[C@@H]2[C@H](Cc3c(cc(c(c3O2)[C@H]4c5c(cc(cc5O[C@@H]([C@@H]4O)c6ccc(c(c6)O)O)O)O)O)O)O)O)O" "InChI=InChI=1S/C30H26O12/c31-13-7-20(37)24-23(8-13)41-29(12-2-4-16(33)19(36)6-12)27(40)26(24)25-21(38)10-17(34)14-9-22(39)28(42-30(14)25)11-1-3-15(32)18(35)5-11/h1-8,10,22,26-29,31-40H,9H2/t22-,26+,27+,28+,29+/m0/s1" "InChIKey=XFZJEEAOWLFHDH-UKWJTHFESA-N" "molecular formula=C30H26O12" "total exact mass=578.142426272" "SMILES=OC=1C=CC(=CC1O)C2OC=3C=C(O)C=C(O)C3C(C=4C(O)=CC(O)=C5C4OC(C=6C=CC(O)=C(O)C6)C(O)C5)C2O" "InChI=InChI=1S/C30H26O12/c31-13-7-20(37)24-23(8-13)41-29(12-2-4-16(33)19(36)6-12)27(40)26(24)25-21(38)10-17(34)14-9-22(39)28(42-30(14)25)11-1-3-15(32)18(35)5-11/h1-8,10,22,26-29,31-40H,9H2/t22-,26?,27-,28-,29-/m1/s1" "InChIKey=XFZJEEAOWLFHDH-ATEOAPGCSA-N"
Num Peaks: 60
 125 16.716717; 
 126 1.001001; 
 161 3.703704; 
 243 1.201201; 
 245 6.906907; 
 245 2.302302; 
 246 1.101101; 
 269 1.101101; 
 273 4.304304; 
 285 13.013013; 
 286 4.804805; 
 287 31.131131; 
 288 5.905906; 
 289 99.199199; 
 290 16.016016; 
 291 1.001001; 
 297 1.501502; 
 299 9.809810; 
 300 1.901902; 
 327 1.201201; 
 328 1.301301; 
 329 3.503504; 
 331 1.901902; 
 339 1.501502; 
 381 3.203203; 
 382 1.001001; 
 405 1.301301; 
 407 73.373373; 
 408 20.220220; 
 409 2.902903; 
 410 1.001001; 
 423 13.913914; 
 424 6.906907; 
 425 96.496496; 
 426 24.624625; 
 427 3.103103; 
 447 1.801802; 
 448 1.201201; 
 449 11.611612; 
 450 4.804805; 
 451 38.138138; 
 452 3.603604; 
 452 9.109109; 
 453 3.003003; 
 467 1.301301; 
 513 1.101101; 
 533 1.801802; 
 539 4.604605; 
 540 2.202202; 
 556 3.503504; 
 557 3.703704; 
 558 1.701702; 
 559 5.405405; 
 560 1.301301; 
 574 4.304304; 
 575 29.529530; 
 576 18.818819; 
 577 100.000000; 
 578 32.232232; 
 579 5.505506; 


Name: Procyanidin B1
SYNON: $:00in-source
DB#: MetaboBASE0949
InChIKey: XFZJEEAOWLFHDH-UKWJTHFESA-N
Precursor_type: [M-H]-
Spectrum_type: MS2
PrecursorMZ: 577.14
Instrument_type: LC-ESI-TOF
Instrument: impact HD
Ion_mode: N
Collision_energy: 50
InChIKey: XFZJEEAOWLFHDH-UKWJTHFESA-N
Formula: C30H26O12
MW: 578
ExactMass: 578.142426272
Comments: "license=License CC-BY-NC-SA 4.0 International" "author=Plant Biology, The Noble Foundation, Ardmore, OK, US/Dennis Fine, Daniel Wherritt, and Lloyd Sumner" "instrument type=LC-ESI-TOF" "instrument=impact HD" "ionization=ESI" "ionization mode=negative" "ms level=MS2" "precursor m/z=577.14" "isolation width=5" "collision gas=Nitrogen" "collision energy=50" "peak width=0.016" "date=2014-08-19 23:33:22+02:00" "column=Waters Acquity BEH C18 1.7um x 2.1 x 150 mm" "retention time=106.2" "raw data file=C:\Data\Confirmed standards 19_Aug_2014\Procyanidin B1 vial 375_1-E,7_01_661.d" "precursor type=[M-H]-" "mass accuracy=8.403035658709229" "mass error=0.004849728000067444" "cas number=20315-25-7" "SMILES=c1cc(c(cc1[C@@H]2[C@H](Cc3c(cc(c(c3O2)[C@H]4c5c(cc(cc5O[C@@H]([C@@H]4O)c6ccc(c(c6)O)O)O)O)O)O)O)O)O" "InChI=InChI=1S/C30H26O12/c31-13-7-20(37)24-23(8-13)41-29(12-2-4-16(33)19(36)6-12)27(40)26(24)25-21(38)10-17(34)14-9-22(39)28(42-30(14)25)11-1-3-15(32)18(35)5-11/h1-8,10,22,26-29,31-40H,9H2/t22-,26+,27+,28+,29+/m0/s1" "InChIKey=XFZJEEAOWLFHDH-UKWJTHFESA-N" "molecular formula=C30H26O12" "total exact mass=578.142426272" "SMILES=OC=1C=CC(=CC1O)C2OC=3C=C(O)C=C(O)C3C(C=4C(O)=CC(O)=C5C4OC(C=6C=CC(O)=C(O)C6)C(O)C5)C2O" "InChI=InChI=1S/C30H26O12/c31-13-7-20(37)24-23(8-13)41-29(12-2-4-16(33)19(36)6-12)27(40)26(24)25-21(38)10-17(34)14-9-22(39)28(42-30(14)25)11-1-3-15(32)18(35)5-11/h1-8,10,22,26-29,31-40H,9H2/t22-,26?,27-,28-,29-/m1/s1" "InChIKey=XFZJEEAOWLFHDH-ATEOAPGCSA-N"
Num Peaks: 85
 109 17.217217; 
 121 6.706707; 
 122 3.803804; 
 123 14.514515; 
 125 100.000000; 
 126 6.906907; 
 137 30.830831; 
 138 3.103103; 
 139 4.104104; 
 147 3.103103; 
 149 11.411411; 
 150 3.003003; 
 151 25.625626; 
 159 3.603604; 
 161 31.631632; 
 161 4.904905; 
 162 7.807808; 
 163 8.908909; 
 163 5.705706; 
 164 10.210210; 
 165 14.814815; 
 167 4.104104; 
 175 17.417417; 
 177 13.413413; 
 179 9.309309; 
 187 9.809810; 
 188 3.703704; 
 189 3.303303; 
 202 4.104104; 
 203 3.603604; 
 203 15.015015; 
 205 7.507508; 
 205 14.114114; 
 215 4.104104; 
 217 6.406406; 
 221 9.109109; 
 225 4.004004; 
 227 6.406406; 
 227 8.308308; 
 228 5.905906; 
 229 14.514515; 
 230 7.307307; 
 231 6.906907; 
 240 3.103103; 
 241 6.906907; 
 243 17.717718; 
 243 3.303303; 
 244 5.605606; 
 245 12.612613; 
 245 57.857858; 
 246 9.709710; 
 247 7.907908; 
 255 31.431431; 
 255 3.003003; 
 256 27.227227; 
 257 15.415415; 
 258 3.903904; 
 259 3.503504; 
 269 9.009009; 
 270 3.303303; 
 271 7.307307; 
 273 6.406406; 
 281 13.613614; 
 282 3.203203; 
 283 10.010010; 
 283 3.103103; 
 284 7.607608; 
 285 27.327327; 
 286 8.808809; 
 287 4.404404; 
 289 56.756757; 
 290 7.207207; 
 297 7.907908; 
 298 3.803804; 
 299 3.103103; 
 307 5.605606; 
 315 4.304304; 
 321 3.003003; 
 339 13.313313; 
 340 3.403403; 
 363 4.704705; 
 389 3.303303; 
 407 39.439439; 
 408 12.412412; 
 471 3.603604; 


Name: Epigallocatechin
SYNON: $:00in-source
DB#: MetaboBASE0950
InChIKey: XMOCLSLCDHWDHP-IUODEOHRSA-N
Precursor_type: [M-H]-
Spectrum_type: MS2
PrecursorMZ: 305.0673
Instrument_type: LC-ESI-TOF
Instrument: impact HD
Ion_mode: N
Collision_energy: 10
InChIKey: XMOCLSLCDHWDHP-IUODEOHRSA-N
Formula: C15H14O7
MW: 306
ExactMass: 306.073952788
Comments: "license=License CC-BY-NC-SA 4.0 International" "author=Plant Biology, The Noble Foundation, Ardmore, OK, US/Dennis Fine, Daniel Wherritt, and Lloyd Sumner" "instrument type=LC-ESI-TOF" "instrument=impact HD" "ionization=ESI" "ionization mode=negative" "ms level=MS2" "precursor m/z=305.0673" "isolation width=5" "collision gas=Nitrogen" "collision energy=10" "peak width=0.016" "date=2014-08-19 21:31:04+02:00" "column=Waters Acquity BEH C18 1.7um x 2.1 x 150 mm" "retention time=103.2" "raw data file=C:\Data\Confirmed standards 19_Aug_2014\Epigallocatechin vial 372_1-E,4_01_658.d" "precursor type=[M-H]-" "mass accuracy=2.0428672623830884" "mass error=6.232119999936003E-4" "cas number=970-74-1" "SMILES=c1c(cc(c(c1O)O)O)[C@@H]2[C@@H](Cc3c(cc(cc3O2)O)O)O" "InChI=InChI=1S/C15H14O7/c16-7-3-9(17)8-5-12(20)15(22-13(8)4-7)6-1-10(18)14(21)11(19)2-6/h1-4,12,15-21H,5H2/t12-,15-/m1/s1" "InChIKey=XMOCLSLCDHWDHP-IUODEOHRSA-N" "molecular formula=C15H14O7" "total exact mass=306.073952788" "SMILES=C1C(C(OC2=CC(=CC(=C21)O)O)C3=CC(=C(C(=C3)O)O)O)O"
Num Peaks: 30
 125 5.105105; 
 137 3.903904; 
 139 1.201201; 
 165 4.404404; 
 166 1.101101; 
 167 1.101101; 
 179 2.902903; 
 217 1.101101; 
 219 2.202202; 
 221 1.601602; 
 231 1.001001; 
 233 1.301301; 
 235 2.702703; 
 241 2.002002; 
 257 2.002002; 
 259 4.004004; 
 260 1.601602; 
 261 1.301301; 
 261 4.904905; 
 262 1.501502; 
 274 1.601602; 
 275 8.008008; 
 276 3.803804; 
 285 6.006006; 
 286 2.802803; 
 303 23.723724; 
 304 12.712713; 
 305 100.000000; 
 306 40.240240; 
 307 3.803804; 


Name: Epigallocatechin
SYNON: $:00in-source
DB#: MetaboBASE0951
InChIKey: XMOCLSLCDHWDHP-IUODEOHRSA-N
Precursor_type: [M-H]-
Spectrum_type: MS2
PrecursorMZ: 305.0683
Instrument_type: LC-ESI-TOF
Instrument: impact HD
Ion_mode: N
Collision_energy: 30
InChIKey: XMOCLSLCDHWDHP-IUODEOHRSA-N
Formula: C15H14O7
MW: 306
ExactMass: 306.073952788
Comments: "license=License CC-BY-NC-SA 4.0 International" "author=Plant Biology, The Noble Foundation, Ardmore, OK, US/Dennis Fine, Daniel Wherritt, and Lloyd Sumner" "instrument type=LC-ESI-TOF" "instrument=impact HD" "ionization=ESI" "ionization mode=negative" "ms level=MS2" "precursor m/z=305.0683" "isolation width=5" "collision gas=Nitrogen" "collision energy=30" "peak width=0.019" "date=2014-08-19 21:31:04+02:00" "column=Waters Acquity BEH C18 1.7um x 2.1 x 150 mm" "retention time=103.2" "raw data file=C:\Data\Confirmed standards 19_Aug_2014\Epigallocatechin vial 372_1-E,4_01_658.d" "precursor type=[M-H]-" "mass accuracy=5.320815043801001" "mass error=0.0016232120000267969" "cas number=970-74-1" "SMILES=c1c(cc(c(c1O)O)O)[C@@H]2[C@@H](Cc3c(cc(cc3O2)O)O)O" "InChI=InChI=1S/C15H14O7/c16-7-3-9(17)8-5-12(20)15(22-13(8)4-7)6-1-10(18)14(21)11(19)2-6/h1-4,12,15-21H,5H2/t12-,15-/m1/s1" "InChIKey=XMOCLSLCDHWDHP-IUODEOHRSA-N" "molecular formula=C15H14O7" "total exact mass=306.073952788" "SMILES=C1C(C(OC2=CC(=CC(=C21)O)O)C3=CC(=C(C(=C3)O)O)O)O"
Num Peaks: 113
 109 32.132132; 
 110 3.403403; 
 111 4.304304; 
 112 1.201201; 
 119 2.002002; 
 121 10.510511; 
 122 1.501502; 
 123 12.812813; 
 123 2.102102; 
 124 12.212212; 
 125 100.000000; 
 126 10.810811; 
 131 1.001001; 
 133 2.102102; 
 133 2.102102; 
 135 4.404404; 
 137 87.887888; 
 137 1.101101; 
 138 19.519520; 
 139 27.127127; 
 140 4.104104; 
 143 1.101101; 
 145 2.202202; 
 145 1.401401; 
 147 4.904905; 
 149 7.407407; 
 149 3.403403; 
 150 3.103103; 
 151 8.108108; 
 152 1.301301; 
 153 2.802803; 
 159 3.103103; 
 160 1.501502; 
 161 5.005005; 
 161 2.002002; 
 162 2.102102; 
 163 2.802803; 
 164 9.309309; 
 164 2.302302; 
 165 26.926927; 
 165 1.401401; 
 166 6.506507; 
 167 25.925926; 
 168 4.104104; 
 171 2.502503; 
 173 2.002002; 
 173 2.102102; 
 174 2.602603; 
 175 7.407407; 
 176 3.803804; 
 177 6.806807; 
 177 5.505506; 
 178 3.703704; 
 178 1.901902; 
 179 8.508509; 
 180 1.601602; 
 181 1.301301; 
 185 1.301301; 
 186 1.001001; 
 187 2.902903; 
 188 2.602603; 
 189 3.003003; 
 190 1.601602; 
 190 2.202202; 
 191 4.804805; 
 191 2.302302; 
 192 1.501502; 
 193 4.104104; 
 198 1.301301; 
 199 2.602603; 
 200 1.201201; 
 201 1.101101; 
 201 3.003003; 
 203 4.304304; 
 204 3.603604; 
 205 1.901902; 
 207 1.601602; 
 211 1.101101; 
 212 1.401401; 
 213 1.801802; 
 215 2.302302; 
 215 1.001001; 
 216 1.801802; 
 217 4.004004; 
 218 3.703704; 
 219 1.001001; 
 219 12.612613; 
 220 4.604605; 
 221 4.004004; 
 222 1.501502; 
 227 1.001001; 
 228 1.401401; 
 229 4.304304; 
 230 2.002002; 
 232 1.101101; 
 233 1.701702; 
 234 1.201201; 
 235 2.402402; 
 237 4.404404; 
 238 1.701702; 
 239 1.301301; 
 241 1.501502; 
 242 1.501502; 
 243 3.103103; 
 243 1.101101; 
 246 1.001001; 
 257 3.803804; 
 258 1.701702; 
 259 1.001001; 
 261 1.001001; 
 274 1.601602; 
 275 2.402402; 
 285 1.801802; 


Name: Epigallocatechin
SYNON: $:00in-source
DB#: MetaboBASE0952
InChIKey: XMOCLSLCDHWDHP-IUODEOHRSA-N
Instrument_type: LC-ESI-TOF
Instrument: impact HD
Ion_mode: N
InChIKey: XMOCLSLCDHWDHP-IUODEOHRSA-N
Formula: C15H14O7
MW: 306
ExactMass: 306.073952788
Comments: "license=License CC-BY-NC-SA 4.0 International" "author=Plant Biology, The Noble Foundation, Ardmore, OK, US/Dennis Fine, Daniel Wherritt, and Lloyd Sumner" "instrument type=LC-ESI-TOF" "instrument=impact HD" "ionization=ESI" "ionization mode=negative" "collision gas=Nitrogen" "peak width=0.015" "date=2014-08-19 21:31:04+02:00" "column=Waters Acquity BEH C18 1.7um x 2.1 x 150 mm" "retention time=103.2" "raw data file=C:\Data\Confirmed standards 19_Aug_2014\Epigallocatechin vial 372_1-E,4_01_658.d" "cas number=970-74-1" "SMILES=c1c(cc(c(c1O)O)O)[C@@H]2[C@@H](Cc3c(cc(cc3O2)O)O)O" "InChI=InChI=1S/C15H14O7/c16-7-3-9(17)8-5-12(20)15(22-13(8)4-7)6-1-10(18)14(21)11(19)2-6/h1-4,12,15-21H,5H2/t12-,15-/m1/s1" "InChIKey=XMOCLSLCDHWDHP-IUODEOHRSA-N" "molecular formula=C15H14O7" "total exact mass=306.073952788" "SMILES=C1C(C(OC2=CC(=CC(=C21)O)O)C3=CC(=C(C(=C3)O)O)O)O"
Num Peaks: 33
 235 1.201201; 
 259 5.105105; 
 260 2.002002; 
 261 1.201201; 
 261 3.203203; 
 262 1.001001; 
 275 5.805806; 
 276 2.102102; 
 277 1.001001; 
 285 5.005005; 
 286 1.501502; 
 303 56.256256; 
 304 20.320320; 
 305 100.000000; 
 306 35.535536; 
 307 6.606607; 
 308 1.101101; 
 321 1.401401; 
 556 1.901902; 
 607 4.504505; 
 608 3.303303; 
 609 7.107107; 
 610 5.405405; 
 611 25.025025; 
 612 18.118118; 
 613 7.407407; 
 614 2.202202; 
 625 1.301301; 
 626 1.001001; 
 631 1.101101; 
 913 1.701702; 
 914 1.601602; 
 915 1.301301; 


Name: Epigallocatechin
SYNON: $:00in-source
DB#: MetaboBASE0953
InChIKey: XMOCLSLCDHWDHP-IUODEOHRSA-N
Precursor_type: [M-H]-
Spectrum_type: MS2
PrecursorMZ: 305.0666
Instrument_type: LC-ESI-TOF
Instrument: impact HD
Ion_mode: N
Collision_energy: 20
InChIKey: XMOCLSLCDHWDHP-IUODEOHRSA-N
Formula: C15H14O7
MW: 306
ExactMass: 306.073952788
Comments: "license=License CC-BY-NC-SA 4.0 International" "author=Plant Biology, The Noble Foundation, Ardmore, OK, US/Dennis Fine, Daniel Wherritt, and Lloyd Sumner" "instrument type=LC-ESI-TOF" "instrument=impact HD" "ionization=ESI" "ionization mode=negative" "ms level=MS2" "precursor m/z=305.0666" "isolation width=5" "collision gas=Nitrogen" "collision energy=20" "peak width=0.019" "date=2014-08-19 21:31:04+02:00" "column=Waters Acquity BEH C18 1.7um x 2.1 x 150 mm" "retention time=103.2" "raw data file=C:\Data\Confirmed standards 19_Aug_2014\Epigallocatechin vial 372_1-E,4_01_658.d" "precursor type=[M-H]-" "mass accuracy=0.25170897109423174" "mass error=-7.678800000121555E-5" "cas number=970-74-1" "SMILES=c1c(cc(c(c1O)O)O)[C@@H]2[C@@H](Cc3c(cc(cc3O2)O)O)O" "InChI=InChI=1S/C15H14O7/c16-7-3-9(17)8-5-12(20)15(22-13(8)4-7)6-1-10(18)14(21)11(19)2-6/h1-4,12,15-21H,5H2/t12-,15-/m1/s1" "InChIKey=XMOCLSLCDHWDHP-IUODEOHRSA-N" "molecular formula=C15H14O7" "total exact mass=306.073952788" "SMILES=C1C(C(OC2=CC(=CC(=C21)O)O)C3=CC(=C(C(=C3)O)O)O)O"
Num Peaks: 126
 109 10.410410; 
 110 2.502503; 
 111 3.703704; 
 121 3.703704; 
 123 5.105105; 
 123 1.301301; 
 124 4.004004; 
 125 100.000000; 
 126 14.014014; 
 133 1.001001; 
 135 1.901902; 
 137 69.269269; 
 138 13.813814; 
 139 27.027027; 
 140 3.303303; 
 149 5.505506; 
 149 1.101101; 
 150 3.603604; 
 151 6.906907; 
 152 1.601602; 
 153 1.801802; 
 159 2.402402; 
 161 3.203203; 
 161 1.101101; 
 162 1.201201; 
 163 1.401401; 
 164 6.506507; 
 165 48.848849; 
 166 10.810811; 
 167 30.430430; 
 168 4.104104; 
 171 1.301301; 
 173 1.001001; 
 173 2.102102; 
 174 1.501502; 
 175 4.804805; 
 176 2.302302; 
 177 12.112112; 
 177 5.505506; 
 178 4.504505; 
 179 27.027027; 
 180 6.306306; 
 181 1.801802; 
 185 1.301301; 
 187 1.301301; 
 188 1.501502; 
 189 4.504505; 
 190 1.101101; 
 191 6.406406; 
 191 3.503504; 
 192 1.001001; 
 192 1.101101; 
 193 4.004004; 
 199 2.902903; 
 201 2.202202; 
 203 5.605606; 
 203 1.301301; 
 204 4.804805; 
 205 1.701702; 
 207 5.505506; 
 208 1.901902; 
 213 2.902903; 
 214 1.101101; 
 215 3.203203; 
 215 2.102102; 
 216 1.601602; 
 217 8.508509; 
 218 5.005005; 
 219 1.401401; 
 219 28.428428; 
 220 9.509510; 
 221 18.418418; 
 222 5.105105; 
 227 1.301301; 
 228 1.301301; 
 229 3.203203; 
 230 2.302302; 
 231 6.006006; 
 232 2.502503; 
 233 6.706707; 
 233 2.602603; 
 234 2.302302; 
 234 1.101101; 
 235 8.208208; 
 236 2.802803; 
 237 8.708709; 
 238 2.502503; 
 239 1.901902; 
 241 6.006006; 
 242 1.301301; 
 242 3.003003; 
 243 4.704705; 
 243 5.605606; 
 244 1.601602; 
 244 1.901902; 
 245 1.001001; 
 245 2.302302; 
 246 1.601602; 
 247 1.301301; 
 256 1.401401; 
 257 10.210210; 
 258 4.704705; 
 259 2.202202; 
 259 4.004004; 
 260 1.601602; 
 260 1.301301; 
 261 2.102102; 
 261 14.814815; 
 262 6.106106; 
 263 2.702703; 
 264 1.001001; 
 267 1.501502; 
 269 1.301301; 
 274 10.410410; 
 275 11.111111; 
 276 5.305305; 
 277 1.201201; 
 285 8.208208; 
 286 4.304304; 
 287 2.902903; 
 288 1.201201; 
 303 4.704705; 
 304 3.203203; 
 305 40.940941; 
 306 17.917918; 
 307 2.502503; 


Name: Dihydrokaempferol
SYNON: $:00in-source
DB#: MetaboBASE0954
InChIKey: PADQINQHPQKXNL-UHFFFAOYSA-N
Instrument_type: LC-ESI-TOF
Instrument: impact HD
Ion_mode: N
Collision_energy: 10
InChIKey: PADQINQHPQKXNL-UHFFFAOYSA-N
Formula: C15H12O6
MW: 288
ExactMass: 288.06338810399996
Comments: "license=License CC-BY-NC-SA 4.0 International" "author=Plant Biology, The Noble Foundation, Ardmore, OK, US/Dennis Fine, Daniel Wherritt, and Lloyd Sumner" "instrument type=LC-ESI-TOF" "instrument=impact HD" "ionization=ESI" "ionization mode=negative" "collision gas=Nitrogen" "collision energy=10" "peak width=0.011" "date=2014-08-28 01:23:50+02:00" "column=Waters Acquity BEH C18 1.7um x 2.1 x 150 mm" "retention time=349.8" "raw data file=C:\Data\Confirmed standards 27_Aug_2014\Dihydrokaempferol vial 335_1-A,6_01_709.d" "cas number=480-20-6" "SMILES=c1cc(ccc1C2C(C(=O)c3c(cc(cc3O2)O)O)O)O" "InChI=InChI=1S/C15H12O6/c16-8-3-1-7(2-4-8)15-14(20)13(19)12-10(18)5-9(17)6-11(12)21-15/h1-6,14-18,20H" "InChIKey=PADQINQHPQKXNL-UHFFFAOYSA-N" "molecular formula=C15H12O6" "total exact mass=288.06338810399996" "SMILES=C1=CC(=CC=C1C2C(C(=O)C3=C(C=C(C=C3O2)O)O)O)O"
Num Peaks: 17
 125 2.002002; 
 151 1.101101; 
 201 1.101101; 
 243 8.808809; 
 244 1.401401; 
 259 49.249249; 
 260 8.308308; 
 261 1.201201; 
 269 2.102102; 
 287 100.000000; 
 287 1.601602; 
 288 17.917918; 
 289 2.802803; 
 575 4.104104; 
 576 1.401401; 
 597 3.403403; 
 598 1.201201; 


Name: Dihydrokaempferol
SYNON: $:00in-source
DB#: MetaboBASE0955
InChIKey: PADQINQHPQKXNL-UHFFFAOYSA-N
Precursor_type: [M-H]-
Spectrum_type: MS2
PrecursorMZ: 287.1
Instrument_type: LC-ESI-TOF
Instrument: impact HD
Ion_mode: N
Collision_energy: 40
InChIKey: PADQINQHPQKXNL-UHFFFAOYSA-N
Formula: C15H12O6
MW: 288
ExactMass: 288.06338810399996
Comments: "license=License CC-BY-NC-SA 4.0 International" "author=Plant Biology, The Noble Foundation, Ardmore, OK, US/Dennis Fine, Daniel Wherritt, and Lloyd Sumner" "instrument type=LC-ESI-TOF" "instrument=impact HD" "ionization=ESI" "ionization mode=negative" "ms level=MS2" "precursor m/z=287.1" "isolation width=5" "collision gas=Nitrogen" "collision energy=40" "peak width=0.021" "date=2014-08-28 20:10:15+02:00" "column=Waters Acquity BEH C18 1.7um x 2.1 x 150 mm" "retention time=349.8" "raw data file=C:\Data\Confirmed standards 27_Aug_2014\Dihydrokaempferol vial 335 MS2_1-A,6_01_718.d" "precursor type=[M-H]-" "mass accuracy=152.86623476160895" "mass error=0.043887896000057935" "cas number=480-20-6" "SMILES=c1cc(ccc1C2C(C(=O)c3c(cc(cc3O2)O)O)O)O" "InChI=InChI=1S/C15H12O6/c16-8-3-1-7(2-4-8)15-14(20)13(19)12-10(18)5-9(17)6-11(12)21-15/h1-6,14-18,20H" "InChIKey=PADQINQHPQKXNL-UHFFFAOYSA-N" "molecular formula=C15H12O6" "total exact mass=288.06338810399996" "SMILES=C1=CC(=CC=C1C2C(C(=O)C3=C(C=C(C=C3O2)O)O)O)O"
Num Peaks: 41
 105 2.302302; 
 107 4.204204; 
 107 4.304304; 
 109 2.302302; 
 117 4.304304; 
 119 2.402402; 
 121 5.005005; 
 124 19.319319; 
 125 100.000000; 
 126 4.804805; 
 130 8.608609; 
 131 14.814815; 
 133 15.015015; 
 134 10.210210; 
 135 9.609610; 
 137 2.902903; 
 143 4.804805; 
 145 2.602603; 
 145 2.602603; 
 149 5.405405; 
 151 21.621622; 
 152 15.615616; 
 153 7.207207; 
 155 2.702703; 
 156 3.603604; 
 157 3.303303; 
 158 3.803804; 
 159 4.504505; 
 169 3.903904; 
 171 4.004004; 
 172 3.103103; 
 173 7.307307; 
 177 43.943944; 
 178 3.803804; 
 179 2.102102; 
 185 2.202202; 
 197 2.502503; 
 199 2.502503; 
 201 5.305305; 
 213 8.608609; 
 241 4.204204; 


Name: Dihydrokaempferol
SYNON: $:00in-source
DB#: MetaboBASE0956
InChIKey: PADQINQHPQKXNL-UHFFFAOYSA-N
Precursor_type: [M-H]-
Spectrum_type: MS2
PrecursorMZ: 287.1
Instrument_type: LC-ESI-TOF
Instrument: impact HD
Ion_mode: N
Collision_energy: 50
InChIKey: PADQINQHPQKXNL-UHFFFAOYSA-N
Formula: C15H12O6
MW: 288
ExactMass: 288.06338810399996
Comments: "license=License CC-BY-NC-SA 4.0 International" "author=Plant Biology, The Noble Foundation, Ardmore, OK, US/Dennis Fine, Daniel Wherritt, and Lloyd Sumner" "instrument type=LC-ESI-TOF" "instrument=impact HD" "ionization=ESI" "ionization mode=negative" "ms level=MS2" "precursor m/z=287.1" "isolation width=5" "collision gas=Nitrogen" "collision energy=50" "peak width=0.021" "date=2014-08-28 20:10:15+02:00" "column=Waters Acquity BEH C18 1.7um x 2.1 x 150 mm" "retention time=349.8" "raw data file=C:\Data\Confirmed standards 27_Aug_2014\Dihydrokaempferol vial 335 MS2_1-A,6_01_718.d" "precursor type=[M-H]-" "mass accuracy=152.86623476160895" "mass error=0.043887896000057935" "cas number=480-20-6" "SMILES=c1cc(ccc1C2C(C(=O)c3c(cc(cc3O2)O)O)O)O" "InChI=InChI=1S/C15H12O6/c16-8-3-1-7(2-4-8)15-14(20)13(19)12-10(18)5-9(17)6-11(12)21-15/h1-6,14-18,20H" "InChIKey=PADQINQHPQKXNL-UHFFFAOYSA-N" "molecular formula=C15H12O6" "total exact mass=288.06338810399996" "SMILES=C1=CC(=CC=C1C2C(C(=O)C3=C(C=C(C=C3O2)O)O)O)O"
Num Peaks: 37
 105 6.006006; 
 107 8.808809; 
 107 11.911912; 
 109 5.805806; 
 117 24.024024; 
 119 9.109109; 
 121 14.914915; 
 124 34.134134; 
 125 100.000000; 
 126 5.505506; 
 129 6.006006; 
 130 41.541542; 
 131 28.628629; 
 132 19.219219; 
 133 43.343343; 
 134 30.030030; 
 135 17.317317; 
 137 5.705706; 
 143 21.721722; 
 145 6.106106; 
 145 5.205205; 
 149 7.607608; 
 151 26.626627; 
 152 8.208208; 
 153 6.506507; 
 154 5.805806; 
 155 7.307307; 
 156 7.307307; 
 158 9.709710; 
 159 6.806807; 
 167 6.506507; 
 169 9.709710; 
 171 11.611612; 
 172 5.205205; 
 177 19.019019; 
 185 5.505506; 
 213 8.308308; 


Name: Dihydrokaempferol
SYNON: $:00in-source
DB#: MetaboBASE0957
InChIKey: PADQINQHPQKXNL-UHFFFAOYSA-N
Precursor_type: [M-H]-
Spectrum_type: MS2
PrecursorMZ: 287.0605
Instrument_type: LC-ESI-TOF
Instrument: impact HD
Ion_mode: N
Collision_energy: 10
InChIKey: PADQINQHPQKXNL-UHFFFAOYSA-N
Formula: C15H12O6
MW: 288
ExactMass: 288.06338810399996
Comments: "license=License CC-BY-NC-SA 4.0 International" "author=Plant Biology, The Noble Foundation, Ardmore, OK, US/Dennis Fine, Daniel Wherritt, and Lloyd Sumner" "instrument type=LC-ESI-TOF" "instrument=impact HD" "ionization=ESI" "ionization mode=negative" "ms level=MS2" "precursor m/z=287.0605" "isolation width=5" "collision gas=Nitrogen" "collision energy=10" "peak width=0.018" "date=2014-08-28 20:10:15+02:00" "column=Waters Acquity BEH C18 1.7um x 2.1 x 150 mm" "retention time=349.8" "raw data file=C:\Data\Confirmed standards 27_Aug_2014\Dihydrokaempferol vial 335 MS2_1-A,6_01_718.d" "precursor type=[M-H]-" "mass accuracy=15.285614008286228" "mass error=0.004387896000025648" "cas number=480-20-6" "SMILES=c1cc(ccc1C2C(C(=O)c3c(cc(cc3O2)O)O)O)O" "InChI=InChI=1S/C15H12O6/c16-8-3-1-7(2-4-8)15-14(20)13(19)12-10(18)5-9(17)6-11(12)21-15/h1-6,14-18,20H" "InChIKey=PADQINQHPQKXNL-UHFFFAOYSA-N" "molecular formula=C15H12O6" "total exact mass=288.06338810399996" "SMILES=C1=CC(=CC=C1C2C(C(=O)C3=C(C=C(C=C3O2)O)O)O)O"
Num Peaks: 29
 125 3.403403; 
 126 0.200200; 
 151 0.600601; 
 152 0.200200; 
 179 0.600601; 
 180 0.700701; 
 181 0.100100; 
 199 0.200200; 
 201 0.700701; 
 215 0.200200; 
 219 0.200200; 
 241 0.100100; 
 243 7.207207; 
 244 0.800801; 
 259 54.354354; 
 259 0.100100; 
 259 0.300300; 
 260 5.605606; 
 261 0.500501; 
 269 1.301301; 
 270 0.200200; 
 287 0.300300; 
 287 100.000000; 
 287 0.200200; 
 287 0.600601; 
 287 0.600601; 
 287 1.401401; 
 288 14.814815; 
 289 1.001001; 


Name: Dihydrokaempferol
SYNON: $:00in-source
DB#: MetaboBASE0958
InChIKey: PADQINQHPQKXNL-UHFFFAOYSA-N
Instrument_type: LC-ESI-TOF
Instrument: impact HD
Ion_mode: N
InChIKey: PADQINQHPQKXNL-UHFFFAOYSA-N
Formula: C15H12O6
MW: 288
ExactMass: 288.06338810399996
Comments: "license=License CC-BY-NC-SA 4.0 International" "author=Plant Biology, The Noble Foundation, Ardmore, OK, US/Dennis Fine, Daniel Wherritt, and Lloyd Sumner" "instrument type=LC-ESI-TOF" "instrument=impact HD" "ionization=ESI" "ionization mode=negative" "collision gas=Nitrogen" "peak width=0.017" "date=2014-08-28 20:10:15+02:00" "column=Waters Acquity BEH C18 1.7um x 2.1 x 150 mm" "retention time=349.8" "raw data file=C:\Data\Confirmed standards 27_Aug_2014\Dihydrokaempferol vial 335 MS2_1-A,6_01_718.d" "cas number=480-20-6" "SMILES=c1cc(ccc1C2C(C(=O)c3c(cc(cc3O2)O)O)O)O" "InChI=InChI=1S/C15H12O6/c16-8-3-1-7(2-4-8)15-14(20)13(19)12-10(18)5-9(17)6-11(12)21-15/h1-6,14-18,20H" "InChIKey=PADQINQHPQKXNL-UHFFFAOYSA-N" "molecular formula=C15H12O6" "total exact mass=288.06338810399996" "SMILES=C1=CC(=CC=C1C2C(C(=O)C3=C(C=C(C=C3O2)O)O)O)O"
Num Peaks: 32
 125 0.200200; 
 151 0.100100; 
 243 3.103103; 
 244 0.400400; 
 259 27.727728; 
 260 3.403403; 
 261 0.500501; 
 269 0.800801; 
 270 0.100100; 
 287 0.300300; 
 287 100.000000; 
 287 0.200200; 
 287 1.201201; 
 287 1.101101; 
 287 2.002002; 
 288 25.425425; 
 289 2.902903; 
 290 0.300300; 
 575 2.302302; 
 576 0.800801; 
 577 0.200200; 
 597 1.501502; 
 598 0.500501; 
 599 0.100100; 
 601 0.100100; 
 863 0.500501; 
 864 0.200200; 
 901 0.100100; 
 1151 0.100100; 
 1151 0.100100; 
 1204 0.300300; 
 1205 0.200200; 


Name: Dihydrokaempferol
SYNON: $:00in-source
DB#: MetaboBASE0959
InChIKey: PADQINQHPQKXNL-UHFFFAOYSA-N
Precursor_type: [M-H]-
Spectrum_type: MS2
PrecursorMZ: 287.0576
Instrument_type: LC-ESI-TOF
Instrument: impact HD
Ion_mode: N
Collision_energy: 20
InChIKey: PADQINQHPQKXNL-UHFFFAOYSA-N
Formula: C15H12O6
MW: 288
ExactMass: 288.06338810399996
Comments: "license=License CC-BY-NC-SA 4.0 International" "author=Plant Biology, The Noble Foundation, Ardmore, OK, US/Dennis Fine, Daniel Wherritt, and Lloyd Sumner" "instrument type=LC-ESI-TOF" "instrument=impact HD" "ionization=ESI" "ionization mode=negative" "ms level=MS2" "precursor m/z=287.0576" "isolation width=5" "collision gas=Nitrogen" "collision energy=20" "peak width=0.019" "date=2014-08-28 20:10:15+02:00" "column=Waters Acquity BEH C18 1.7um x 2.1 x 150 mm" "retention time=349.8" "raw data file=C:\Data\Confirmed standards 27_Aug_2014\Dihydrokaempferol vial 335 MS2_1-A,6_01_718.d" "precursor type=[M-H]-" "mass accuracy=5.183266354956788" "mass error=0.0014878960000146435" "cas number=480-20-6" "SMILES=c1cc(ccc1C2C(C(=O)c3c(cc(cc3O2)O)O)O)O" "InChI=InChI=1S/C15H12O6/c16-8-3-1-7(2-4-8)15-14(20)13(19)12-10(18)5-9(17)6-11(12)21-15/h1-6,14-18,20H" "InChIKey=PADQINQHPQKXNL-UHFFFAOYSA-N" "molecular formula=C15H12O6" "total exact mass=288.06338810399996" "SMILES=C1=CC(=CC=C1C2C(C(=O)C3=C(C=C(C=C3O2)O)O)O)O"
Num Peaks: 37
 109 0.600601; 
 124 0.600601; 
 125 72.272272; 
 126 3.103103; 
 133 1.201201; 
 135 0.700701; 
 151 8.508509; 
 152 8.708709; 
 153 2.602603; 
 156 0.600601; 
 157 1.101101; 
 159 0.900901; 
 173 1.901902; 
 177 8.408408; 
 178 0.700701; 
 178 2.902903; 
 180 4.404404; 
 181 0.700701; 
 199 2.902903; 
 201 8.508509; 
 202 0.900901; 
 203 1.501502; 
 215 4.804805; 
 216 0.600601; 
 219 3.903904; 
 225 1.101101; 
 241 2.702703; 
 243 21.321321; 
 244 2.702703; 
 245 0.900901; 
 259 100.000000; 
 260 11.511512; 
 261 0.900901; 
 269 5.605606; 
 270 0.800801; 
 287 23.323323; 
 288 3.503504; 


Name: Dihydrokaempferol
SYNON: $:00in-source
DB#: MetaboBASE0960
InChIKey: PADQINQHPQKXNL-UHFFFAOYSA-N
Precursor_type: [M-H]-
Spectrum_type: MS2
PrecursorMZ: 287.0594
Instrument_type: LC-ESI-TOF
Instrument: impact HD
Ion_mode: N
Collision_energy: 30
InChIKey: PADQINQHPQKXNL-UHFFFAOYSA-N
Formula: C15H12O6
MW: 288
ExactMass: 288.06338810399996
Comments: "license=License CC-BY-NC-SA 4.0 International" "author=Plant Biology, The Noble Foundation, Ardmore, OK, US/Dennis Fine, Daniel Wherritt, and Lloyd Sumner" "instrument type=LC-ESI-TOF" "instrument=impact HD" "ionization=ESI" "ionization mode=negative" "ms level=MS2" "precursor m/z=287.0594" "isolation width=5" "collision gas=Nitrogen" "collision energy=30" "peak width=0.02" "date=2014-08-28 20:10:15+02:00" "column=Waters Acquity BEH C18 1.7um x 2.1 x 150 mm" "retention time=349.8" "raw data file=C:\Data\Confirmed standards 27_Aug_2014\Dihydrokaempferol vial 335 MS2_1-A,6_01_718.d" "precursor type=[M-H]-" "mass accuracy=11.4537130643259" "mass error=0.003287896000017554" "cas number=480-20-6" "SMILES=c1cc(ccc1C2C(C(=O)c3c(cc(cc3O2)O)O)O)O" "InChI=InChI=1S/C15H12O6/c16-8-3-1-7(2-4-8)15-14(20)13(19)12-10(18)5-9(17)6-11(12)21-15/h1-6,14-18,20H" "InChIKey=PADQINQHPQKXNL-UHFFFAOYSA-N" "molecular formula=C15H12O6" "total exact mass=288.06338810399996" "SMILES=C1=CC(=CC=C1C2C(C(=O)C3=C(C=C(C=C3O2)O)O)O)O"
Num Peaks: 44
 107 2.302302; 
 109 1.201201; 
 121 1.701702; 
 124 5.205205; 
 125 100.000000; 
 126 4.504505; 
 130 1.401401; 
 131 4.404404; 
 133 4.904905; 
 134 2.702703; 
 135 3.803804; 
 137 1.101101; 
 149 1.701702; 
 151 19.519520; 
 152 18.718719; 
 153 6.406406; 
 156 1.701702; 
 157 2.702703; 
 158 1.001001; 
 159 2.802803; 
 165 1.301301; 
 172 2.102102; 
 173 7.807808; 
 175 1.701702; 
 176 1.101101; 
 177 41.841842; 
 178 3.303303; 
 179 2.002002; 
 180 1.201201; 
 197 1.501502; 
 199 1.001001; 
 199 1.201201; 
 200 1.001001; 
 201 7.907908; 
 203 1.601602; 
 213 3.803804; 
 215 5.105105; 
 219 1.701702; 
 225 2.002002; 
 241 5.705706; 
 243 3.103103; 
 259 14.014014; 
 260 1.901902; 
 269 4.404404; 


Name: Luteolin 7-O-glucoside
Synon: Cynaroside
SYNON: $:00in-source
DB#: MetaboBASE0961
InChIKey: PEFNSGRTCBGNAN-QNDFHXLGSA-N
Instrument_type: LC-ESI-TOF
Instrument: impact HD
Ion_mode: N
Collision_energy: 10
InChIKey: PEFNSGRTCBGNAN-QNDFHXLGSA-N
Formula: C21H20O11
MW: 448
ExactMass: 448.10056146
Comments: "license=License CC-BY-NC-SA 4.0 International" "author=Plant Biology, The Noble Foundation, Ardmore, OK, US/Dennis Fine, Daniel Wherritt, and Lloyd Sumner" "instrument type=LC-ESI-TOF" "instrument=impact HD" "ionization=ESI" "ionization mode=negative" "collision gas=Nitrogen" "collision energy=10" "peak width=0.014" "date=2014-08-28 04:06:45+02:00" "column=Waters Acquity BEH C18 1.7um x 2.1 x 150 mm" "retention time=324.6" "raw data file=C:\Data\Confirmed standards 27_Aug_2014\Luteolin 7-O-glucoside v386_1-B,2_01_713.d" "cas number=26811-41-6" "SMILES=c1cc(c(cc1c2cc(=O)c3c(cc(cc3o2)O[C@H]4[C@@H]([C@H]([C@@H]([C@H](O4)CO)O)O)O)O)O)O" "InChI=InChI=1S/C21H20O11/c22-7-16-18(27)19(28)20(29)21(32-16)30-9-4-12(25)17-13(26)6-14(31-15(17)5-9)8-1-2-10(23)11(24)3-8/h1-6,16,18-25,27-29H,7H2/t16-,18-,19+,20-,21-/m1/s1" "InChIKey=PEFNSGRTCBGNAN-QNDFHXLGSA-N" "molecular formula=C21H20O11" "total exact mass=448.10056146" "SMILES=C1=CC(=C(C=C1C2=CC(=O)C3=C(C=C(C=C3O2)OC4C(C(C(C(O4)CO)O)O)O)O)O)O"
Num Peaks: 21
 283 16.416416; 
 284 2.802803; 
 325 1.801802; 
 419 3.203203; 
 445 11.011011; 
 446 4.304304; 
 447 100.000000; 
 448 25.125125; 
 449 5.305305; 
 463 3.003003; 
 513 3.003003; 
 514 1.601602; 
 515 1.601602; 
 556 4.504505; 
 565 2.002002; 
 893 14.614615; 
 894 7.007007; 
 895 24.924925; 
 896 11.511512; 
 897 3.703704; 
 915 2.702703; 


Name: Oroxylin A
SYNON: $:00in-source
DB#: MetaboBASE0962
InChIKey: LKOJGSWUMISDOF-UHFFFAOYSA-N
Precursor_type: [M-H]-
Spectrum_type: MS2
PrecursorMZ: 283.0597
Instrument_type: LC-ESI-TOF
Instrument: impact HD
Ion_mode: N
Collision_energy: 20
InChIKey: LKOJGSWUMISDOF-UHFFFAOYSA-N
Formula: C16H12O5
MW: 284
ExactMass: 284.068473484
Comments: "license=License CC-BY-NC-SA 4.0 International" "author=Plant Biology, The Noble Foundation, Ardmore, OK, US/Dennis Fine, Daniel Wherritt, and Lloyd Sumner" "instrument type=LC-ESI-TOF" "instrument=impact HD" "ionization=ESI" "ionization mode=negative" "ms level=MS2" "precursor m/z=283.0597" "isolation width=5" "collision gas=Nitrogen" "collision energy=20" "peak width=0.012" "date=2014-08-28 19:29:26+02:00" "column=Waters Acquity BEH C18 1.7um x 2.1 x 150 mm" "retention time=807.6" "raw data file=C:\Data\Confirmed standards 27_Aug_2014\Oroxylin A vial 315 MSMS_1-A,5_01_717.d" "precursor type=[M-H]-" "mass accuracy=5.290346877247159" "mass error=-0.0014974839999695178" "cas number=480-11-5" "SMILES=COc1c(cc2c(c1O)c(=O)cc(o2)c3ccccc3)O" "InChI=InChI=1S/C16H12O5/c1-20-16-11(18)8-13-14(15(16)19)10(17)7-12(21-13)9-5-3-2-4-6-9/h2-8,18-19H,1H3" "InChIKey=LKOJGSWUMISDOF-UHFFFAOYSA-N" "molecular formula=C16H12O5" "total exact mass=284.068473484" "SMILES=COC1=C(C2=C(C=C1O)OC(=CC2=O)C3=CC=CC=C3)O"
Num Peaks: 5
 239 4.004004; 
 267 9.609610; 
 268 100.000000; 
 269 12.412412; 
 283 4.904905; 


Name: Oroxylin A
SYNON: $:00in-source
DB#: MetaboBASE0963
InChIKey: LKOJGSWUMISDOF-UHFFFAOYSA-N
Instrument_type: LC-ESI-TOF
Instrument: impact HD
Ion_mode: N
InChIKey: LKOJGSWUMISDOF-UHFFFAOYSA-N
Formula: C16H12O5
MW: 284
ExactMass: 284.068473484
Comments: "license=License CC-BY-NC-SA 4.0 International" "author=Plant Biology, The Noble Foundation, Ardmore, OK, US/Dennis Fine, Daniel Wherritt, and Lloyd Sumner" "instrument type=LC-ESI-TOF" "instrument=impact HD" "ionization=ESI" "ionization mode=negative" "collision gas=Nitrogen" "peak width=0.013" "date=2014-08-28 19:29:26+02:00" "column=Waters Acquity BEH C18 1.7um x 2.1 x 150 mm" "retention time=807.6" "raw data file=C:\Data\Confirmed standards 27_Aug_2014\Oroxylin A vial 315 MSMS_1-A,5_01_717.d" "cas number=480-11-5" "SMILES=COc1c(cc2c(c1O)c(=O)cc(o2)c3ccccc3)O" "InChI=InChI=1S/C16H12O5/c1-20-16-11(18)8-13-14(15(16)19)10(17)7-12(21-13)9-5-3-2-4-6-9/h2-8,18-19H,1H3" "InChIKey=LKOJGSWUMISDOF-UHFFFAOYSA-N" "molecular formula=C16H12O5" "total exact mass=284.068473484" "SMILES=COC1=C(C2=C(C=C1O)OC(=CC2=O)C3=CC=CC=C3)O"
Num Peaks: 9
 267 12.812813; 
 268 20.820821; 
 269 3.103103; 
 282 10.010010; 
 283 100.000000; 
 284 15.615616; 
 589 5.905906; 
 1186 3.203203; 
 1187 2.302302; 


Name: Oroxylin A
SYNON: $:00in-source
DB#: MetaboBASE0964
InChIKey: LKOJGSWUMISDOF-UHFFFAOYSA-N
Precursor_type: [M-H]-
Spectrum_type: MS2
PrecursorMZ: 283.1
Instrument_type: LC-ESI-TOF
Instrument: impact HD
Ion_mode: N
Collision_energy: 30
InChIKey: LKOJGSWUMISDOF-UHFFFAOYSA-N
Formula: C16H12O5
MW: 284
ExactMass: 284.068473484
Comments: "license=License CC-BY-NC-SA 4.0 International" "author=Plant Biology, The Noble Foundation, Ardmore, OK, US/Dennis Fine, Daniel Wherritt, and Lloyd Sumner" "instrument type=LC-ESI-TOF" "instrument=impact HD" "ionization=ESI" "ionization mode=negative" "ms level=MS2" "precursor m/z=283.1" "isolation width=5" "collision gas=Nitrogen" "collision energy=30" "peak width=0.019" "date=2014-08-28 19:29:26+02:00" "column=Waters Acquity BEH C18 1.7um x 2.1 x 150 mm" "retention time=807.6" "raw data file=C:\Data\Confirmed standards 27_Aug_2014\Oroxylin A vial 315 MSMS_1-A,5_01_717.d" "precursor type=[M-H]-" "mass accuracy=137.06293182632453" "mass error=0.03880251600003248" "cas number=480-11-5" "SMILES=COc1c(cc2c(c1O)c(=O)cc(o2)c3ccccc3)O" "InChI=InChI=1S/C16H12O5/c1-20-16-11(18)8-13-14(15(16)19)10(17)7-12(21-13)9-5-3-2-4-6-9/h2-8,18-19H,1H3" "InChIKey=LKOJGSWUMISDOF-UHFFFAOYSA-N" "molecular formula=C16H12O5" "total exact mass=284.068473484" "SMILES=COC1=C(C2=C(C=C1O)OC(=CC2=O)C3=CC=CC=C3)O"
Num Peaks: 14
 110 3.903904; 
 136 2.402402; 
 137 2.102102; 
 163 3.103103; 
 165 12.712713; 
 184 4.804805; 
 211 3.403403; 
 223 4.904905; 
 224 2.102102; 
 239 23.823824; 
 240 7.907908; 
 267 13.413413; 
 268 100.000000; 
 269 13.413413; 


Name: Oroxylin A
SYNON: $:00in-source
DB#: MetaboBASE0965
InChIKey: LKOJGSWUMISDOF-UHFFFAOYSA-N
Precursor_type: [M-H]-
Spectrum_type: MS2
PrecursorMZ: 283.1
Instrument_type: LC-ESI-TOF
Instrument: impact HD
Ion_mode: N
Collision_energy: 40
InChIKey: LKOJGSWUMISDOF-UHFFFAOYSA-N
Formula: C16H12O5
MW: 284
ExactMass: 284.068473484
Comments: "license=License CC-BY-NC-SA 4.0 International" "author=Plant Biology, The Noble Foundation, Ardmore, OK, US/Dennis Fine, Daniel Wherritt, and Lloyd Sumner" "instrument type=LC-ESI-TOF" "instrument=impact HD" "ionization=ESI" "ionization mode=negative" "ms level=MS2" "precursor m/z=283.1" "isolation width=5" "collision gas=Nitrogen" "collision energy=40" "peak width=0.02" "date=2014-08-28 19:29:26+02:00" "column=Waters Acquity BEH C18 1.7um x 2.1 x 150 mm" "retention time=807.6" "raw data file=C:\Data\Confirmed standards 27_Aug_2014\Oroxylin A vial 315 MSMS_1-A,5_01_717.d" "precursor type=[M-H]-" "mass accuracy=137.06293182632453" "mass error=0.03880251600003248" "cas number=480-11-5" "SMILES=COc1c(cc2c(c1O)c(=O)cc(o2)c3ccccc3)O" "InChI=InChI=1S/C16H12O5/c1-20-16-11(18)8-13-14(15(16)19)10(17)7-12(21-13)9-5-3-2-4-6-9/h2-8,18-19H,1H3" "InChIKey=LKOJGSWUMISDOF-UHFFFAOYSA-N" "molecular formula=C16H12O5" "total exact mass=284.068473484" "SMILES=COC1=C(C2=C(C=C1O)OC(=CC2=O)C3=CC=CC=C3)O"
Num Peaks: 28
 110 89.389389; 
 111 4.304304; 
 115 7.107107; 
 135 8.008008; 
 136 37.337337; 
 137 21.621622; 
 139 37.237237; 
 140 3.303303; 
 143 8.408408; 
 156 4.904905; 
 163 26.226226; 
 165 81.481481; 
 167 15.015015; 
 171 6.906907; 
 183 8.808809; 
 184 21.121121; 
 190 4.504505; 
 195 15.615616; 
 196 3.803804; 
 211 31.731732; 
 212 6.606607; 
 223 25.725726; 
 224 7.107107; 
 239 100.000000; 
 240 22.922923; 
 267 42.842843; 
 268 66.666667; 
 269 10.010010; 


Name: Oroxylin A
SYNON: $:00in-source
DB#: MetaboBASE0966
InChIKey: LKOJGSWUMISDOF-UHFFFAOYSA-N
Precursor_type: [M-H]-
Spectrum_type: MS2
PrecursorMZ: 283.1
Instrument_type: LC-ESI-TOF
Instrument: impact HD
Ion_mode: N
Collision_energy: 50
InChIKey: LKOJGSWUMISDOF-UHFFFAOYSA-N
Formula: C16H12O5
MW: 284
ExactMass: 284.068473484
Comments: "license=License CC-BY-NC-SA 4.0 International" "author=Plant Biology, The Noble Foundation, Ardmore, OK, US/Dennis Fine, Daniel Wherritt, and Lloyd Sumner" "instrument type=LC-ESI-TOF" "instrument=impact HD" "ionization=ESI" "ionization mode=negative" "ms level=MS2" "precursor m/z=283.1" "isolation width=5" "collision gas=Nitrogen" "collision energy=50" "peak width=0.021" "date=2014-08-28 19:29:26+02:00" "column=Waters Acquity BEH C18 1.7um x 2.1 x 150 mm" "retention time=807.6" "raw data file=C:\Data\Confirmed standards 27_Aug_2014\Oroxylin A vial 315 MSMS_1-A,5_01_717.d" "precursor type=[M-H]-" "mass accuracy=137.06293182632453" "mass error=0.03880251600003248" "cas number=480-11-5" "SMILES=COc1c(cc2c(c1O)c(=O)cc(o2)c3ccccc3)O" "InChI=InChI=1S/C16H12O5/c1-20-16-11(18)8-13-14(15(16)19)10(17)7-12(21-13)9-5-3-2-4-6-9/h2-8,18-19H,1H3" "InChIKey=LKOJGSWUMISDOF-UHFFFAOYSA-N" "molecular formula=C16H12O5" "total exact mass=284.068473484" "SMILES=COC1=C(C2=C(C=C1O)OC(=CC2=O)C3=CC=CC=C3)O"
Num Peaks: 32
 110 100.000000; 
 111 4.604605; 
 115 14.214214; 
 117 2.102102; 
 119 3.403403; 
 120 2.902903; 
 127 5.505506; 
 135 10.110110; 
 136 38.538539; 
 137 12.912913; 
 139 59.459459; 
 140 6.706707; 
 141 5.205205; 
 143 12.112112; 
 145 2.402402; 
 155 4.204204; 
 163 15.515516; 
 165 25.825826; 
 167 24.424424; 
 168 2.502503; 
 171 8.108108; 
 183 12.412412; 
 184 4.304304; 
 195 17.817818; 
 211 25.525526; 
 212 3.203203; 
 223 10.810811; 
 224 2.102102; 
 239 49.049049; 
 240 5.805806; 
 267 10.610611; 
 268 4.904905; 


Name: Oroxylin A
SYNON: $:00in-source
DB#: MetaboBASE0967
InChIKey: LKOJGSWUMISDOF-UHFFFAOYSA-N
Precursor_type: [M-H]-
Spectrum_type: MS2
PrecursorMZ: 283.0604
Instrument_type: LC-ESI-TOF
Instrument: impact HD
Ion_mode: N
Collision_energy: 10
InChIKey: LKOJGSWUMISDOF-UHFFFAOYSA-N
Formula: C16H12O5
MW: 284
ExactMass: 284.068473484
Comments: "license=License CC-BY-NC-SA 4.0 International" "author=Plant Biology, The Noble Foundation, Ardmore, OK, US/Dennis Fine, Daniel Wherritt, and Lloyd Sumner" "instrument type=LC-ESI-TOF" "instrument=impact HD" "ionization=ESI" "ionization mode=negative" "ms level=MS2" "precursor m/z=283.0604" "isolation width=5" "collision gas=Nitrogen" "collision energy=10" "peak width=0.012" "date=2014-08-28 19:29:26+02:00" "column=Waters Acquity BEH C18 1.7um x 2.1 x 150 mm" "retention time=807.6" "raw data file=C:\Data\Confirmed standards 27_Aug_2014\Oroxylin A vial 315 MSMS_1-A,5_01_717.d" "precursor type=[M-H]-" "mass accuracy=2.8173633612285642" "mass error=-7.974839999747019E-4" "cas number=480-11-5" "SMILES=COc1c(cc2c(c1O)c(=O)cc(o2)c3ccccc3)O" "InChI=InChI=1S/C16H12O5/c1-20-16-11(18)8-13-14(15(16)19)10(17)7-12(21-13)9-5-3-2-4-6-9/h2-8,18-19H,1H3" "InChIKey=LKOJGSWUMISDOF-UHFFFAOYSA-N" "molecular formula=C16H12O5" "total exact mass=284.068473484" "SMILES=COC1=C(C2=C(C=C1O)OC(=CC2=O)C3=CC=CC=C3)O"
Num Peaks: 6
 267 12.212212; 
 268 49.949950; 
 269 5.805806; 
 282 2.602603; 
 283 100.000000; 
 284 14.314314; 


Name: 3-Hydroxy-4-methoxycinnamic acid
Synon: isoferulic acid
SYNON: $:00in-source
DB#: MetaboBASE0968
InChIKey: QURCVMIEKCOAJU-HWKANZROSA-N
Precursor_type: [M-H]-
Spectrum_type: MS2
PrecursorMZ: 193
Instrument_type: LC-ESI-TOF
Instrument: impact HD
Ion_mode: N
Collision_energy: 40
InChIKey: QURCVMIEKCOAJU-HWKANZROSA-N
Formula: C10H10O4
MW: 194
ExactMass: 194.0579088
Comments: "license=License CC-BY-NC-SA 4.0 International" "author=Plant Biology, The Noble Foundation, Ardmore, OK, US/Dennis Fine, Daniel Wherritt, and Lloyd Sumner" "instrument type=LC-ESI-TOF" "instrument=impact HD" "ionization=ESI" "ionization mode=negative" "ms level=MS2" "precursor m/z=193" "isolation width=5" "collision gas=Nitrogen" "collision energy=40" "peak width=0.021" "date=2014-08-28 18:48:36+02:00" "column=Waters Acquity BEH C18 1.7um x 2.1 x 150 mm" "retention time=293.4" "raw data file=C:\Data\Confirmed standards 27_Aug_2014\Isoferulic acid vial 312 MSMS_1-A,4_01_716.d" "precursor type=[M-H]-" "mass accuracy=262.34611398972373" "mass error=-0.05063280000001669" "cas number=537-73-5" "SMILES=COc1ccc(cc1O)/C=C/C(=O)O" "InChI=InChI=1S/C10H10O4/c1-14-9-4-2-7(6-8(9)11)3-5-10(12)13/h2-6,11H,1H3,(H,12,13)/b5-3+" "InChIKey=QURCVMIEKCOAJU-HWKANZROSA-N" "molecular formula=C10H10O4" "total exact mass=194.0579088" "SMILES=COC1=C(C=C(C=C1)C=CC(=O)O)O"
Num Peaks: 3
 132 21.221221; 
 133 100.000000; 
 134 15.415415; 


Name: 3-Hydroxy-4-methoxycinnamic acid
Synon: isoferulic acid
SYNON: $:00in-source
DB#: MetaboBASE0969
InChIKey: QURCVMIEKCOAJU-HWKANZROSA-N
Precursor_type: [M-H]-
Spectrum_type: MS2
PrecursorMZ: 193.0509
Instrument_type: LC-ESI-TOF
Instrument: impact HD
Ion_mode: N
Collision_energy: 10
InChIKey: QURCVMIEKCOAJU-HWKANZROSA-N
Formula: C10H10O4
MW: 194
ExactMass: 194.0579088
Comments: "license=License CC-BY-NC-SA 4.0 International" "author=Plant Biology, The Noble Foundation, Ardmore, OK, US/Dennis Fine, Daniel Wherritt, and Lloyd Sumner" "instrument type=LC-ESI-TOF" "instrument=impact HD" "ionization=ESI" "ionization mode=negative" "ms level=MS2" "precursor m/z=193.0509" "isolation width=5" "collision gas=Nitrogen" "collision energy=10" "peak width=0.016" "date=2014-08-28 18:48:36+02:00" "column=Waters Acquity BEH C18 1.7um x 2.1 x 150 mm" "retention time=293.4" "raw data file=C:\Data\Confirmed standards 27_Aug_2014\Isoferulic acid vial 312 MSMS_1-A,4_01_716.d" "precursor type=[M-H]-" "mass accuracy=1.3840909314389997" "mass error=2.671999999961372E-4" "cas number=537-73-5" "SMILES=COc1ccc(cc1O)/C=C/C(=O)O" "InChI=InChI=1S/C10H10O4/c1-14-9-4-2-7(6-8(9)11)3-5-10(12)13/h2-6,11H,1H3,(H,12,13)/b5-3+" "InChIKey=QURCVMIEKCOAJU-HWKANZROSA-N" "molecular formula=C10H10O4" "total exact mass=194.0579088" "SMILES=COC1=C(C=C(C=C1)C=CC(=O)O)O"
Num Peaks: 8
 134 40.340340; 
 135 2.802803; 
 137 5.705706; 
 149 2.902903; 
 178 100.000000; 
 179 7.207207; 
 193 42.242242; 
 194 3.203203; 


Name: 3-Hydroxy-4-methoxycinnamic acid
Synon: isoferulic acid
SYNON: $:00in-source
DB#: MetaboBASE0970
InChIKey: QURCVMIEKCOAJU-HWKANZROSA-N
Precursor_type: [M-H]-
Spectrum_type: MS2
PrecursorMZ: 193
Instrument_type: LC-ESI-TOF
Instrument: impact HD
Ion_mode: N
Collision_energy: 30
InChIKey: QURCVMIEKCOAJU-HWKANZROSA-N
Formula: C10H10O4
MW: 194
ExactMass: 194.0579088
Comments: "license=License CC-BY-NC-SA 4.0 International" "author=Plant Biology, The Noble Foundation, Ardmore, OK, US/Dennis Fine, Daniel Wherritt, and Lloyd Sumner" "instrument type=LC-ESI-TOF" "instrument=impact HD" "ionization=ESI" "ionization mode=negative" "ms level=MS2" "precursor m/z=193" "isolation width=5" "collision gas=Nitrogen" "collision energy=30" "peak width=0.021" "date=2014-08-28 18:48:36+02:00" "column=Waters Acquity BEH C18 1.7um x 2.1 x 150 mm" "retention time=293.4" "raw data file=C:\Data\Confirmed standards 27_Aug_2014\Isoferulic acid vial 312 MSMS_1-A,4_01_716.d" "precursor type=[M-H]-" "mass accuracy=262.34611398972373" "mass error=-0.05063280000001669" "cas number=537-73-5" "SMILES=COc1ccc(cc1O)/C=C/C(=O)O" "InChI=InChI=1S/C10H10O4/c1-14-9-4-2-7(6-8(9)11)3-5-10(12)13/h2-6,11H,1H3,(H,12,13)/b5-3+" "InChIKey=QURCVMIEKCOAJU-HWKANZROSA-N" "molecular formula=C10H10O4" "total exact mass=194.0579088" "SMILES=COC1=C(C=C(C=C1)C=CC(=O)O)O"
Num Peaks: 6
 106 2.102102; 
 132 5.205205; 
 133 100.000000; 
 134 63.863864; 
 135 5.305305; 
 178 2.102102; 


Name: 3-Hydroxy-4-methoxycinnamic acid
Synon: isoferulic acid
SYNON: $:00in-source
DB#: MetaboBASE0971
InChIKey: QURCVMIEKCOAJU-HWKANZROSA-N
Precursor_type: [M-H]-
Spectrum_type: MS2
PrecursorMZ: 193
Instrument_type: LC-ESI-TOF
Instrument: impact HD
Ion_mode: N
Collision_energy: 50
InChIKey: QURCVMIEKCOAJU-HWKANZROSA-N
Formula: C10H10O4
MW: 194
ExactMass: 194.0579088
Comments: "license=License CC-BY-NC-SA 4.0 International" "author=Plant Biology, The Noble Foundation, Ardmore, OK, US/Dennis Fine, Daniel Wherritt, and Lloyd Sumner" "instrument type=LC-ESI-TOF" "instrument=impact HD" "ionization=ESI" "ionization mode=negative" "ms level=MS2" "precursor m/z=193" "isolation width=5" "collision gas=Nitrogen" "collision energy=50" "peak width=0.023" "date=2014-08-28 18:48:36+02:00" "column=Waters Acquity BEH C18 1.7um x 2.1 x 150 mm" "retention time=293.4" "raw data file=C:\Data\Confirmed standards 27_Aug_2014\Isoferulic acid vial 312 MSMS_1-A,4_01_716.d" "precursor type=[M-H]-" "mass accuracy=262.34611398972373" "mass error=-0.05063280000001669" "cas number=537-73-5" "SMILES=COc1ccc(cc1O)/C=C/C(=O)O" "InChI=InChI=1S/C10H10O4/c1-14-9-4-2-7(6-8(9)11)3-5-10(12)13/h2-6,11H,1H3,(H,12,13)/b5-3+" "InChIKey=QURCVMIEKCOAJU-HWKANZROSA-N" "molecular formula=C10H10O4" "total exact mass=194.0579088" "SMILES=COC1=C(C=C(C=C1)C=CC(=O)O)O"
Num Peaks: 5
 105 6.606607; 
 115 11.011011; 
 132 62.762763; 
 133 100.000000; 
 134 6.806807; 


Name: 3-Hydroxy-4-methoxycinnamic acid
Synon: isoferulic acid
SYNON: $:00in-source
DB#: MetaboBASE0972
InChIKey: QURCVMIEKCOAJU-HWKANZROSA-N
Instrument_type: LC-ESI-TOF
Instrument: impact HD
Ion_mode: N
InChIKey: QURCVMIEKCOAJU-HWKANZROSA-N
Formula: C10H10O4
MW: 194
ExactMass: 194.0579088
Comments: "license=License CC-BY-NC-SA 4.0 International" "author=Plant Biology, The Noble Foundation, Ardmore, OK, US/Dennis Fine, Daniel Wherritt, and Lloyd Sumner" "instrument type=LC-ESI-TOF" "instrument=impact HD" "ionization=ESI" "ionization mode=negative" "collision gas=Nitrogen" "peak width=0.017" "date=2014-08-28 18:48:36+02:00" "column=Waters Acquity BEH C18 1.7um x 2.1 x 150 mm" "retention time=293.4" "raw data file=C:\Data\Confirmed standards 27_Aug_2014\Isoferulic acid vial 312 MSMS_1-A,4_01_716.d" "cas number=537-73-5" "SMILES=COc1ccc(cc1O)/C=C/C(=O)O" "InChI=InChI=1S/C10H10O4/c1-14-9-4-2-7(6-8(9)11)3-5-10(12)13/h2-6,11H,1H3,(H,12,13)/b5-3+" "InChIKey=QURCVMIEKCOAJU-HWKANZROSA-N" "molecular formula=C10H10O4" "total exact mass=194.0579088" "SMILES=COC1=C(C=C(C=C1)C=CC(=O)O)O"
Num Peaks: 16
 121 2.002002; 
 133 2.002002; 
 134 57.457457; 
 135 4.804805; 
 137 7.207207; 
 178 100.000000; 
 179 8.808809; 
 193 98.198198; 
 194 9.309309; 
 292 2.002002; 
 385 62.562563; 
 386 12.412412; 
 387 2.502503; 
 407 8.108108; 
 409 28.128128; 
 410 6.106106; 


Name: 3-Hydroxy-4-methoxycinnamic acid
Synon: isoferulic acid
SYNON: $:00in-source
DB#: MetaboBASE0973
InChIKey: QURCVMIEKCOAJU-HWKANZROSA-N
Precursor_type: [M-H]-
Spectrum_type: MS2
PrecursorMZ: 193
Instrument_type: LC-ESI-TOF
Instrument: impact HD
Ion_mode: N
Collision_energy: 20
InChIKey: QURCVMIEKCOAJU-HWKANZROSA-N
Formula: C10H10O4
MW: 194
ExactMass: 194.0579088
Comments: "license=License CC-BY-NC-SA 4.0 International" "author=Plant Biology, The Noble Foundation, Ardmore, OK, US/Dennis Fine, Daniel Wherritt, and Lloyd Sumner" "instrument type=LC-ESI-TOF" "instrument=impact HD" "ionization=ESI" "ionization mode=negative" "ms level=MS2" "precursor m/z=193" "isolation width=5" "collision gas=Nitrogen" "collision energy=20" "peak width=0.019" "date=2014-08-28 18:48:36+02:00" "column=Waters Acquity BEH C18 1.7um x 2.1 x 150 mm" "retention time=293.4" "raw data file=C:\Data\Confirmed standards 27_Aug_2014\Isoferulic acid vial 312 MSMS_1-A,4_01_716.d" "precursor type=[M-H]-" "mass accuracy=262.34611398972373" "mass error=-0.05063280000001669" "cas number=537-73-5" "SMILES=COc1ccc(cc1O)/C=C/C(=O)O" "InChI=InChI=1S/C10H10O4/c1-14-9-4-2-7(6-8(9)11)3-5-10(12)13/h2-6,11H,1H3,(H,12,13)/b5-3+" "InChIKey=QURCVMIEKCOAJU-HWKANZROSA-N" "molecular formula=C10H10O4" "total exact mass=194.0579088" "SMILES=COC1=C(C=C(C=C1)C=CC(=O)O)O"
Num Peaks: 7
 121 2.602603; 
 133 19.019019; 
 134 100.000000; 
 135 5.905906; 
 137 12.412412; 
 139 2.702703; 
 178 22.822823; 


Name: y-Linolenic acid
SYNON: $:00in-source
DB#: MetaboBASE0974
InChIKey: VZCCETWTMQHEPK-QNEBEIHSSA-N
Precursor_type: [M-H]-
Spectrum_type: MS2
PrecursorMZ: 277.218
Instrument_type: LC-ESI-TOF
Instrument: impact HD
Ion_mode: N
Collision_energy: 20
InChIKey: VZCCETWTMQHEPK-QNEBEIHSSA-N
Formula: C18H30O2
MW: 278
ExactMass: 278.2245802
Comments: "license=License CC-BY-NC-SA 4.0 International" "author=Plant Biology, The Noble Foundation, Ardmore, OK, US/Dennis Fine, Daniel Wherritt, and Lloyd Sumner" "instrument type=LC-ESI-TOF" "instrument=impact HD" "ionization=ESI" "ionization mode=negative" "ms level=MS2" "precursor m/z=277.218" "isolation width=5" "collision gas=Nitrogen" "collision energy=20" "peak width=0.016" "date=2014-10-08 12:20:09+02:00" "column=Waters Acquity BEH C18 1.7um x 2.1 x 150 mm" "retention time=1693.2" "raw data file=C:\Data\Confirmed standards 6_Oct_2014\y-Linolenic acid vial 389 MSMS_1-C,3_01_968.d" "precursor type=[M-H]-" "mass accuracy=2.5099380271727973" "mass error=6.958000000167885E-4" "cas number=506-26-3" "SMILES=CCCCC/C=C\C/C=C\C/C=C\CCCCC(=O)O" "InChI=InChI=1S/C18H30O2/c1-2-3-4-5-6-7-8-9-10-11-12-13-14-15-16-17-18(19)20/h6-7,9-10,12-13H,2-5,8,11,14-17H2,1H3,(H,19,20)/b7-6-,10-9-,13-12-" "InChIKey=VZCCETWTMQHEPK-QNEBEIHSSA-N" "molecular formula=C18H30O2" "total exact mass=278.2245802" "SMILES=CCCCCC=CCC=CCC=CCCCCC(=O)O"
Num Peaks: 3
 259 2.502503; 
 277 100.000000; 
 278 16.016016; 


Name: y-Linolenic acid
SYNON: $:00in-source
DB#: MetaboBASE0975
InChIKey: VZCCETWTMQHEPK-QNEBEIHSSA-N
Precursor_type: [M-H]-
Spectrum_type: MS2
PrecursorMZ: 277.2188
Instrument_type: LC-ESI-TOF
Instrument: impact HD
Ion_mode: N
Collision_energy: 30
InChIKey: VZCCETWTMQHEPK-QNEBEIHSSA-N
Formula: C18H30O2
MW: 278
ExactMass: 278.2245802
Comments: "license=License CC-BY-NC-SA 4.0 International" "author=Plant Biology, The Noble Foundation, Ardmore, OK, US/Dennis Fine, Daniel Wherritt, and Lloyd Sumner" "instrument type=LC-ESI-TOF" "instrument=impact HD" "ionization=ESI" "ionization mode=negative" "ms level=MS2" "precursor m/z=277.2188" "isolation width=5" "collision gas=Nitrogen" "collision energy=30" "peak width=0.023" "date=2014-10-08 12:20:09+02:00" "column=Waters Acquity BEH C18 1.7um x 2.1 x 150 mm" "retention time=1693.2" "raw data file=C:\Data\Confirmed standards 6_Oct_2014\y-Linolenic acid vial 389 MSMS_1-C,3_01_968.d" "precursor type=[M-H]-" "mass accuracy=5.3957379513456605" "mass error=0.0014957999999865024" "cas number=506-26-3" "SMILES=CCCCC/C=C\C/C=C\C/C=C\CCCCC(=O)O" "InChI=InChI=1S/C18H30O2/c1-2-3-4-5-6-7-8-9-10-11-12-13-14-15-16-17-18(19)20/h6-7,9-10,12-13H,2-5,8,11,14-17H2,1H3,(H,19,20)/b7-6-,10-9-,13-12-" "InChIKey=VZCCETWTMQHEPK-QNEBEIHSSA-N" "molecular formula=C18H30O2" "total exact mass=278.2245802" "SMILES=CCCCCC=CCC=CCC=CCCCCC(=O)O"
Num Peaks: 3
 259 21.421421; 
 277 100.000000; 
 278 16.916917; 


Name: y-Linolenic acid
SYNON: $:00in-source
DB#: MetaboBASE0976
InChIKey: VZCCETWTMQHEPK-QNEBEIHSSA-N
Precursor_type: [M-H]-
Spectrum_type: MS2
PrecursorMZ: 277.218
Instrument_type: LC-ESI-TOF
Instrument: impact HD
Ion_mode: N
Collision_energy: 10
InChIKey: VZCCETWTMQHEPK-QNEBEIHSSA-N
Formula: C18H30O2
MW: 278
ExactMass: 278.2245802
Comments: "license=License CC-BY-NC-SA 4.0 International" "author=Plant Biology, The Noble Foundation, Ardmore, OK, US/Dennis Fine, Daniel Wherritt, and Lloyd Sumner" "instrument type=LC-ESI-TOF" "instrument=impact HD" "ionization=ESI" "ionization mode=negative" "ms level=MS2" "precursor m/z=277.218" "isolation width=5" "collision gas=Nitrogen" "collision energy=10" "peak width=0.016" "date=2014-10-08 12:20:09+02:00" "column=Waters Acquity BEH C18 1.7um x 2.1 x 150 mm" "retention time=1693.2" "raw data file=C:\Data\Confirmed standards 6_Oct_2014\y-Linolenic acid vial 389 MSMS_1-C,3_01_968.d" "precursor type=[M-H]-" "mass accuracy=2.5099380271727973" "mass error=6.958000000167885E-4" "cas number=506-26-3" "SMILES=CCCCC/C=C\C/C=C\C/C=C\CCCCC(=O)O" "InChI=InChI=1S/C18H30O2/c1-2-3-4-5-6-7-8-9-10-11-12-13-14-15-16-17-18(19)20/h6-7,9-10,12-13H,2-5,8,11,14-17H2,1H3,(H,19,20)/b7-6-,10-9-,13-12-" "InChIKey=VZCCETWTMQHEPK-QNEBEIHSSA-N" "molecular formula=C18H30O2" "total exact mass=278.2245802" "SMILES=CCCCCC=CCC=CCC=CCCCCC(=O)O"
Num Peaks: 2
 277 100.000000; 
 278 14.714715; 


Name: y-Linolenic acid
SYNON: $:00in-source
DB#: MetaboBASE0977
InChIKey: VZCCETWTMQHEPK-QNEBEIHSSA-N
Instrument_type: LC-ESI-TOF
Instrument: impact HD
Ion_mode: N
Collision_energy: 10
InChIKey: VZCCETWTMQHEPK-QNEBEIHSSA-N
Formula: C18H30O2
MW: 278
ExactMass: 278.2245802
Comments: "license=License CC-BY-NC-SA 4.0 International" "author=Plant Biology, The Noble Foundation, Ardmore, OK, US/Dennis Fine, Daniel Wherritt, and Lloyd Sumner" "instrument type=LC-ESI-TOF" "instrument=impact HD" "ionization=ESI" "ionization mode=negative" "collision gas=Nitrogen" "collision energy=10" "peak width=0.012" "date=2014-10-07 00:58:22+02:00" "column=Waters Acquity BEH C18 1.7um x 2.1 x 150 mm" "retention time=1693.2" "raw data file=C:\Data\Confirmed standards 6_Oct_2014\y-Linolenic acid vial 389_1-C,3_01_933.d" "cas number=506-26-3" "SMILES=CCCCC/C=C\C/C=C\C/C=C\CCCCC(=O)O" "InChI=InChI=1S/C18H30O2/c1-2-3-4-5-6-7-8-9-10-11-12-13-14-15-16-17-18(19)20/h6-7,9-10,12-13H,2-5,8,11,14-17H2,1H3,(H,19,20)/b7-6-,10-9-,13-12-" "InChIKey=VZCCETWTMQHEPK-QNEBEIHSSA-N" "molecular formula=C18H30O2" "total exact mass=278.2245802" "SMILES=CCCCCC=CCC=CCC=CCCCCC(=O)O"
Num Peaks: 7
 233 0.700701; 
 277 100.000000; 
 278 22.122122; 
 279 2.602603; 
 345 1.301301; 
 377 5.505506; 
 378 1.601602; 


Name: y-Linolenic acid
SYNON: $:00in-source
DB#: MetaboBASE0978
InChIKey: VZCCETWTMQHEPK-QNEBEIHSSA-N
Instrument_type: LC-ESI-TOF
Instrument: impact HD
Ion_mode: N
InChIKey: VZCCETWTMQHEPK-QNEBEIHSSA-N
Formula: C18H30O2
MW: 278
ExactMass: 278.2245802
Comments: "license=License CC-BY-NC-SA 4.0 International" "author=Plant Biology, The Noble Foundation, Ardmore, OK, US/Dennis Fine, Daniel Wherritt, and Lloyd Sumner" "instrument type=LC-ESI-TOF" "instrument=impact HD" "ionization=ESI" "ionization mode=negative" "collision gas=Nitrogen" "peak width=0.016" "date=2014-10-08 12:20:09+02:00" "column=Waters Acquity BEH C18 1.7um x 2.1 x 150 mm" "retention time=1693.2" "raw data file=C:\Data\Confirmed standards 6_Oct_2014\y-Linolenic acid vial 389 MSMS_1-C,3_01_968.d" "cas number=506-26-3" "SMILES=CCCCC/C=C\C/C=C\C/C=C\CCCCC(=O)O" "InChI=InChI=1S/C18H30O2/c1-2-3-4-5-6-7-8-9-10-11-12-13-14-15-16-17-18(19)20/h6-7,9-10,12-13H,2-5,8,11,14-17H2,1H3,(H,19,20)/b7-6-,10-9-,13-12-" "InChIKey=VZCCETWTMQHEPK-QNEBEIHSSA-N" "molecular formula=C18H30O2" "total exact mass=278.2245802" "SMILES=CCCCCC=CCC=CCC=CCCCCC(=O)O"
Num Peaks: 7
 277 100.000000; 
 278 17.317317; 
 345 3.903904; 
 556 2.002002; 
 577 6.006006; 
 578 2.302302; 
 877 2.002002; 


Name: Arachidonic acid
SYNON: $:00in-source
DB#: MetaboBASE0979
InChIKey: YZXBAPSDXZZRGB-DOFZRALJSA-N
Precursor_type: [M-H]-
Spectrum_type: MS2
PrecursorMZ: 303.2334
Instrument_type: LC-ESI-TOF
Instrument: impact HD
Ion_mode: N
Collision_energy: 10
InChIKey: YZXBAPSDXZZRGB-DOFZRALJSA-N
Formula: C20H32O2
MW: 304
ExactMass: 304.240230264
Comments: "license=License CC-BY-NC-SA 4.0 International" "author=Plant Biology, The Noble Foundation, Ardmore, OK, US/Dennis Fine, Daniel Wherritt, and Lloyd Sumner" "instrument type=LC-ESI-TOF" "instrument=impact HD" "ionization=ESI" "ionization mode=negative" "ms level=MS2" "precursor m/z=303.2334" "isolation width=5" "collision gas=Nitrogen" "collision energy=10" "peak width=0.017" "date=2014-10-08 14:22:49+02:00" "column=Waters Acquity BEH C18 1.7um x 2.1 x 150 mm" "retention time=1782.6" "raw data file=C:\Data\Confirmed standards 6_Oct_2014\Arachidonic acid vial 392 MSMS_1-C,6_01_971.d" "precursor type=[M-H]-" "mass accuracy=1.4699436144481606" "mass error=4.457360000174049E-4" "cas number=506-32-1" "SMILES=CCCCC/C=C\C/C=C\C/C=C\C/C=C\CCCC(=O)O" "InChI=InChI=1S/C20H32O2/c1-2-3-4-5-6-7-8-9-10-11-12-13-14-15-16-17-18-19-20(21)22/h6-7,9-10,12-13,15-16H,2-5,8,11,14,17-19H2,1H3,(H,21,22)/b7-6-,10-9-,13-12-,16-15-" "InChIKey=YZXBAPSDXZZRGB-DOFZRALJSA-N" "molecular formula=C20H32O2" "total exact mass=304.240230264" "SMILES=CCCCCC=CCC=CCC=CCC=CCCCC(=O)O"
Num Peaks: 3
 259 3.103103; 
 303 100.000000; 
 304 20.620621; 


Name: Arachidonic acid
SYNON: $:00in-source
DB#: MetaboBASE0980
InChIKey: YZXBAPSDXZZRGB-DOFZRALJSA-N
Precursor_type: [M-H]-
Spectrum_type: MS2
PrecursorMZ: 303.2335
Instrument_type: LC-ESI-TOF
Instrument: impact HD
Ion_mode: N
Collision_energy: 20
InChIKey: YZXBAPSDXZZRGB-DOFZRALJSA-N
Formula: C20H32O2
MW: 304
ExactMass: 304.240230264
Comments: "license=License CC-BY-NC-SA 4.0 International" "author=Plant Biology, The Noble Foundation, Ardmore, OK, US/Dennis Fine, Daniel Wherritt, and Lloyd Sumner" "instrument type=LC-ESI-TOF" "instrument=impact HD" "ionization=ESI" "ionization mode=negative" "ms level=MS2" "precursor m/z=303.2335" "isolation width=5" "collision gas=Nitrogen" "collision energy=20" "peak width=0.017" "date=2014-10-08 14:22:49+02:00" "column=Waters Acquity BEH C18 1.7um x 2.1 x 150 mm" "retention time=1782.6" "raw data file=C:\Data\Confirmed standards 6_Oct_2014\Arachidonic acid vial 392 MSMS_1-C,6_01_971.d" "precursor type=[M-H]-" "mass accuracy=1.79972199638992" "mass error=5.457359999923028E-4" "cas number=506-32-1" "SMILES=CCCCC/C=C\C/C=C\C/C=C\C/C=C\CCCC(=O)O" "InChI=InChI=1S/C20H32O2/c1-2-3-4-5-6-7-8-9-10-11-12-13-14-15-16-17-18-19-20(21)22/h6-7,9-10,12-13,15-16H,2-5,8,11,14,17-19H2,1H3,(H,21,22)/b7-6-,10-9-,13-12-,16-15-" "InChIKey=YZXBAPSDXZZRGB-DOFZRALJSA-N" "molecular formula=C20H32O2" "total exact mass=304.240230264" "SMILES=CCCCCC=CCC=CCC=CCC=CCCCC(=O)O"
Num Peaks: 4
 259 8.108108; 
 260 2.102102; 
 303 100.000000; 
 304 22.122122; 


Name: Arachidonic acid
SYNON: $:00in-source
DB#: MetaboBASE0981
InChIKey: YZXBAPSDXZZRGB-DOFZRALJSA-N
Instrument_type: LC-ESI-TOF
Instrument: impact HD
Ion_mode: N
InChIKey: YZXBAPSDXZZRGB-DOFZRALJSA-N
Formula: C20H32O2
MW: 304
ExactMass: 304.240230264
Comments: "license=License CC-BY-NC-SA 4.0 International" "author=Plant Biology, The Noble Foundation, Ardmore, OK, US/Dennis Fine, Daniel Wherritt, and Lloyd Sumner" "instrument type=LC-ESI-TOF" "instrument=impact HD" "ionization=ESI" "ionization mode=negative" "collision gas=Nitrogen" "peak width=0.017" "date=2014-10-08 14:22:49+02:00" "column=Waters Acquity BEH C18 1.7um x 2.1 x 150 mm" "retention time=1782.6" "raw data file=C:\Data\Confirmed standards 6_Oct_2014\Arachidonic acid vial 392 MSMS_1-C,6_01_971.d" "cas number=506-32-1" "SMILES=CCCCC/C=C\C/C=C\C/C=C\C/C=C\CCCC(=O)O" "InChI=InChI=1S/C20H32O2/c1-2-3-4-5-6-7-8-9-10-11-12-13-14-15-16-17-18-19-20(21)22/h6-7,9-10,12-13,15-16H,2-5,8,11,14,17-19H2,1H3,(H,21,22)/b7-6-,10-9-,13-12-,16-15-" "InChIKey=YZXBAPSDXZZRGB-DOFZRALJSA-N" "molecular formula=C20H32O2" "total exact mass=304.240230264" "SMILES=CCCCCC=CCC=CCC=CCC=CCCCC(=O)O"
Num Peaks: 4
 303 100.000000; 
 304 20.920921; 
 305 2.102102; 
 629 4.304304; 


Name: Arachidonic acid
SYNON: $:00in-source
DB#: MetaboBASE0982
InChIKey: YZXBAPSDXZZRGB-DOFZRALJSA-N
Instrument_type: LC-ESI-TOF
Instrument: impact HD
Ion_mode: N
Collision_energy: 10
InChIKey: YZXBAPSDXZZRGB-DOFZRALJSA-N
Formula: C20H32O2
MW: 304
ExactMass: 304.240230264
Comments: "license=License CC-BY-NC-SA 4.0 International" "author=Plant Biology, The Noble Foundation, Ardmore, OK, US/Dennis Fine, Daniel Wherritt, and Lloyd Sumner" "instrument type=LC-ESI-TOF" "instrument=impact HD" "ionization=ESI" "ionization mode=negative" "collision gas=Nitrogen" "collision energy=10" "peak width=0.011" "date=2014-10-07 03:01:01+02:00" "column=Waters Acquity BEH C18 1.7um x 2.1 x 150 mm" "retention time=1782.6" "raw data file=C:\Data\Confirmed standards 6_Oct_2014\Arachidonic acid vial 392_1-C,6_01_936.d" "cas number=506-32-1" "SMILES=CCCCC/C=C\C/C=C\C/C=C\C/C=C\CCCC(=O)O" "InChI=InChI=1S/C20H32O2/c1-2-3-4-5-6-7-8-9-10-11-12-13-14-15-16-17-18-19-20(21)22/h6-7,9-10,12-13,15-16H,2-5,8,11,14,17-19H2,1H3,(H,21,22)/b7-6-,10-9-,13-12-,16-15-" "InChIKey=YZXBAPSDXZZRGB-DOFZRALJSA-N" "molecular formula=C20H32O2" "total exact mass=304.240230264" "SMILES=CCCCCC=CCC=CCC=CCC=CCCCC(=O)O"
Num Peaks: 11
 259 4.204204; 
 260 0.900901; 
 303 1.101101; 
 303 100.000000; 
 303 1.201201; 
 303 0.600601; 
 304 24.724725; 
 305 3.203203; 
 371 0.700701; 
 403 4.104104; 
 404 1.401401; 


Name: Arachidonic acid
SYNON: $:00in-source
DB#: MetaboBASE0983
InChIKey: YZXBAPSDXZZRGB-DOFZRALJSA-N
Precursor_type: [M-H]-
Spectrum_type: MS2
PrecursorMZ: 303.2326
Instrument_type: LC-ESI-TOF
Instrument: impact HD
Ion_mode: N
Collision_energy: 30
InChIKey: YZXBAPSDXZZRGB-DOFZRALJSA-N
Formula: C20H32O2
MW: 304
ExactMass: 304.240230264
Comments: "license=License CC-BY-NC-SA 4.0 International" "author=Plant Biology, The Noble Foundation, Ardmore, OK, US/Dennis Fine, Daniel Wherritt, and Lloyd Sumner" "instrument type=LC-ESI-TOF" "instrument=impact HD" "ionization=ESI" "ionization mode=negative" "ms level=MS2" "precursor m/z=303.2326" "isolation width=5" "collision gas=Nitrogen" "collision energy=30" "peak width=0.017" "date=2014-10-08 14:22:49+02:00" "column=Waters Acquity BEH C18 1.7um x 2.1 x 150 mm" "retention time=1782.6" "raw data file=C:\Data\Confirmed standards 6_Oct_2014\Arachidonic acid vial 392 MSMS_1-C,6_01_971.d" "precursor type=[M-H]-" "mass accuracy=1.1682912721427459" "mass error=-3.5426400000915237E-4" "cas number=506-32-1" "SMILES=CCCCC/C=C\C/C=C\C/C=C\C/C=C\CCCC(=O)O" "InChI=InChI=1S/C20H32O2/c1-2-3-4-5-6-7-8-9-10-11-12-13-14-15-16-17-18-19-20(21)22/h6-7,9-10,12-13,15-16H,2-5,8,11,14,17-19H2,1H3,(H,21,22)/b7-6-,10-9-,13-12-,16-15-" "InChIKey=YZXBAPSDXZZRGB-DOFZRALJSA-N" "molecular formula=C20H32O2" "total exact mass=304.240230264" "SMILES=CCCCCC=CCC=CCC=CCC=CCCCC(=O)O"
Num Peaks: 7
 177 8.208208; 
 231 33.933934; 
 232 7.807808; 
 259 13.613614; 
 285 6.606607; 
 303 100.000000; 
 304 27.527528; 


Name: Linoelaidic acid
SYNON: $:00in-source
DB#: MetaboBASE0984
InChIKey: OYHQOLUKZRVURQ-AVQMFFATSA-N
Precursor_type: [M-H]-
Spectrum_type: MS2
PrecursorMZ: 279.2333
Instrument_type: LC-ESI-TOF
Instrument: impact HD
Ion_mode: N
Collision_energy: 10
InChIKey: OYHQOLUKZRVURQ-AVQMFFATSA-N
Formula: C18H32O2
MW: 280
ExactMass: 280.240230264
Comments: "license=License CC-BY-NC-SA 4.0 International" "author=Plant Biology, The Noble Foundation, Ardmore, OK, US/Dennis Fine, Daniel Wherritt, and Lloyd Sumner" "instrument type=LC-ESI-TOF" "instrument=impact HD" "ionization=ESI" "ionization mode=negative" "ms level=MS2" "precursor m/z=279.2333" "isolation width=5" "collision gas=Nitrogen" "collision energy=10" "peak width=0.012" "date=2014-10-08 13:01:03+02:00" "column=Waters Acquity BEH C18 1.7um x 2.1 x 150 mm" "retention time=1841.4" "raw data file=C:\Data\Confirmed standards 6_Oct_2014\Linoelaidic acid vial 390 MSMS_1-C,4_01_969.d" "precursor type=[M-H]-" "mass accuracy=1.2381617807964291" "mass error=3.457359999856635E-4" "cas number=506-21-8" "SMILES=CCCCC/C=C/C/C=C/CCCCCCCC(=O)O" "InChI=InChI=1S/C18H32O2/c1-2-3-4-5-6-7-8-9-10-11-12-13-14-15-16-17-18(19)20/h6-7,9-10H,2-5,8,11-17H2,1H3,(H,19,20)/b7-6+,10-9+" "InChIKey=OYHQOLUKZRVURQ-AVQMFFATSA-N" "molecular formula=C18H32O2" "total exact mass=280.240230264" "SMILES=CCCCCC=CCC=CCCCCCCCC(=O)O"
Num Peaks: 2
 279 100.000000; 
 280 14.914915; 


Name: Linoelaidic acid
SYNON: $:00in-source
DB#: MetaboBASE0985
InChIKey: OYHQOLUKZRVURQ-AVQMFFATSA-N
Precursor_type: [M-H]-
Spectrum_type: MS2
PrecursorMZ: 279.2334
Instrument_type: LC-ESI-TOF
Instrument: impact HD
Ion_mode: N
Collision_energy: 20
InChIKey: OYHQOLUKZRVURQ-AVQMFFATSA-N
Formula: C18H32O2
MW: 280
ExactMass: 280.240230264
Comments: "license=License CC-BY-NC-SA 4.0 International" "author=Plant Biology, The Noble Foundation, Ardmore, OK, US/Dennis Fine, Daniel Wherritt, and Lloyd Sumner" "instrument type=LC-ESI-TOF" "instrument=impact HD" "ionization=ESI" "ionization mode=negative" "ms level=MS2" "precursor m/z=279.2334" "isolation width=5" "collision gas=Nitrogen" "collision energy=20" "peak width=0.014" "date=2014-10-08 13:01:03+02:00" "column=Waters Acquity BEH C18 1.7um x 2.1 x 150 mm" "retention time=1841.4" "raw data file=C:\Data\Confirmed standards 6_Oct_2014\Linoelaidic acid vial 390 MSMS_1-C,4_01_969.d" "precursor type=[M-H]-" "mass accuracy=1.5962846852038648" "mass error=4.457360000174049E-4" "cas number=506-21-8" "SMILES=CCCCC/C=C/C/C=C/CCCCCCCC(=O)O" "InChI=InChI=1S/C18H32O2/c1-2-3-4-5-6-7-8-9-10-11-12-13-14-15-16-17-18(19)20/h6-7,9-10H,2-5,8,11-17H2,1H3,(H,19,20)/b7-6+,10-9+" "InChIKey=OYHQOLUKZRVURQ-AVQMFFATSA-N" "molecular formula=C18H32O2" "total exact mass=280.240230264" "SMILES=CCCCCC=CCC=CCCCCCCCC(=O)O"
Num Peaks: 2
 279 100.000000; 
 280 15.915916; 


Name: Linoelaidic acid
SYNON: $:00in-source
DB#: MetaboBASE0986
InChIKey: OYHQOLUKZRVURQ-AVQMFFATSA-N
Instrument_type: LC-ESI-TOF
Instrument: impact HD
Ion_mode: N
Collision_energy: 10
InChIKey: OYHQOLUKZRVURQ-AVQMFFATSA-N
Formula: C18H32O2
MW: 280
ExactMass: 280.240230264
Comments: "license=License CC-BY-NC-SA 4.0 International" "author=Plant Biology, The Noble Foundation, Ardmore, OK, US/Dennis Fine, Daniel Wherritt, and Lloyd Sumner" "instrument type=LC-ESI-TOF" "instrument=impact HD" "ionization=ESI" "ionization mode=negative" "collision gas=Nitrogen" "collision energy=10" "peak width=0.015" "date=2014-10-07 01:39:17+02:00" "column=Waters Acquity BEH C18 1.7um x 2.1 x 150 mm" "retention time=1841.4" "raw data file=C:\Data\Confirmed standards 6_Oct_2014\Linoelaidic acid vial 390_1-C,4_01_934.d" "cas number=506-21-8" "SMILES=CCCCC/C=C/C/C=C/CCCCCCCC(=O)O" "InChI=InChI=1S/C18H32O2/c1-2-3-4-5-6-7-8-9-10-11-12-13-14-15-16-17-18(19)20/h6-7,9-10H,2-5,8,11-17H2,1H3,(H,19,20)/b7-6+,10-9+" "InChIKey=OYHQOLUKZRVURQ-AVQMFFATSA-N" "molecular formula=C18H32O2" "total exact mass=280.240230264" "SMILES=CCCCCC=CCC=CCCCCCCCC(=O)O"
Num Peaks: 13
 128 0.600601; 
 279 100.000000; 
 280 21.121121; 
 281 2.402402; 
 347 3.203203; 
 348 0.800801; 
 377 0.900901; 
 379 17.517518; 
 380 5.405405; 
 381 1.301301; 
 430 1.001001; 
 556 7.807808; 
 557 1.001001; 


Name: Linoelaidic acid
SYNON: $:00in-source
DB#: MetaboBASE0987
InChIKey: OYHQOLUKZRVURQ-AVQMFFATSA-N
Instrument_type: LC-ESI-TOF
Instrument: impact HD
Ion_mode: N
InChIKey: OYHQOLUKZRVURQ-AVQMFFATSA-N
Formula: C18H32O2
MW: 280
ExactMass: 280.240230264
Comments: "license=License CC-BY-NC-SA 4.0 International" "author=Plant Biology, The Noble Foundation, Ardmore, OK, US/Dennis Fine, Daniel Wherritt, and Lloyd Sumner" "instrument type=LC-ESI-TOF" "instrument=impact HD" "ionization=ESI" "ionization mode=negative" "collision gas=Nitrogen" "peak width=0.012" "date=2014-10-08 13:01:03+02:00" "column=Waters Acquity BEH C18 1.7um x 2.1 x 150 mm" "retention time=1841.4" "raw data file=C:\Data\Confirmed standards 6_Oct_2014\Linoelaidic acid vial 390 MSMS_1-C,4_01_969.d" "cas number=506-21-8" "SMILES=CCCCC/C=C/C/C=C/CCCCCCCC(=O)O" "InChI=InChI=1S/C18H32O2/c1-2-3-4-5-6-7-8-9-10-11-12-13-14-15-16-17-18(19)20/h6-7,9-10H,2-5,8,11-17H2,1H3,(H,19,20)/b7-6+,10-9+" "InChIKey=OYHQOLUKZRVURQ-AVQMFFATSA-N" "molecular formula=C18H32O2" "total exact mass=280.240230264" "SMILES=CCCCCC=CCC=CCCCCCCCC(=O)O"
Num Peaks: 9
 279 100.000000; 
 280 16.516517; 
 347 5.305305; 
 379 7.107107; 
 380 2.102102; 
 581 7.507508; 
 582 3.003003; 
 649 2.802803; 
 883 2.902903; 


Name: Linoelaidic acid
SYNON: $:00in-source
DB#: MetaboBASE0988
InChIKey: OYHQOLUKZRVURQ-AVQMFFATSA-N
Precursor_type: [M-H]-
Spectrum_type: MS2
PrecursorMZ: 279.2326
Instrument_type: LC-ESI-TOF
Instrument: impact HD
Ion_mode: N
Collision_energy: 30
InChIKey: OYHQOLUKZRVURQ-AVQMFFATSA-N
Formula: C18H32O2
MW: 280
ExactMass: 280.240230264
Comments: "license=License CC-BY-NC-SA 4.0 International" "author=Plant Biology, The Noble Foundation, Ardmore, OK, US/Dennis Fine, Daniel Wherritt, and Lloyd Sumner" "instrument type=LC-ESI-TOF" "instrument=impact HD" "ionization=ESI" "ionization mode=negative" "ms level=MS2" "precursor m/z=279.2326" "isolation width=5" "collision gas=Nitrogen" "collision energy=30" "peak width=0.015" "date=2014-10-08 13:01:03+02:00" "column=Waters Acquity BEH C18 1.7um x 2.1 x 150 mm" "retention time=1841.4" "raw data file=C:\Data\Confirmed standards 6_Oct_2014\Linoelaidic acid vial 390 MSMS_1-C,4_01_969.d" "precursor type=[M-H]-" "mass accuracy=1.2687057313836292" "mass error=-3.5426400000915237E-4" "cas number=506-21-8" "SMILES=CCCCC/C=C/C/C=C/CCCCCCCC(=O)O" "InChI=InChI=1S/C18H32O2/c1-2-3-4-5-6-7-8-9-10-11-12-13-14-15-16-17-18(19)20/h6-7,9-10H,2-5,8,11-17H2,1H3,(H,19,20)/b7-6+,10-9+" "InChIKey=OYHQOLUKZRVURQ-AVQMFFATSA-N" "molecular formula=C18H32O2" "total exact mass=280.240230264" "SMILES=CCCCCC=CCC=CCCCCCCCC(=O)O"
Num Peaks: 3
 279 100.000000; 
 280 16.516517; 
 873 6.606607; 


Name: Oleic acid
SYNON: $:00in-source
DB#: MetaboBASE0989
InChIKey: ZQPPMHVWECSIRJ-KTKRTIGZSA-N
Precursor_type: [M-H]-
Spectrum_type: MS2
PrecursorMZ: 281.2486
Instrument_type: LC-ESI-TOF
Instrument: impact HD
Ion_mode: N
Collision_energy: 10
InChIKey: ZQPPMHVWECSIRJ-KTKRTIGZSA-N
Formula: C18H34O2
MW: 282
ExactMass: 282.255880328
Comments: "license=License CC-BY-NC-SA 4.0 International" "author=Plant Biology, The Noble Foundation, Ardmore, OK, US/Dennis Fine, Daniel Wherritt, and Lloyd Sumner" "instrument type=LC-ESI-TOF" "instrument=impact HD" "ionization=ESI" "ionization mode=negative" "ms level=MS2" "precursor m/z=281.2486" "isolation width=5" "collision gas=Nitrogen" "collision energy=10" "peak width=0.011" "date=2014-10-08 13:41:57+02:00" "column=Waters Acquity BEH C18 1.7um x 2.1 x 150 mm" "retention time=1905" "raw data file=C:\Data\Confirmed standards 6_Oct_2014\Oleic acid vial 391 MSMS_1-C,5_01_970.d" "precursor type=[M-H]-" "mass accuracy=0.015388521004613367" "mass error=-4.327999988618103E-6" "cas number=112-80-1" "SMILES=CCCCCCCC/C=C\CCCCCCCC(=O)O" "InChI=InChI=1S/C18H34O2/c1-2-3-4-5-6-7-8-9-10-11-12-13-14-15-16-17-18(19)20/h9-10H,2-8,11-17H2,1H3,(H,19,20)/b10-9-" "InChIKey=ZQPPMHVWECSIRJ-KTKRTIGZSA-N" "molecular formula=C18H34O2" "total exact mass=282.255880328" "SMILES=CCCCCCCCC=CCCCCCCCC(=O)O"
Num Peaks: 2
 281 100.000000; 
 282 14.114114; 


Name: Oleic acid
SYNON: $:00in-source
DB#: MetaboBASE0990
InChIKey: ZQPPMHVWECSIRJ-KTKRTIGZSA-N
Precursor_type: [M-H]-
Spectrum_type: MS2
PrecursorMZ: 281.2484
Instrument_type: LC-ESI-TOF
Instrument: impact HD
Ion_mode: N
Collision_energy: 20
InChIKey: ZQPPMHVWECSIRJ-KTKRTIGZSA-N
Formula: C18H34O2
MW: 282
ExactMass: 282.255880328
Comments: "license=License CC-BY-NC-SA 4.0 International" "author=Plant Biology, The Noble Foundation, Ardmore, OK, US/Dennis Fine, Daniel Wherritt, and Lloyd Sumner" "instrument type=LC-ESI-TOF" "instrument=impact HD" "ionization=ESI" "ionization mode=negative" "ms level=MS2" "precursor m/z=281.2484" "isolation width=5" "collision gas=Nitrogen" "collision energy=20" "peak width=0.011" "date=2014-10-08 13:41:57+02:00" "column=Waters Acquity BEH C18 1.7um x 2.1 x 150 mm" "retention time=1905" "raw data file=C:\Data\Confirmed standards 6_Oct_2014\Oleic acid vial 391 MSMS_1-C,5_01_970.d" "precursor type=[M-H]-" "mass accuracy=0.7265036885374545" "mass error=-2.0432799999525741E-4" "cas number=112-80-1" "SMILES=CCCCCCCC/C=C\CCCCCCCC(=O)O" "InChI=InChI=1S/C18H34O2/c1-2-3-4-5-6-7-8-9-10-11-12-13-14-15-16-17-18(19)20/h9-10H,2-8,11-17H2,1H3,(H,19,20)/b10-9-" "InChIKey=ZQPPMHVWECSIRJ-KTKRTIGZSA-N" "molecular formula=C18H34O2" "total exact mass=282.255880328" "SMILES=CCCCCCCCC=CCCCCCCCC(=O)O"
Num Peaks: 2
 281 100.000000; 
 282 14.914915; 


Name: Oleic acid
SYNON: $:00in-source
DB#: MetaboBASE0991
InChIKey: ZQPPMHVWECSIRJ-KTKRTIGZSA-N
Precursor_type: [M-H]-
Spectrum_type: MS2
PrecursorMZ: 281.2474
Instrument_type: LC-ESI-TOF
Instrument: impact HD
Ion_mode: N
Collision_energy: 30
InChIKey: ZQPPMHVWECSIRJ-KTKRTIGZSA-N
Formula: C18H34O2
MW: 282
ExactMass: 282.255880328
Comments: "license=License CC-BY-NC-SA 4.0 International" "author=Plant Biology, The Noble Foundation, Ardmore, OK, US/Dennis Fine, Daniel Wherritt, and Lloyd Sumner" "instrument type=LC-ESI-TOF" "instrument=impact HD" "ionization=ESI" "ionization mode=negative" "ms level=MS2" "precursor m/z=281.2474" "isolation width=5" "collision gas=Nitrogen" "collision energy=30" "peak width=0.018" "date=2014-10-08 13:41:57+02:00" "column=Waters Acquity BEH C18 1.7um x 2.1 x 150 mm" "retention time=1905" "raw data file=C:\Data\Confirmed standards 6_Oct_2014\Oleic acid vial 391 MSMS_1-C,5_01_970.d" "precursor type=[M-H]-" "mass accuracy=4.282094696596698" "mass error=-0.0012043279999716106" "cas number=112-80-1" "SMILES=CCCCCCCC/C=C\CCCCCCCC(=O)O" "InChI=InChI=1S/C18H34O2/c1-2-3-4-5-6-7-8-9-10-11-12-13-14-15-16-17-18(19)20/h9-10H,2-8,11-17H2,1H3,(H,19,20)/b10-9-" "InChIKey=ZQPPMHVWECSIRJ-KTKRTIGZSA-N" "molecular formula=C18H34O2" "total exact mass=282.255880328" "SMILES=CCCCCCCCC=CCCCCCCCC(=O)O"
Num Peaks: 2
 281 100.000000; 
 282 18.318318; 


Name: Oleic acid
SYNON: $:00in-source
DB#: MetaboBASE0992
InChIKey: ZQPPMHVWECSIRJ-KTKRTIGZSA-N
Instrument_type: LC-ESI-TOF
Instrument: impact HD
Ion_mode: N
InChIKey: ZQPPMHVWECSIRJ-KTKRTIGZSA-N
Formula: C18H34O2
MW: 282
ExactMass: 282.255880328
Comments: "license=License CC-BY-NC-SA 4.0 International" "author=Plant Biology, The Noble Foundation, Ardmore, OK, US/Dennis Fine, Daniel Wherritt, and Lloyd Sumner" "instrument type=LC-ESI-TOF" "instrument=impact HD" "ionization=ESI" "ionization mode=negative" "collision gas=Nitrogen" "peak width=0.011" "date=2014-10-08 13:41:57+02:00" "column=Waters Acquity BEH C18 1.7um x 2.1 x 150 mm" "retention time=1905" "raw data file=C:\Data\Confirmed standards 6_Oct_2014\Oleic acid vial 391 MSMS_1-C,5_01_970.d" "cas number=112-80-1" "SMILES=CCCCCCCC/C=C\CCCCCCCC(=O)O" "InChI=InChI=1S/C18H34O2/c1-2-3-4-5-6-7-8-9-10-11-12-13-14-15-16-17-18(19)20/h9-10H,2-8,11-17H2,1H3,(H,19,20)/b10-9-" "InChIKey=ZQPPMHVWECSIRJ-KTKRTIGZSA-N" "molecular formula=C18H34O2" "total exact mass=282.255880328" "SMILES=CCCCCCCCC=CCCCCCCCC(=O)O"
Num Peaks: 5
 281 100.000000; 
 282 17.517518; 
 349 2.702703; 
 381 3.803804; 
 585 4.404404; 


Name: Oleic acid
SYNON: $:00in-source
DB#: MetaboBASE0993
InChIKey: ZQPPMHVWECSIRJ-KTKRTIGZSA-N
Instrument_type: LC-ESI-TOF
Instrument: impact HD
Ion_mode: N
Collision_energy: 10
InChIKey: ZQPPMHVWECSIRJ-KTKRTIGZSA-N
Formula: C18H34O2
MW: 282
ExactMass: 282.255880328
Comments: "license=License CC-BY-NC-SA 4.0 International" "author=Plant Biology, The Noble Foundation, Ardmore, OK, US/Dennis Fine, Daniel Wherritt, and Lloyd Sumner" "instrument type=LC-ESI-TOF" "instrument=impact HD" "ionization=ESI" "ionization mode=negative" "collision gas=Nitrogen" "collision energy=10" "peak width=0.012" "date=2014-10-07 02:20:09+02:00" "column=Waters Acquity BEH C18 1.7um x 2.1 x 150 mm" "retention time=1905" "raw data file=C:\Data\Confirmed standards 6_Oct_2014\Oleic acid vial 391_1-C,5_01_935.d" "cas number=112-80-1" "SMILES=CCCCCCCC/C=C\CCCCCCCC(=O)O" "InChI=InChI=1S/C18H34O2/c1-2-3-4-5-6-7-8-9-10-11-12-13-14-15-16-17-18(19)20/h9-10H,2-8,11-17H2,1H3,(H,19,20)/b10-9-" "InChIKey=ZQPPMHVWECSIRJ-KTKRTIGZSA-N" "molecular formula=C18H34O2" "total exact mass=282.255880328" "SMILES=CCCCCCCCC=CCCCCCCCC(=O)O"
Num Peaks: 8
 281 100.000000; 
 282 22.422422; 
 283 2.502503; 
 349 1.301301; 
 379 0.800801; 
 381 15.015015; 
 382 4.504505; 
 383 1.201201; 


Name: Palmitoleic acid
SYNON: $:00in-source
DB#: MetaboBASE0994
InChIKey: SECPZKHBENQXJG-FPLPWBNLSA-N
Precursor_type: [M-H]-
Spectrum_type: MS2
PrecursorMZ: 253.2179
Instrument_type: LC-ESI-TOF
Instrument: impact HD
Ion_mode: N
Collision_energy: 10
InChIKey: SECPZKHBENQXJG-FPLPWBNLSA-N
Formula: C16H30O2
MW: 254
ExactMass: 254.2245802
Comments: "license=License CC-BY-NC-SA 4.0 International" "author=Plant Biology, The Noble Foundation, Ardmore, OK, US/Dennis Fine, Daniel Wherritt, and Lloyd Sumner" "instrument type=LC-ESI-TOF" "instrument=impact HD" "ionization=ESI" "ionization mode=negative" "ms level=MS2" "precursor m/z=253.2179" "isolation width=5" "collision gas=Nitrogen" "collision energy=10" "peak width=0.015" "date=2014-10-08 10:58:21+02:00" "column=Waters Acquity BEH C18 1.7um x 2.1 x 150 mm" "retention time=1733.4" "raw data file=C:\Data\Confirmed standards 6_Oct_2014\Palmitoleic acid vial 387 MSMS_1-C,1_01_966.d" "precursor type=[M-H]-" "mass accuracy=2.352914229148284" "mass error=5.957999999850472E-4" "cas number=373-49-9" "SMILES=CCCCCC/C=C\CCCCCCCC(=O)O" "InChI=InChI=1S/C16H30O2/c1-2-3-4-5-6-7-8-9-10-11-12-13-14-15-16(17)18/h7-8H,2-6,9-15H2,1H3,(H,17,18)/b8-7-" "InChIKey=SECPZKHBENQXJG-FPLPWBNLSA-N" "molecular formula=C16H30O2" "total exact mass=254.2245802" "SMILES=CCCCCCC=CCCCCCCCC(=O)O"
Num Peaks: 2
 253 100.000000; 
 254 11.311311; 


Name: Palmitoleic acid
SYNON: $:00in-source
DB#: MetaboBASE0995
InChIKey: SECPZKHBENQXJG-FPLPWBNLSA-N
Precursor_type: [M-H]-
Spectrum_type: MS2
PrecursorMZ: 253.2174
Instrument_type: LC-ESI-TOF
Instrument: impact HD
Ion_mode: N
Collision_energy: 20
InChIKey: SECPZKHBENQXJG-FPLPWBNLSA-N
Formula: C16H30O2
MW: 254
ExactMass: 254.2245802
Comments: "license=License CC-BY-NC-SA 4.0 International" "author=Plant Biology, The Noble Foundation, Ardmore, OK, US/Dennis Fine, Daniel Wherritt, and Lloyd Sumner" "instrument type=LC-ESI-TOF" "instrument=impact HD" "ionization=ESI" "ionization mode=negative" "ms level=MS2" "precursor m/z=253.2174" "isolation width=5" "collision gas=Nitrogen" "collision energy=20" "peak width=0.016" "date=2014-10-08 10:58:21+02:00" "column=Waters Acquity BEH C18 1.7um x 2.1 x 150 mm" "retention time=1733.4" "raw data file=C:\Data\Confirmed standards 6_Oct_2014\Palmitoleic acid vial 387 MSMS_1-C,1_01_966.d" "precursor type=[M-H]-" "mass accuracy=0.3783310309515484" "mass error=9.579999999687061E-5" "cas number=373-49-9" "SMILES=CCCCCC/C=C\CCCCCCCC(=O)O" "InChI=InChI=1S/C16H30O2/c1-2-3-4-5-6-7-8-9-10-11-12-13-14-15-16(17)18/h7-8H,2-6,9-15H2,1H3,(H,17,18)/b8-7-" "InChIKey=SECPZKHBENQXJG-FPLPWBNLSA-N" "molecular formula=C16H30O2" "total exact mass=254.2245802" "SMILES=CCCCCCC=CCCCCCCCC(=O)O"
Num Peaks: 2
 253 100.000000; 
 254 11.611612; 


Name: Palmitoleic acid
SYNON: $:00in-source
DB#: MetaboBASE0996
InChIKey: SECPZKHBENQXJG-FPLPWBNLSA-N
Instrument_type: LC-ESI-TOF
Instrument: impact HD
Ion_mode: N
Collision_energy: 10
InChIKey: SECPZKHBENQXJG-FPLPWBNLSA-N
Formula: C16H30O2
MW: 254
ExactMass: 254.2245802
Comments: "license=License CC-BY-NC-SA 4.0 International" "author=Plant Biology, The Noble Foundation, Ardmore, OK, US/Dennis Fine, Daniel Wherritt, and Lloyd Sumner" "instrument type=LC-ESI-TOF" "instrument=impact HD" "ionization=ESI" "ionization mode=negative" "collision gas=Nitrogen" "collision energy=10" "peak width=0.015" "date=2014-10-06 23:36:29+02:00" "column=Waters Acquity BEH C18 1.7um x 2.1 x 150 mm" "retention time=1733.4" "raw data file=C:\Data\Confirmed standards 6_Oct_2014\Palmitoleic acid vial 387_1-C,1_01_931.d" "cas number=373-49-9" "SMILES=CCCCCC/C=C\CCCCCCCC(=O)O" "InChI=InChI=1S/C16H30O2/c1-2-3-4-5-6-7-8-9-10-11-12-13-14-15-16(17)18/h7-8H,2-6,9-15H2,1H3,(H,17,18)/b8-7-" "InChIKey=SECPZKHBENQXJG-FPLPWBNLSA-N" "molecular formula=C16H30O2" "total exact mass=254.2245802" "SMILES=CCCCCCC=CCCCCCCCC(=O)O"
Num Peaks: 7
 116 0.700701; 
 128 0.800801; 
 253 100.000000; 
 254 18.818819; 
 255 2.202202; 
 321 3.703704; 
 322 0.800801; 


Name: Palmitoleic acid
SYNON: $:00in-source
DB#: MetaboBASE0997
InChIKey: SECPZKHBENQXJG-FPLPWBNLSA-N
Instrument_type: LC-ESI-TOF
Instrument: impact HD
Ion_mode: N
InChIKey: SECPZKHBENQXJG-FPLPWBNLSA-N
Formula: C16H30O2
MW: 254
ExactMass: 254.2245802
Comments: "license=License CC-BY-NC-SA 4.0 International" "author=Plant Biology, The Noble Foundation, Ardmore, OK, US/Dennis Fine, Daniel Wherritt, and Lloyd Sumner" "instrument type=LC-ESI-TOF" "instrument=impact HD" "ionization=ESI" "ionization mode=negative" "collision gas=Nitrogen" "peak width=0.014" "date=2014-10-08 10:58:21+02:00" "column=Waters Acquity BEH C18 1.7um x 2.1 x 150 mm" "retention time=1733.4" "raw data file=C:\Data\Confirmed standards 6_Oct_2014\Palmitoleic acid vial 387 MSMS_1-C,1_01_966.d" "cas number=373-49-9" "SMILES=CCCCCC/C=C\CCCCCCCC(=O)O" "InChI=InChI=1S/C16H30O2/c1-2-3-4-5-6-7-8-9-10-11-12-13-14-15-16(17)18/h7-8H,2-6,9-15H2,1H3,(H,17,18)/b8-7-" "InChIKey=SECPZKHBENQXJG-FPLPWBNLSA-N" "molecular formula=C16H30O2" "total exact mass=254.2245802" "SMILES=CCCCCCC=CCCCCCCCC(=O)O"
Num Peaks: 6
 253 100.000000; 
 254 14.914915; 
 321 8.408408; 
 353 4.404404; 
 529 7.907908; 
 597 3.503504; 


Name: Trans-Vaccenic acid
SYNON: $:00in-source
DB#: MetaboBASE0998
InChIKey: UWHZIFQPPBDJPM-BQYQJAHWSA-N
Precursor_type: [M-H]-
Spectrum_type: MS2
PrecursorMZ: 281.2493
Instrument_type: LC-ESI-TOF
Instrument: impact HD
Ion_mode: N
Collision_energy: 20
InChIKey: UWHZIFQPPBDJPM-BQYQJAHWSA-N
Formula: C18H34O2
MW: 282
ExactMass: 282.255880328
Comments: "license=License CC-BY-NC-SA 4.0 International" "author=Plant Biology, The Noble Foundation, Ardmore, OK, US/Dennis Fine, Daniel Wherritt, and Lloyd Sumner" "instrument type=LC-ESI-TOF" "instrument=impact HD" "ionization=ESI" "ionization mode=negative" "ms level=MS2" "precursor m/z=281.2493" "isolation width=5" "collision gas=Nitrogen" "collision energy=20" "peak width=0.017" "date=2014-10-08 15:03:41+02:00" "column=Waters Acquity BEH C18 1.7um x 2.1 x 150 mm" "retention time=1902.6" "raw data file=C:\Data\Confirmed standards 6_Oct_2014\t-Vaccenic acid vial 393 MSMS_1-C,7_01_972.d" "precursor type=[M-H]-" "mass accuracy=2.4735066007495763" "mass error=6.956720000061978E-4" "cas number=693-72-1" "SMILES=CCCCCC/C=C/CCCCCCCCCC(=O)O" "InChI=InChI=1S/C18H34O2/c1-2-3-4-5-6-7-8-9-10-11-12-13-14-15-16-17-18(19)20/h7-8H,2-6,9-17H2,1H3,(H,19,20)/b8-7+" "InChIKey=UWHZIFQPPBDJPM-BQYQJAHWSA-N" "molecular formula=C18H34O2" "total exact mass=282.255880328" "SMILES=CCCCCCC=CCCCCCCCCCC(=O)O"
Num Peaks: 2
 281 100.000000; 
 282 15.215215; 


Name: Trans-Vaccenic acid
SYNON: $:00in-source
DB#: MetaboBASE0999
InChIKey: UWHZIFQPPBDJPM-BQYQJAHWSA-N
Precursor_type: [M-H]-
Spectrum_type: MS2
PrecursorMZ: 281.2493
Instrument_type: LC-ESI-TOF
Instrument: impact HD
Ion_mode: N
Collision_energy: 10
InChIKey: UWHZIFQPPBDJPM-BQYQJAHWSA-N
Formula: C18H34O2
MW: 282
ExactMass: 282.255880328
Comments: "license=License CC-BY-NC-SA 4.0 International" "author=Plant Biology, The Noble Foundation, Ardmore, OK, US/Dennis Fine, Daniel Wherritt, and Lloyd Sumner" "instrument type=LC-ESI-TOF" "instrument=impact HD" "ionization=ESI" "ionization mode=negative" "ms level=MS2" "precursor m/z=281.2493" "isolation width=5" "collision gas=Nitrogen" "collision energy=10" "peak width=0.017" "date=2014-10-08 15:03:41+02:00" "column=Waters Acquity BEH C18 1.7um x 2.1 x 150 mm" "retention time=1902.6" "raw data file=C:\Data\Confirmed standards 6_Oct_2014\t-Vaccenic acid vial 393 MSMS_1-C,7_01_972.d" "precursor type=[M-H]-" "mass accuracy=2.4735066007495763" "mass error=6.956720000061978E-4" "cas number=693-72-1" "SMILES=CCCCCC/C=C/CCCCCCCCCC(=O)O" "InChI=InChI=1S/C18H34O2/c1-2-3-4-5-6-7-8-9-10-11-12-13-14-15-16-17-18(19)20/h7-8H,2-6,9-17H2,1H3,(H,19,20)/b8-7+" "InChIKey=UWHZIFQPPBDJPM-BQYQJAHWSA-N" "molecular formula=C18H34O2" "total exact mass=282.255880328" "SMILES=CCCCCCC=CCCCCCCCCCC(=O)O"
Num Peaks: 2
 281 100.000000; 
 282 15.015015; 


Name: Trans-Vaccenic acid
SYNON: $:00in-source
DB#: MetaboBASE1000
InChIKey: UWHZIFQPPBDJPM-BQYQJAHWSA-N
Instrument_type: LC-ESI-TOF
Instrument: impact HD
Ion_mode: N
Collision_energy: 10
InChIKey: UWHZIFQPPBDJPM-BQYQJAHWSA-N
Formula: C18H34O2
MW: 282
ExactMass: 282.255880328
Comments: "license=License CC-BY-NC-SA 4.0 International" "author=Plant Biology, The Noble Foundation, Ardmore, OK, US/Dennis Fine, Daniel Wherritt, and Lloyd Sumner" "instrument type=LC-ESI-TOF" "instrument=impact HD" "ionization=ESI" "ionization mode=negative" "collision gas=Nitrogen" "collision energy=10" "peak width=0.012" "date=2014-10-07 03:41:53+02:00" "column=Waters Acquity BEH C18 1.7um x 2.1 x 150 mm" "retention time=1902.6" "raw data file=C:\Data\Confirmed standards 6_Oct_2014\t-Vaccenic acid vial 393_1-C,7_01_937.d" "cas number=693-72-1" "SMILES=CCCCCC/C=C/CCCCCCCCCC(=O)O" "InChI=InChI=1S/C18H34O2/c1-2-3-4-5-6-7-8-9-10-11-12-13-14-15-16-17-18(19)20/h7-8H,2-6,9-17H2,1H3,(H,19,20)/b8-7+" "InChIKey=UWHZIFQPPBDJPM-BQYQJAHWSA-N" "molecular formula=C18H34O2" "total exact mass=282.255880328" "SMILES=CCCCCCC=CCCCCCCCCCC(=O)O"
Num Peaks: 9
 281 100.000000; 
 282 21.621622; 
 283 2.502503; 
 293 0.600601; 
 349 1.401401; 
 379 0.800801; 
 381 14.014014; 
 382 4.504505; 
 383 1.101101; 


Name: Trans-Vaccenic acid
SYNON: $:00in-source
DB#: MetaboBASE1001
InChIKey: UWHZIFQPPBDJPM-BQYQJAHWSA-N
Precursor_type: [M-H]-
Spectrum_type: MS2
PrecursorMZ: 281.2481
Instrument_type: LC-ESI-TOF
Instrument: impact HD
Ion_mode: N
Collision_energy: 30
InChIKey: UWHZIFQPPBDJPM-BQYQJAHWSA-N
Formula: C18H34O2
MW: 282
ExactMass: 282.255880328
Comments: "license=License CC-BY-NC-SA 4.0 International" "author=Plant Biology, The Noble Foundation, Ardmore, OK, US/Dennis Fine, Daniel Wherritt, and Lloyd Sumner" "instrument type=LC-ESI-TOF" "instrument=impact HD" "ionization=ESI" "ionization mode=negative" "ms level=MS2" "precursor m/z=281.2481" "isolation width=5" "collision gas=Nitrogen" "collision energy=30" "peak width=0.017" "date=2014-10-08 15:03:41+02:00" "column=Waters Acquity BEH C18 1.7um x 2.1 x 150 mm" "retention time=1902.6" "raw data file=C:\Data\Confirmed standards 6_Oct_2014\t-Vaccenic acid vial 393 MSMS_1-C,7_01_972.d" "precursor type=[M-H]-" "mass accuracy=1.7931783360555844" "mass error=-5.043279999767947E-4" "cas number=693-72-1" "SMILES=CCCCCC/C=C/CCCCCCCCCC(=O)O" "InChI=InChI=1S/C18H34O2/c1-2-3-4-5-6-7-8-9-10-11-12-13-14-15-16-17-18(19)20/h7-8H,2-6,9-17H2,1H3,(H,19,20)/b8-7+" "InChIKey=UWHZIFQPPBDJPM-BQYQJAHWSA-N" "molecular formula=C18H34O2" "total exact mass=282.255880328" "SMILES=CCCCCCC=CCCCCCCCCCC(=O)O"
Num Peaks: 3
 263 2.302302; 
 281 100.000000; 
 282 16.616617; 


Name: Trans-Vaccenic acid
SYNON: $:00in-source
DB#: MetaboBASE1002
InChIKey: UWHZIFQPPBDJPM-BQYQJAHWSA-N
Instrument_type: LC-ESI-TOF
Instrument: impact HD
Ion_mode: N
InChIKey: UWHZIFQPPBDJPM-BQYQJAHWSA-N
Formula: C18H34O2
MW: 282
ExactMass: 282.255880328
Comments: "license=License CC-BY-NC-SA 4.0 International" "author=Plant Biology, The Noble Foundation, Ardmore, OK, US/Dennis Fine, Daniel Wherritt, and Lloyd Sumner" "instrument type=LC-ESI-TOF" "instrument=impact HD" "ionization=ESI" "ionization mode=negative" "collision gas=Nitrogen" "peak width=0.017" "date=2014-10-08 15:03:41+02:00" "column=Waters Acquity BEH C18 1.7um x 2.1 x 150 mm" "retention time=1902.6" "raw data file=C:\Data\Confirmed standards 6_Oct_2014\t-Vaccenic acid vial 393 MSMS_1-C,7_01_972.d" "cas number=693-72-1" "SMILES=CCCCCC/C=C/CCCCCCCCCC(=O)O" "InChI=InChI=1S/C18H34O2/c1-2-3-4-5-6-7-8-9-10-11-12-13-14-15-16-17-18(19)20/h7-8H,2-6,9-17H2,1H3,(H,19,20)/b8-7+" "InChIKey=UWHZIFQPPBDJPM-BQYQJAHWSA-N" "molecular formula=C18H34O2" "total exact mass=282.255880328" "SMILES=CCCCCCC=CCCCCCCCCCC(=O)O"
Num Peaks: 5
 281 100.000000; 
 282 16.416416; 
 349 2.902903; 
 381 4.404404; 
 585 3.803804; 


Name: 10E, 12Z-Linoleic acid
SYNON: $:00in-source
DB#: MetaboBASE1003
InChIKey: JBYXPOFIGCOSSB-UQGDGPGGSA-N
Precursor_type: [M-H]-
Spectrum_type: MS2
PrecursorMZ: 279.2338
Instrument_type: LC-ESI-TOF
Instrument: impact HD
Ion_mode: N
Collision_energy: 10
InChIKey: JBYXPOFIGCOSSB-UQGDGPGGSA-N
Formula: C18H32O2
MW: 280
ExactMass: 280.240230264
Comments: "license=License CC-BY-NC-SA 4.0 International" "author=Plant Biology, The Noble Foundation, Ardmore, OK, US/Dennis Fine, Daniel Wherritt, and Lloyd Sumner" "instrument type=LC-ESI-TOF" "instrument=impact HD" "ionization=ESI" "ionization mode=negative" "ms level=MS2" "precursor m/z=279.2338" "isolation width=5" "collision gas=Nitrogen" "collision energy=10" "peak width=0.012" "date=2014-10-08 23:25:04+02:00" "column=Waters Acquity BEH C18 1.7um x 2.1 x 150 mm" "retention time=1816.8" "raw data file=C:\Data\Confirmed standards 6_Oct_2014\10E,12Z-Linoleic acid MSMS_1-C,8_01_981.d" "precursor type=[M-H]-" "mass accuracy=3.0287737371831067" "mass error=8.457359999738401E-4" "cas number=2420-56-6" "SMILES=CCCCCC/C=C\C=C\CCCCCCCC(=O)O" "InChI=InChI=1S/C18H32O2/c1-2-3-4-5-6-7-8-9-10-11-12-13-14-15-16-17-18(19)20/h7-10H,2-6,11-17H2,1H3,(H,19,20)/b8-7-,10-9+" "InChIKey=JBYXPOFIGCOSSB-UQGDGPGGSA-N" "molecular formula=C18H32O2" "total exact mass=280.240230264" "SMILES=CCCCCC=CC=CCCCCCCCCC(=O)O" "InChI=InChI=1S/C18H32O2/c1-2-3-4-5-6-7-8-9-10-11-12-13-14-15-16-17-18(19)20/h6-9H,2-5,10-17H2,1H3,(H,19,20)/b7-6-,9-8+" "InChIKey=GKJZMAHZJGSBKD-NMMTYZSQSA-N"
Num Peaks: 2
 279 100.000000; 
 280 15.715716; 


Name: 10E, 12Z-Linoleic acid
SYNON: $:00in-source
DB#: MetaboBASE1004
InChIKey: JBYXPOFIGCOSSB-UQGDGPGGSA-N
Precursor_type: [M-H]-
Spectrum_type: MS2
PrecursorMZ: 279.2336
Instrument_type: LC-ESI-TOF
Instrument: impact HD
Ion_mode: N
Collision_energy: 20
InChIKey: JBYXPOFIGCOSSB-UQGDGPGGSA-N
Formula: C18H32O2
MW: 280
ExactMass: 280.240230264
Comments: "license=License CC-BY-NC-SA 4.0 International" "author=Plant Biology, The Noble Foundation, Ardmore, OK, US/Dennis Fine, Daniel Wherritt, and Lloyd Sumner" "instrument type=LC-ESI-TOF" "instrument=impact HD" "ionization=ESI" "ionization mode=negative" "ms level=MS2" "precursor m/z=279.2336" "isolation width=5" "collision gas=Nitrogen" "collision energy=20" "peak width=0.014" "date=2014-10-08 23:25:04+02:00" "column=Waters Acquity BEH C18 1.7um x 2.1 x 150 mm" "retention time=1816.8" "raw data file=C:\Data\Confirmed standards 6_Oct_2014\10E,12Z-Linoleic acid MSMS_1-C,8_01_981.d" "precursor type=[M-H]-" "mass accuracy=2.3125297243026774" "mass error=6.457360000240442E-4" "cas number=2420-56-6" "SMILES=CCCCCC/C=C\C=C\CCCCCCCC(=O)O" "InChI=InChI=1S/C18H32O2/c1-2-3-4-5-6-7-8-9-10-11-12-13-14-15-16-17-18(19)20/h7-10H,2-6,11-17H2,1H3,(H,19,20)/b8-7-,10-9+" "InChIKey=JBYXPOFIGCOSSB-UQGDGPGGSA-N" "molecular formula=C18H32O2" "total exact mass=280.240230264" "SMILES=CCCCCC=CC=CCCCCCCCCC(=O)O" "InChI=InChI=1S/C18H32O2/c1-2-3-4-5-6-7-8-9-10-11-12-13-14-15-16-17-18(19)20/h6-9H,2-5,10-17H2,1H3,(H,19,20)/b7-6-,9-8+" "InChIKey=GKJZMAHZJGSBKD-NMMTYZSQSA-N"
Num Peaks: 2
 279 100.000000; 
 280 15.915916; 


Name: 10E, 12Z-Linoleic acid
SYNON: $:00in-source
DB#: MetaboBASE1005
InChIKey: JBYXPOFIGCOSSB-UQGDGPGGSA-N
Precursor_type: [M-H]-
Spectrum_type: MS2
PrecursorMZ: 279.2336
Instrument_type: LC-ESI-TOF
Instrument: impact HD
Ion_mode: N
Collision_energy: 30
InChIKey: JBYXPOFIGCOSSB-UQGDGPGGSA-N
Formula: C18H32O2
MW: 280
ExactMass: 280.240230264
Comments: "license=License CC-BY-NC-SA 4.0 International" "author=Plant Biology, The Noble Foundation, Ardmore, OK, US/Dennis Fine, Daniel Wherritt, and Lloyd Sumner" "instrument type=LC-ESI-TOF" "instrument=impact HD" "ionization=ESI" "ionization mode=negative" "ms level=MS2" "precursor m/z=279.2336" "isolation width=5" "collision gas=Nitrogen" "collision energy=30" "peak width=0.018" "date=2014-10-08 23:25:04+02:00" "column=Waters Acquity BEH C18 1.7um x 2.1 x 150 mm" "retention time=1816.8" "raw data file=C:\Data\Confirmed standards 6_Oct_2014\10E,12Z-Linoleic acid MSMS_1-C,8_01_981.d" "precursor type=[M-H]-" "mass accuracy=2.3125297243026774" "mass error=6.457360000240442E-4" "cas number=2420-56-6" "SMILES=CCCCCC/C=C\C=C\CCCCCCCC(=O)O" "InChI=InChI=1S/C18H32O2/c1-2-3-4-5-6-7-8-9-10-11-12-13-14-15-16-17-18(19)20/h7-10H,2-6,11-17H2,1H3,(H,19,20)/b8-7-,10-9+" "InChIKey=JBYXPOFIGCOSSB-UQGDGPGGSA-N" "molecular formula=C18H32O2" "total exact mass=280.240230264" "SMILES=CCCCCC=CC=CCCCCCCCCC(=O)O" "InChI=InChI=1S/C18H32O2/c1-2-3-4-5-6-7-8-9-10-11-12-13-14-15-16-17-18(19)20/h6-9H,2-5,10-17H2,1H3,(H,19,20)/b7-6-,9-8+" "InChIKey=GKJZMAHZJGSBKD-NMMTYZSQSA-N"
Num Peaks: 3
 279 100.000000; 
 280 20.820821; 
 894 3.903904; 


Name: 10E, 12Z-Linoleic acid
SYNON: $:00in-source
DB#: MetaboBASE1006
InChIKey: JBYXPOFIGCOSSB-UQGDGPGGSA-N
Instrument_type: LC-ESI-TOF
Instrument: impact HD
Ion_mode: N
Collision_energy: 10
InChIKey: JBYXPOFIGCOSSB-UQGDGPGGSA-N
Formula: C18H32O2
MW: 280
ExactMass: 280.240230264
Comments: "license=License CC-BY-NC-SA 4.0 International" "author=Plant Biology, The Noble Foundation, Ardmore, OK, US/Dennis Fine, Daniel Wherritt, and Lloyd Sumner" "instrument type=LC-ESI-TOF" "instrument=impact HD" "ionization=ESI" "ionization mode=negative" "collision gas=Nitrogen" "collision energy=10" "peak width=0.014" "date=2014-10-07 21:57:39+02:00" "column=Waters Acquity BEH C18 1.7um x 2.1 x 150 mm" "retention time=1816.8" "raw data file=C:\Data\Confirmed standards 6_Oct_2014\10E,12Z-Linoleic acid vial 394_1-C,8_01_945.d" "cas number=2420-56-6" "SMILES=CCCCCC/C=C\C=C\CCCCCCCC(=O)O" "InChI=InChI=1S/C18H32O2/c1-2-3-4-5-6-7-8-9-10-11-12-13-14-15-16-17-18(19)20/h7-10H,2-6,11-17H2,1H3,(H,19,20)/b8-7-,10-9+" "InChIKey=JBYXPOFIGCOSSB-UQGDGPGGSA-N" "molecular formula=C18H32O2" "total exact mass=280.240230264" "SMILES=CCCCCC=CC=CCCCCCCCCC(=O)O" "InChI=InChI=1S/C18H32O2/c1-2-3-4-5-6-7-8-9-10-11-12-13-14-15-16-17-18(19)20/h6-9H,2-5,10-17H2,1H3,(H,19,20)/b7-6-,9-8+" "InChIKey=GKJZMAHZJGSBKD-NMMTYZSQSA-N"
Num Peaks: 16
 128 0.400400; 
 279 100.000000; 
 280 22.322322; 
 281 2.602603; 
 347 3.003003; 
 348 0.600601; 
 377 1.201201; 
 379 22.622623; 
 380 7.107107; 
 381 1.801802; 
 430 0.800801; 
 556 4.204204; 
 557 0.400400; 
 581 12.212212; 
 582 4.804805; 
 583 1.101101; 


Name: 10E, 12Z-Linoleic acid
SYNON: $:00in-source
DB#: MetaboBASE1007
InChIKey: JBYXPOFIGCOSSB-UQGDGPGGSA-N
Instrument_type: LC-ESI-TOF
Instrument: impact HD
Ion_mode: N
InChIKey: JBYXPOFIGCOSSB-UQGDGPGGSA-N
Formula: C18H32O2
MW: 280
ExactMass: 280.240230264
Comments: "license=License CC-BY-NC-SA 4.0 International" "author=Plant Biology, The Noble Foundation, Ardmore, OK, US/Dennis Fine, Daniel Wherritt, and Lloyd Sumner" "instrument type=LC-ESI-TOF" "instrument=impact HD" "ionization=ESI" "ionization mode=negative" "collision gas=Nitrogen" "peak width=0.016" "date=2014-10-08 23:25:04+02:00" "column=Waters Acquity BEH C18 1.7um x 2.1 x 150 mm" "retention time=1816.8" "raw data file=C:\Data\Confirmed standards 6_Oct_2014\10E,12Z-Linoleic acid MSMS_1-C,8_01_981.d" "cas number=2420-56-6" "SMILES=CCCCCC/C=C\C=C\CCCCCCCC(=O)O" "InChI=InChI=1S/C18H32O2/c1-2-3-4-5-6-7-8-9-10-11-12-13-14-15-16-17-18(19)20/h7-10H,2-6,11-17H2,1H3,(H,19,20)/b8-7-,10-9+" "InChIKey=JBYXPOFIGCOSSB-UQGDGPGGSA-N" "molecular formula=C18H32O2" "total exact mass=280.240230264" "SMILES=CCCCCC=CC=CCCCCCCCCC(=O)O" "InChI=InChI=1S/C18H32O2/c1-2-3-4-5-6-7-8-9-10-11-12-13-14-15-16-17-18(19)20/h6-9H,2-5,10-17H2,1H3,(H,19,20)/b7-6-,9-8+" "InChIKey=GKJZMAHZJGSBKD-NMMTYZSQSA-N"
Num Peaks: 8
 279 100.000000; 
 280 16.716717; 
 347 4.604605; 
 379 6.506507; 
 380 2.002002; 
 556 4.104104; 
 581 7.207207; 
 582 2.802803; 


Name: 9E, 11E-Linoleic acid
SYNON: $:00in-source
DB#: MetaboBASE1008
InChIKey: JBYXPOFIGCOSSB-XBLVEGMJSA-N
Precursor_type: [M-H]-
Spectrum_type: MS2
PrecursorMZ: 279.2344
Instrument_type: LC-ESI-TOF
Instrument: impact HD
Ion_mode: N
Collision_energy: 20
InChIKey: JBYXPOFIGCOSSB-XBLVEGMJSA-N
Formula: C18H32O2
MW: 280
ExactMass: 280.240230264
Comments: "license=License CC-BY-NC-SA 4.0 International" "author=Plant Biology, The Noble Foundation, Ardmore, OK, US/Dennis Fine, Daniel Wherritt, and Lloyd Sumner" "instrument type=LC-ESI-TOF" "instrument=impact HD" "ionization=ESI" "ionization mode=negative" "ms level=MS2" "precursor m/z=279.2344" "isolation width=5" "collision gas=Nitrogen" "collision energy=20" "peak width=0.014" "date=2014-10-09 00:46:48+02:00" "column=Waters Acquity BEH C18 1.7um x 2.1 x 150 mm" "retention time=1852.8" "raw data file=C:\Data\Confirmed standards 6_Oct_2014\9E,11E-Linoleic acid MSMS_1-D,2_01_983.d" "precursor type=[M-H]-" "mass accuracy=5.177499620368256" "mass error=0.001445735999993758" "cas number=1839-11-8" "SMILES=CCCCCC/C=C/C=C/CCCCCCCC(=O)O" "InChI=InChI=1S/C18H32O2/c1-2-3-4-5-6-7-8-9-10-11-12-13-14-15-16-17-18(19)20/h7-10H,2-6,11-17H2,1H3,(H,19,20)/b8-7+,10-9+" "InChIKey=JBYXPOFIGCOSSB-XBLVEGMJSA-N" "molecular formula=C18H32O2" "total exact mass=280.240230264" "SMILES=CCCCCCC=CC=CCCCCCCCC(=O)O"
Num Peaks: 2
 279 100.000000; 
 280 18.118118; 


Name: 9E, 11E-Linoleic acid
SYNON: $:00in-source
DB#: MetaboBASE1009
InChIKey: JBYXPOFIGCOSSB-XBLVEGMJSA-N
Precursor_type: [M-H]-
Spectrum_type: MS2
PrecursorMZ: 279.2345
Instrument_type: LC-ESI-TOF
Instrument: impact HD
Ion_mode: N
Collision_energy: 10
InChIKey: JBYXPOFIGCOSSB-XBLVEGMJSA-N
Formula: C18H32O2
MW: 280
ExactMass: 280.240230264
Comments: "license=License CC-BY-NC-SA 4.0 International" "author=Plant Biology, The Noble Foundation, Ardmore, OK, US/Dennis Fine, Daniel Wherritt, and Lloyd Sumner" "instrument type=LC-ESI-TOF" "instrument=impact HD" "ionization=ESI" "ionization mode=negative" "ms level=MS2" "precursor m/z=279.2345" "isolation width=5" "collision gas=Nitrogen" "collision energy=10" "peak width=0.012" "date=2014-10-09 00:46:48+02:00" "column=Waters Acquity BEH C18 1.7um x 2.1 x 150 mm" "retention time=1852.8" "raw data file=C:\Data\Confirmed standards 6_Oct_2014\9E,11E-Linoleic acid MSMS_1-D,2_01_983.d" "precursor type=[M-H]-" "mass accuracy=5.535619703244045" "mass error=0.0015457360000254994" "cas number=1839-11-8" "SMILES=CCCCCC/C=C/C=C/CCCCCCCC(=O)O" "InChI=InChI=1S/C18H32O2/c1-2-3-4-5-6-7-8-9-10-11-12-13-14-15-16-17-18(19)20/h7-10H,2-6,11-17H2,1H3,(H,19,20)/b8-7+,10-9+" "InChIKey=JBYXPOFIGCOSSB-XBLVEGMJSA-N" "molecular formula=C18H32O2" "total exact mass=280.240230264" "SMILES=CCCCCCC=CC=CCCCCCCCC(=O)O"
Num Peaks: 2
 279 100.000000; 
 280 16.016016; 


Name: 9E, 11E-Linoleic acid
SYNON: $:00in-source
DB#: MetaboBASE1010
InChIKey: JBYXPOFIGCOSSB-XBLVEGMJSA-N
Instrument_type: LC-ESI-TOF
Instrument: impact HD
Ion_mode: N
Collision_energy: 10
InChIKey: JBYXPOFIGCOSSB-XBLVEGMJSA-N
Formula: C18H32O2
MW: 280
ExactMass: 280.240230264
Comments: "license=License CC-BY-NC-SA 4.0 International" "author=Plant Biology, The Noble Foundation, Ardmore, OK, US/Dennis Fine, Daniel Wherritt, and Lloyd Sumner" "instrument type=LC-ESI-TOF" "instrument=impact HD" "ionization=ESI" "ionization mode=negative" "collision gas=Nitrogen" "collision energy=10" "peak width=0.015" "date=2014-10-08 00:00:41+02:00" "column=Waters Acquity BEH C18 1.7um x 2.1 x 150 mm" "retention time=1852.8" "raw data file=C:\Data\Confirmed standards 6_Oct_2014\9E,11E-Linoleic acid vial 396_1-D,2_01_949.d" "cas number=1839-11-8" "SMILES=CCCCCC/C=C/C=C/CCCCCCCC(=O)O" "InChI=InChI=1S/C18H32O2/c1-2-3-4-5-6-7-8-9-10-11-12-13-14-15-16-17-18(19)20/h7-10H,2-6,11-17H2,1H3,(H,19,20)/b8-7+,10-9+" "InChIKey=JBYXPOFIGCOSSB-XBLVEGMJSA-N" "molecular formula=C18H32O2" "total exact mass=280.240230264" "SMILES=CCCCCCC=CC=CCCCCCCCC(=O)O"
Num Peaks: 18
 128 0.400400; 
 279 100.000000; 
 280 21.221221; 
 281 2.302302; 
 325 0.900901; 
 347 3.003003; 
 348 0.500501; 
 377 1.601602; 
 379 29.829830; 
 380 9.209209; 
 381 2.302302; 
 430 0.700701; 
 431 0.400400; 
 556 9.709710; 
 557 1.201201; 
 581 11.311311; 
 582 4.504505; 
 583 1.001001; 


Name: 9E, 11E-Linoleic acid
SYNON: $:00in-source
DB#: MetaboBASE1011
InChIKey: JBYXPOFIGCOSSB-XBLVEGMJSA-N
Precursor_type: [M-H]-
Spectrum_type: MS2
PrecursorMZ: 279.2339
Instrument_type: LC-ESI-TOF
Instrument: impact HD
Ion_mode: N
Collision_energy: 30
InChIKey: JBYXPOFIGCOSSB-XBLVEGMJSA-N
Formula: C18H32O2
MW: 280
ExactMass: 280.240230264
Comments: "license=License CC-BY-NC-SA 4.0 International" "author=Plant Biology, The Noble Foundation, Ardmore, OK, US/Dennis Fine, Daniel Wherritt, and Lloyd Sumner" "instrument type=LC-ESI-TOF" "instrument=impact HD" "ionization=ESI" "ionization mode=negative" "ms level=MS2" "precursor m/z=279.2339" "isolation width=5" "collision gas=Nitrogen" "collision energy=30" "peak width=0.019" "date=2014-10-09 00:46:48+02:00" "column=Waters Acquity BEH C18 1.7um x 2.1 x 150 mm" "retention time=1852.8" "raw data file=C:\Data\Confirmed standards 6_Oct_2014\9E,11E-Linoleic acid MSMS_1-D,2_01_983.d" "precursor type=[M-H]-" "mass accuracy=3.386895359072023" "mass error=9.457360000055814E-4" "cas number=1839-11-8" "SMILES=CCCCCC/C=C/C=C/CCCCCCCC(=O)O" "InChI=InChI=1S/C18H32O2/c1-2-3-4-5-6-7-8-9-10-11-12-13-14-15-16-17-18(19)20/h7-10H,2-6,11-17H2,1H3,(H,19,20)/b8-7+,10-9+" "InChIKey=JBYXPOFIGCOSSB-XBLVEGMJSA-N" "molecular formula=C18H32O2" "total exact mass=280.240230264" "SMILES=CCCCCCC=CC=CCCCCCCCC(=O)O"
Num Peaks: 2
 279 100.000000; 
 280 17.917918; 


Name: 9E, 11E-Linoleic acid
SYNON: $:00in-source
DB#: MetaboBASE1012
InChIKey: JBYXPOFIGCOSSB-XBLVEGMJSA-N
Instrument_type: LC-ESI-TOF
Instrument: impact HD
Ion_mode: N
InChIKey: JBYXPOFIGCOSSB-XBLVEGMJSA-N
Formula: C18H32O2
MW: 280
ExactMass: 280.240230264
Comments: "license=License CC-BY-NC-SA 4.0 International" "author=Plant Biology, The Noble Foundation, Ardmore, OK, US/Dennis Fine, Daniel Wherritt, and Lloyd Sumner" "instrument type=LC-ESI-TOF" "instrument=impact HD" "ionization=ESI" "ionization mode=negative" "collision gas=Nitrogen" "peak width=0.016" "date=2014-10-09 00:46:48+02:00" "column=Waters Acquity BEH C18 1.7um x 2.1 x 150 mm" "retention time=1852.8" "raw data file=C:\Data\Confirmed standards 6_Oct_2014\9E,11E-Linoleic acid MSMS_1-D,2_01_983.d" "cas number=1839-11-8" "SMILES=CCCCCC/C=C/C=C/CCCCCCCC(=O)O" "InChI=InChI=1S/C18H32O2/c1-2-3-4-5-6-7-8-9-10-11-12-13-14-15-16-17-18(19)20/h7-10H,2-6,11-17H2,1H3,(H,19,20)/b8-7+,10-9+" "InChIKey=JBYXPOFIGCOSSB-XBLVEGMJSA-N" "molecular formula=C18H32O2" "total exact mass=280.240230264" "SMILES=CCCCCCC=CC=CCCCCCCCC(=O)O"
Num Peaks: 6
 279 100.000000; 
 280 18.118118; 
 347 5.205205; 
 379 9.709710; 
 581 8.608609; 
 582 3.503504; 


Name: 9-Trans-Palmitelaidic acid
SYNON: $:00in-source
DB#: MetaboBASE1013
InChIKey: SECPZKHBENQXJG-BQYQJAHWSA-N
Instrument_type: LC-ESI-TOF
Instrument: impact HD
Ion_mode: N
InChIKey: SECPZKHBENQXJG-BQYQJAHWSA-N
Formula: C16H30O2
MW: 254
ExactMass: 254.2245802
Comments: "license=License CC-BY-NC-SA 4.0 International" "author=Plant Biology, The Noble Foundation, Ardmore, OK, US/Dennis Fine, Daniel Wherritt, and Lloyd Sumner" "instrument type=LC-ESI-TOF" "instrument=impact HD" "ionization=ESI" "ionization mode=negative" "collision gas=Nitrogen" "peak width=0.013" "date=2014-10-09 01:27:41+02:00" "column=Waters Acquity BEH C18 1.7um x 2.1 x 150 mm" "retention time=1761.6" "raw data file=C:\Data\Confirmed standards 6_Oct_2014\9-t-Palmitelaidic acid MSMS_1-D,3_01_984.d" "cas number=10030-73-6" "SMILES=CCCCCC/C=C/CCCCCCCC(=O)O" "InChI=InChI=1S/C16H30O2/c1-2-3-4-5-6-7-8-9-10-11-12-13-14-15-16(17)18/h7-8H,2-6,9-15H2,1H3,(H,17,18)/b8-7+" "InChIKey=SECPZKHBENQXJG-BQYQJAHWSA-N" "molecular formula=C16H30O2" "total exact mass=254.2245802" "SMILES=CCCCCCC=CCCCCCCCC(=O)O"
Num Peaks: 5
 253 100.000000; 
 254 15.015015; 
 321 6.406406; 
 353 5.705706; 
 529 6.606607; 


Name: 9-Trans-Palmitelaidic acid
SYNON: $:00in-source
DB#: MetaboBASE1014
InChIKey: SECPZKHBENQXJG-BQYQJAHWSA-N
Instrument_type: LC-ESI-TOF
Instrument: impact HD
Ion_mode: N
Collision_energy: 10
InChIKey: SECPZKHBENQXJG-BQYQJAHWSA-N
Formula: C16H30O2
MW: 254
ExactMass: 254.2245802
Comments: "license=License CC-BY-NC-SA 4.0 International" "author=Plant Biology, The Noble Foundation, Ardmore, OK, US/Dennis Fine, Daniel Wherritt, and Lloyd Sumner" "instrument type=LC-ESI-TOF" "instrument=impact HD" "ionization=ESI" "ionization mode=negative" "collision gas=Nitrogen" "collision energy=10" "peak width=0.015" "date=2014-10-08 00:41:36+02:00" "column=Waters Acquity BEH C18 1.7um x 2.1 x 150 mm" "retention time=1761.6" "raw data file=C:\Data\Confirmed standards 6_Oct_2014\9-t-Palmitelaidic acid vial397_1-D,3_01_950.d" "cas number=10030-73-6" "SMILES=CCCCCC/C=C/CCCCCCCC(=O)O" "InChI=InChI=1S/C16H30O2/c1-2-3-4-5-6-7-8-9-10-11-12-13-14-15-16(17)18/h7-8H,2-6,9-15H2,1H3,(H,17,18)/b8-7+" "InChIKey=SECPZKHBENQXJG-BQYQJAHWSA-N" "molecular formula=C16H30O2" "total exact mass=254.2245802" "SMILES=CCCCCCC=CCCCCCCCC(=O)O"
Num Peaks: 15
 128 0.600601; 
 161 0.700701; 
 253 100.000000; 
 254 18.318318; 
 255 2.102102; 
 321 3.403403; 
 322 0.600601; 
 351 0.700701; 
 353 15.515516; 
 354 4.604605; 
 355 1.101101; 
 404 0.800801; 
 529 9.909910; 
 530 3.603604; 
 531 0.700701; 


Name: 9-Trans-Palmitelaidic acid
SYNON: $:00in-source
DB#: MetaboBASE1015
InChIKey: SECPZKHBENQXJG-BQYQJAHWSA-N
Precursor_type: [M-H]-
Spectrum_type: MS2
PrecursorMZ: 253.2181
Instrument_type: LC-ESI-TOF
Instrument: impact HD
Ion_mode: N
Collision_energy: 20
InChIKey: SECPZKHBENQXJG-BQYQJAHWSA-N
Formula: C16H30O2
MW: 254
ExactMass: 254.2245802
Comments: "license=License CC-BY-NC-SA 4.0 International" "author=Plant Biology, The Noble Foundation, Ardmore, OK, US/Dennis Fine, Daniel Wherritt, and Lloyd Sumner" "instrument type=LC-ESI-TOF" "instrument=impact HD" "ionization=ESI" "ionization mode=negative" "ms level=MS2" "precursor m/z=253.2181" "isolation width=5" "collision gas=Nitrogen" "collision energy=20" "peak width=0.016" "date=2014-10-09 01:27:41+02:00" "column=Waters Acquity BEH C18 1.7um x 2.1 x 150 mm" "retention time=1761.6" "raw data file=C:\Data\Confirmed standards 6_Oct_2014\9-t-Palmitelaidic acid MSMS_1-D,3_01_984.d" "precursor type=[M-H]-" "mass accuracy=3.1427453250446415" "mass error=7.957999999916865E-4" "cas number=10030-73-6" "SMILES=CCCCCC/C=C/CCCCCCCC(=O)O" "InChI=InChI=1S/C16H30O2/c1-2-3-4-5-6-7-8-9-10-11-12-13-14-15-16(17)18/h7-8H,2-6,9-15H2,1H3,(H,17,18)/b8-7+" "InChIKey=SECPZKHBENQXJG-BQYQJAHWSA-N" "molecular formula=C16H30O2" "total exact mass=254.2245802" "SMILES=CCCCCCC=CCCCCCCCC(=O)O"
Num Peaks: 2
 253 100.000000; 
 254 11.211211; 


Name: 9-Trans-Palmitelaidic acid
SYNON: $:00in-source
DB#: MetaboBASE1016
InChIKey: SECPZKHBENQXJG-BQYQJAHWSA-N
Precursor_type: [M-H]-
Spectrum_type: MS2
PrecursorMZ: 253.2183
Instrument_type: LC-ESI-TOF
Instrument: impact HD
Ion_mode: N
Collision_energy: 10
InChIKey: SECPZKHBENQXJG-BQYQJAHWSA-N
Formula: C16H30O2
MW: 254
ExactMass: 254.2245802
Comments: "license=License CC-BY-NC-SA 4.0 International" "author=Plant Biology, The Noble Foundation, Ardmore, OK, US/Dennis Fine, Daniel Wherritt, and Lloyd Sumner" "instrument type=LC-ESI-TOF" "instrument=impact HD" "ionization=ESI" "ionization mode=negative" "ms level=MS2" "precursor m/z=253.2183" "isolation width=5" "collision gas=Nitrogen" "collision energy=10" "peak width=0.013" "date=2014-10-09 01:27:41+02:00" "column=Waters Acquity BEH C18 1.7um x 2.1 x 150 mm" "retention time=1761.6" "raw data file=C:\Data\Confirmed standards 6_Oct_2014\9-t-Palmitelaidic acid MSMS_1-D,3_01_984.d" "precursor type=[M-H]-" "mass accuracy=3.9325751732727285" "mass error=9.957999999983258E-4" "cas number=10030-73-6" "SMILES=CCCCCC/C=C/CCCCCCCC(=O)O" "InChI=InChI=1S/C16H30O2/c1-2-3-4-5-6-7-8-9-10-11-12-13-14-15-16(17)18/h7-8H,2-6,9-15H2,1H3,(H,17,18)/b8-7+" "InChIKey=SECPZKHBENQXJG-BQYQJAHWSA-N" "molecular formula=C16H30O2" "total exact mass=254.2245802" "SMILES=CCCCCCC=CCCCCCCCC(=O)O"
Num Peaks: 2
 253 100.000000; 
 254 11.311311; 


Name: 9-Trans-Palmitelaidic acid
SYNON: $:00in-source
DB#: MetaboBASE1017
InChIKey: SECPZKHBENQXJG-BQYQJAHWSA-N
Precursor_type: [M-H]-
Spectrum_type: MS2
PrecursorMZ: 253.2167
Instrument_type: LC-ESI-TOF
Instrument: impact HD
Ion_mode: N
Collision_energy: 30
InChIKey: SECPZKHBENQXJG-BQYQJAHWSA-N
Formula: C16H30O2
MW: 254
ExactMass: 254.2245802
Comments: "license=License CC-BY-NC-SA 4.0 International" "author=Plant Biology, The Noble Foundation, Ardmore, OK, US/Dennis Fine, Daniel Wherritt, and Lloyd Sumner" "instrument type=LC-ESI-TOF" "instrument=impact HD" "ionization=ESI" "ionization mode=negative" "ms level=MS2" "precursor m/z=253.2167" "isolation width=5" "collision gas=Nitrogen" "collision energy=30" "peak width=0.011" "date=2014-10-09 01:27:41+02:00" "column=Waters Acquity BEH C18 1.7um x 2.1 x 150 mm" "retention time=1761.6" "raw data file=C:\Data\Confirmed standards 6_Oct_2014\9-t-Palmitelaidic acid MSMS_1-D,3_01_984.d" "precursor type=[M-H]-" "mass accuracy=2.386098547204609" "mass error=-6.041999999979453E-4" "cas number=10030-73-6" "SMILES=CCCCCC/C=C/CCCCCCCC(=O)O" "InChI=InChI=1S/C16H30O2/c1-2-3-4-5-6-7-8-9-10-11-12-13-14-15-16(17)18/h7-8H,2-6,9-15H2,1H3,(H,17,18)/b8-7+" "InChIKey=SECPZKHBENQXJG-BQYQJAHWSA-N" "molecular formula=C16H30O2" "total exact mass=254.2245802" "SMILES=CCCCCCC=CCCCCCCCC(=O)O"
Num Peaks: 13
 253 100.000000; 
 713 16.116116; 
 856 15.815816; 
 1022 18.918919; 
 1115 20.620621; 
 1119 17.117117; 
 1128 16.616617; 
 1195 15.015015; 
 1242 17.617618; 
 1450 16.116116; 
 1486 16.316316; 
 1489 16.816817; 
 1489 16.816817; 


Name: Pinolenic acid
SYNON: $:00in-source
DB#: MetaboBASE1018
InChIKey: HXQHFNIKBKZGRP-URPRIDOGSA-N
Precursor_type: [M-H]-
Spectrum_type: MS2
PrecursorMZ: 277.2183
Instrument_type: LC-ESI-TOF
Instrument: impact HD
Ion_mode: N
Collision_energy: 10
InChIKey: HXQHFNIKBKZGRP-URPRIDOGSA-N
Formula: C18H30O2
MW: 278
ExactMass: 278.2245802
Comments: "license=License CC-BY-NC-SA 4.0 International" "author=Plant Biology, The Noble Foundation, Ardmore, OK, US/Dennis Fine, Daniel Wherritt, and Lloyd Sumner" "instrument type=LC-ESI-TOF" "instrument=impact HD" "ionization=ESI" "ionization mode=negative" "ms level=MS2" "precursor m/z=277.2183" "isolation width=5" "collision gas=Nitrogen" "collision energy=10" "peak width=0.012" "date=2014-10-09 02:08:33+02:00" "column=Waters Acquity BEH C18 1.7um x 2.1 x 150 mm" "retention time=1705.8" "raw data file=C:\Data\Confirmed standards 6_Oct_2014\Pinolenic acid vial 398 MSMS_1-D,4_01_985.d" "precursor type=[M-H]-" "mass accuracy=3.592114950558191" "mass error=9.957999999983258E-4" "cas number=16833-54-8" "SMILES=CCCCC/C=C\C/C=C\CC/C=C\CCCC(=O)O" "InChI=InChI=1S/C18H30O2/c1-2-3-4-5-6-7-8-9-10-11-12-13-14-15-16-17-18(19)20/h6-7,9-10,13-14H,2-5,8,11-12,15-17H2,1H3,(H,19,20)/b7-6-,10-9-,14-13-" "InChIKey=HXQHFNIKBKZGRP-URPRIDOGSA-N" "molecular formula=C18H30O2" "total exact mass=278.2245802" "SMILES=CCCCCC=CCC=CCCC=CCCCC(=O)O"
Num Peaks: 2
 277 100.000000; 
 278 15.215215; 


Name: Pinolenic acid
SYNON: $:00in-source
DB#: MetaboBASE1019
InChIKey: HXQHFNIKBKZGRP-URPRIDOGSA-N
Instrument_type: LC-ESI-TOF
Instrument: impact HD
Ion_mode: N
InChIKey: HXQHFNIKBKZGRP-URPRIDOGSA-N
Formula: C18H30O2
MW: 278
ExactMass: 278.2245802
Comments: "license=License CC-BY-NC-SA 4.0 International" "author=Plant Biology, The Noble Foundation, Ardmore, OK, US/Dennis Fine, Daniel Wherritt, and Lloyd Sumner" "instrument type=LC-ESI-TOF" "instrument=impact HD" "ionization=ESI" "ionization mode=negative" "collision gas=Nitrogen" "peak width=0.018" "date=2014-10-09 02:08:33+02:00" "column=Waters Acquity BEH C18 1.7um x 2.1 x 150 mm" "retention time=1705.8" "raw data file=C:\Data\Confirmed standards 6_Oct_2014\Pinolenic acid vial 398 MSMS_1-D,4_01_985.d" "cas number=16833-54-8" "SMILES=CCCCC/C=C\C/C=C\CC/C=C\CCCC(=O)O" "InChI=InChI=1S/C18H30O2/c1-2-3-4-5-6-7-8-9-10-11-12-13-14-15-16-17-18(19)20/h6-7,9-10,13-14H,2-5,8,11-12,15-17H2,1H3,(H,19,20)/b7-6-,10-9-,14-13-" "InChIKey=HXQHFNIKBKZGRP-URPRIDOGSA-N" "molecular formula=C18H30O2" "total exact mass=278.2245802" "SMILES=CCCCCC=CCC=CCCC=CCCCC(=O)O"
Num Peaks: 20
 112 3.003003; 
 128 2.202202; 
 248 4.204204; 
 277 100.000000; 
 278 18.418418; 
 279 2.502503; 
 279 2.202202; 
 285 5.905906; 
 316 2.602603; 
 345 11.611612; 
 346 2.802803; 
 353 4.904905; 
 415 2.202202; 
 428 2.102102; 
 556 9.009009; 
 577 6.606607; 
 578 3.003003; 
 645 2.502503; 
 666 3.903904; 
 877 2.202202; 


Name: Pinolenic acid
SYNON: $:00in-source
DB#: MetaboBASE1020
InChIKey: HXQHFNIKBKZGRP-URPRIDOGSA-N
Precursor_type: [M-H]-
Spectrum_type: MS2
PrecursorMZ: 277.2181
Instrument_type: LC-ESI-TOF
Instrument: impact HD
Ion_mode: N
Collision_energy: 20
InChIKey: HXQHFNIKBKZGRP-URPRIDOGSA-N
Formula: C18H30O2
MW: 278
ExactMass: 278.2245802
Comments: "license=License CC-BY-NC-SA 4.0 International" "author=Plant Biology, The Noble Foundation, Ardmore, OK, US/Dennis Fine, Daniel Wherritt, and Lloyd Sumner" "instrument type=LC-ESI-TOF" "instrument=impact HD" "ionization=ESI" "ionization mode=negative" "ms level=MS2" "precursor m/z=277.2181" "isolation width=5" "collision gas=Nitrogen" "collision energy=20" "peak width=0.015" "date=2014-10-09 02:08:33+02:00" "column=Waters Acquity BEH C18 1.7um x 2.1 x 150 mm" "retention time=1705.8" "raw data file=C:\Data\Confirmed standards 6_Oct_2014\Pinolenic acid vial 398 MSMS_1-D,4_01_985.d" "precursor type=[M-H]-" "mass accuracy=2.8706639284797295" "mass error=7.957999999916865E-4" "cas number=16833-54-8" "SMILES=CCCCC/C=C\C/C=C\CC/C=C\CCCC(=O)O" "InChI=InChI=1S/C18H30O2/c1-2-3-4-5-6-7-8-9-10-11-12-13-14-15-16-17-18(19)20/h6-7,9-10,13-14H,2-5,8,11-12,15-17H2,1H3,(H,19,20)/b7-6-,10-9-,14-13-" "InChIKey=HXQHFNIKBKZGRP-URPRIDOGSA-N" "molecular formula=C18H30O2" "total exact mass=278.2245802" "SMILES=CCCCCC=CCC=CCCC=CCCCC(=O)O"
Num Peaks: 3
 259 2.102102; 
 277 100.000000; 
 278 16.916917; 


Name: Pinolenic acid
SYNON: $:00in-source
DB#: MetaboBASE1021
InChIKey: HXQHFNIKBKZGRP-URPRIDOGSA-N
Precursor_type: [M-H]-
Spectrum_type: MS2
PrecursorMZ: 277.2181
Instrument_type: LC-ESI-TOF
Instrument: impact HD
Ion_mode: N
Collision_energy: 30
InChIKey: HXQHFNIKBKZGRP-URPRIDOGSA-N
Formula: C18H30O2
MW: 278
ExactMass: 278.2245802
Comments: "license=License CC-BY-NC-SA 4.0 International" "author=Plant Biology, The Noble Foundation, Ardmore, OK, US/Dennis Fine, Daniel Wherritt, and Lloyd Sumner" "instrument type=LC-ESI-TOF" "instrument=impact HD" "ionization=ESI" "ionization mode=negative" "ms level=MS2" "precursor m/z=277.2181" "isolation width=5" "collision gas=Nitrogen" "collision energy=30" "peak width=0.011" "date=2014-10-09 02:08:33+02:00" "column=Waters Acquity BEH C18 1.7um x 2.1 x 150 mm" "retention time=1705.8" "raw data file=C:\Data\Confirmed standards 6_Oct_2014\Pinolenic acid vial 398 MSMS_1-D,4_01_985.d" "precursor type=[M-H]-" "mass accuracy=2.8706639284797295" "mass error=7.957999999916865E-4" "cas number=16833-54-8" "SMILES=CCCCC/C=C\C/C=C\CC/C=C\CCCC(=O)O" "InChI=InChI=1S/C18H30O2/c1-2-3-4-5-6-7-8-9-10-11-12-13-14-15-16-17-18(19)20/h6-7,9-10,13-14H,2-5,8,11-12,15-17H2,1H3,(H,19,20)/b7-6-,10-9-,14-13-" "InChIKey=HXQHFNIKBKZGRP-URPRIDOGSA-N" "molecular formula=C18H30O2" "total exact mass=278.2245802" "SMILES=CCCCCC=CCC=CCCC=CCCCC(=O)O"
Num Peaks: 3
 277 100.000000; 
 278 20.020020; 
 435 18.418418; 


Name: Pinolenic acid
SYNON: $:00in-source
DB#: MetaboBASE1022
InChIKey: HXQHFNIKBKZGRP-URPRIDOGSA-N
Instrument_type: LC-ESI-TOF
Instrument: impact HD
Ion_mode: N
Collision_energy: 10
InChIKey: HXQHFNIKBKZGRP-URPRIDOGSA-N
Formula: C18H30O2
MW: 278
ExactMass: 278.2245802
Comments: "license=License CC-BY-NC-SA 4.0 International" "author=Plant Biology, The Noble Foundation, Ardmore, OK, US/Dennis Fine, Daniel Wherritt, and Lloyd Sumner" "instrument type=LC-ESI-TOF" "instrument=impact HD" "ionization=ESI" "ionization mode=negative" "collision gas=Nitrogen" "collision energy=10" "peak width=0.014" "date=2014-10-08 01:22:28+02:00" "column=Waters Acquity BEH C18 1.7um x 2.1 x 150 mm" "retention time=1705.8" "raw data file=C:\Data\Confirmed standards 6_Oct_2014\Pinolenic acid vial 398_1-D,4_01_951.d" "cas number=16833-54-8" "SMILES=CCCCC/C=C\C/C=C\CC/C=C\CCCC(=O)O" "InChI=InChI=1S/C18H30O2/c1-2-3-4-5-6-7-8-9-10-11-12-13-14-15-16-17-18(19)20/h6-7,9-10,13-14H,2-5,8,11-12,15-17H2,1H3,(H,19,20)/b7-6-,10-9-,14-13-" "InChIKey=HXQHFNIKBKZGRP-URPRIDOGSA-N" "molecular formula=C18H30O2" "total exact mass=278.2245802" "SMILES=CCCCCC=CCC=CCCC=CCCCC(=O)O"
Num Peaks: 13
 128 0.600601; 
 161 0.800801; 
 233 0.400400; 
 277 100.000000; 
 278 21.921922; 
 279 2.602603; 
 345 4.804805; 
 346 1.001001; 
 377 1.901902; 
 378 0.600601; 
 407 0.400400; 
 428 1.001001; 
 556 8.808809; 


Name: 9Z, 11E-Linoleic acid
SYNON: $:00in-source
DB#: MetaboBASE1023
InChIKey: JBYXPOFIGCOSSB-GOJKSUSPSA-N
Precursor_type: [M-H]-
Spectrum_type: MS2
PrecursorMZ: 279.2337
Instrument_type: LC-ESI-TOF
Instrument: impact HD
Ion_mode: N
Collision_energy: 10
InChIKey: JBYXPOFIGCOSSB-GOJKSUSPSA-N
Formula: C18H32O2
MW: 280
ExactMass: 280.240230264
Comments: "license=License CC-BY-NC-SA 4.0 International" "author=Plant Biology, The Noble Foundation, Ardmore, OK, US/Dennis Fine, Daniel Wherritt, and Lloyd Sumner" "instrument type=LC-ESI-TOF" "instrument=impact HD" "ionization=ESI" "ionization mode=negative" "ms level=MS2" "precursor m/z=279.2337" "isolation width=5" "collision gas=Nitrogen" "collision energy=10" "peak width=0.012" "date=2014-10-09 00:05:57+02:00" "column=Waters Acquity BEH C18 1.7um x 2.1 x 150 mm" "retention time=1820.4" "raw data file=C:\Data\Confirmed standards 6_Oct_2014\9Z,11E-Linoleic acid MSMS_1-D,1_01_982.d" "precursor type=[M-H]-" "mass accuracy=2.670651858994606" "mass error=7.457359999989421E-4" "cas number=2540-56-9" "SMILES=CCCCCC/C=C/C=C\CCCCCCCC(=O)O" "InChI=InChI=1S/C18H32O2/c1-2-3-4-5-6-7-8-9-10-11-12-13-14-15-16-17-18(19)20/h7-10H,2-6,11-17H2,1H3,(H,19,20)/b8-7+,10-9-" "InChIKey=JBYXPOFIGCOSSB-GOJKSUSPSA-N" "molecular formula=C18H32O2" "total exact mass=280.240230264" "SMILES=CCCCCCC=CC=CCCCCCCCC(=O)O"
Num Peaks: 2
 279 100.000000; 
 280 16.016016; 


Name: 9Z, 11E-Linoleic acid
SYNON: $:00in-source
DB#: MetaboBASE1024
InChIKey: JBYXPOFIGCOSSB-GOJKSUSPSA-N
Precursor_type: [M-H]-
Spectrum_type: MS2
PrecursorMZ: 279.2324
Instrument_type: LC-ESI-TOF
Instrument: impact HD
Ion_mode: N
Collision_energy: 30
InChIKey: JBYXPOFIGCOSSB-GOJKSUSPSA-N
Formula: C18H32O2
MW: 280
ExactMass: 280.240230264
Comments: "license=License CC-BY-NC-SA 4.0 International" "author=Plant Biology, The Noble Foundation, Ardmore, OK, US/Dennis Fine, Daniel Wherritt, and Lloyd Sumner" "instrument type=LC-ESI-TOF" "instrument=impact HD" "ionization=ESI" "ionization mode=negative" "ms level=MS2" "precursor m/z=279.2324" "isolation width=5" "collision gas=Nitrogen" "collision energy=30" "peak width=0.018" "date=2014-10-09 00:05:57+02:00" "column=Waters Acquity BEH C18 1.7um x 2.1 x 150 mm" "retention time=1820.4" "raw data file=C:\Data\Confirmed standards 6_Oct_2014\9Z,11E-Linoleic acid MSMS_1-D,1_01_982.d" "precursor type=[M-H]-" "mass accuracy=1.9849559005895867" "mass error=-5.542640000157917E-4" "cas number=2540-56-9" "SMILES=CCCCCC/C=C/C=C\CCCCCCCC(=O)O" "InChI=InChI=1S/C18H32O2/c1-2-3-4-5-6-7-8-9-10-11-12-13-14-15-16-17-18(19)20/h7-10H,2-6,11-17H2,1H3,(H,19,20)/b8-7+,10-9-" "InChIKey=JBYXPOFIGCOSSB-GOJKSUSPSA-N" "molecular formula=C18H32O2" "total exact mass=280.240230264" "SMILES=CCCCCCC=CC=CCCCCCCCC(=O)O"
Num Peaks: 2
 279 100.000000; 
 280 20.120120; 


Name: 9Z, 11E-Linoleic acid
SYNON: $:00in-source
DB#: MetaboBASE1025
InChIKey: JBYXPOFIGCOSSB-GOJKSUSPSA-N
Precursor_type: [M-H]-
Spectrum_type: MS2
PrecursorMZ: 279.2334
Instrument_type: LC-ESI-TOF
Instrument: impact HD
Ion_mode: N
Collision_energy: 20
InChIKey: JBYXPOFIGCOSSB-GOJKSUSPSA-N
Formula: C18H32O2
MW: 280
ExactMass: 280.240230264
Comments: "license=License CC-BY-NC-SA 4.0 International" "author=Plant Biology, The Noble Foundation, Ardmore, OK, US/Dennis Fine, Daniel Wherritt, and Lloyd Sumner" "instrument type=LC-ESI-TOF" "instrument=impact HD" "ionization=ESI" "ionization mode=negative" "ms level=MS2" "precursor m/z=279.2334" "isolation width=5" "collision gas=Nitrogen" "collision energy=20" "peak width=0.013" "date=2014-10-09 00:05:57+02:00" "column=Waters Acquity BEH C18 1.7um x 2.1 x 150 mm" "retention time=1820.4" "raw data file=C:\Data\Confirmed standards 6_Oct_2014\9Z,11E-Linoleic acid MSMS_1-D,1_01_982.d" "precursor type=[M-H]-" "mass accuracy=1.5962846852038648" "mass error=4.457360000174049E-4" "cas number=2540-56-9" "SMILES=CCCCCC/C=C/C=C\CCCCCCCC(=O)O" "InChI=InChI=1S/C18H32O2/c1-2-3-4-5-6-7-8-9-10-11-12-13-14-15-16-17-18(19)20/h7-10H,2-6,11-17H2,1H3,(H,19,20)/b8-7+,10-9-" "InChIKey=JBYXPOFIGCOSSB-GOJKSUSPSA-N" "molecular formula=C18H32O2" "total exact mass=280.240230264" "SMILES=CCCCCCC=CC=CCCCCCCCC(=O)O"
Num Peaks: 2
 279 100.000000; 
 280 16.616617; 


Name: 9Z, 11E-Linoleic acid
SYNON: $:00in-source
DB#: MetaboBASE1026
InChIKey: JBYXPOFIGCOSSB-GOJKSUSPSA-N
Instrument_type: LC-ESI-TOF
Instrument: impact HD
Ion_mode: N
InChIKey: JBYXPOFIGCOSSB-GOJKSUSPSA-N
Formula: C18H32O2
MW: 280
ExactMass: 280.240230264
Comments: "license=License CC-BY-NC-SA 4.0 International" "author=Plant Biology, The Noble Foundation, Ardmore, OK, US/Dennis Fine, Daniel Wherritt, and Lloyd Sumner" "instrument type=LC-ESI-TOF" "instrument=impact HD" "ionization=ESI" "ionization mode=negative" "collision gas=Nitrogen" "peak width=0.012" "date=2014-10-09 00:05:57+02:00" "column=Waters Acquity BEH C18 1.7um x 2.1 x 150 mm" "retention time=1820.4" "raw data file=C:\Data\Confirmed standards 6_Oct_2014\9Z,11E-Linoleic acid MSMS_1-D,1_01_982.d" "cas number=2540-56-9" "SMILES=CCCCCC/C=C/C=C\CCCCCCCC(=O)O" "InChI=InChI=1S/C18H32O2/c1-2-3-4-5-6-7-8-9-10-11-12-13-14-15-16-17-18(19)20/h7-10H,2-6,11-17H2,1H3,(H,19,20)/b8-7+,10-9-" "InChIKey=JBYXPOFIGCOSSB-GOJKSUSPSA-N" "molecular formula=C18H32O2" "total exact mass=280.240230264" "SMILES=CCCCCCC=CC=CCCCCCCCC(=O)O"
Num Peaks: 18
 279 100.000000; 
 280 21.521522; 
 281 2.602603; 
 347 7.207207; 
 348 1.601602; 
 379 4.504505; 
 380 1.501502; 
 415 0.500501; 
 430 1.501502; 
 556 5.405405; 
 557 0.700701; 
 581 10.510511; 
 582 4.304304; 
 583 1.001001; 
 611 0.600601; 
 649 3.503504; 
 650 1.401401; 
 666 2.302302; 


Name: 3-GluA-28-Xyl(1-4)Rha(1-2)Ara Medicagenic acid
SYNON: $:00in-source
DB#: MetaboBASE1027
InChIKey: RPWKGRUCXRZSSG-YJCAFWCGSA-N
Spectrum_type: MS2
PrecursorMZ: 1087.51
Instrument_type: LC-ESI-TOF
Instrument: impact HD
Ion_mode: N
Collision_energy: 59.5317
InChIKey: RPWKGRUCXRZSSG-YJCAFWCGSA-N
Formula: C52H80O24
MW: 1088
ExactMass: 1088.5039534399998
Comments: "license=License CC-BY-NC-SA 4.0 International" "author=Plant Biology, The Noble Foundation, Ardmore, OK, US/Dennis Fine, Daniel Wherritt, and Lloyd Sumner" "instrument type=LC-ESI-TOF" "instrument=impact HD" "ionization=ESI" "ionization mode=negative" "ms level=MS2" "precursor m/z=1087.51" "isolation width=10.8751" "collision energy=59.5317" "collision energy 2=99.2195" "peak width=0.014" "date=2014-02-20 15:54:38+01:00" "column=Waters Acquity BEH C18 1.7um x 2.1 x 150 mm" "retention time=797.4" "raw data file=C:\Data\2014Feb20 Lignin extr LCMSMS\CCR1 20634 leaf WT-1 MSMS.d" "Last Auto-Curation=1505110224445" "SMILES=[C@H]1([C@@H]([C@@](C2[C@](C1)(C1[C@@](CC2)([C@]2(C(=CC1)[C@H]1[C@@](CC2)(CCC(C1)(C)C)C(=O)O[C@H]1[C@@H]([C@H]([C@H](CO1)O)O)O[C@H]1[C@@H]([C@@H]([C@H]([C@@H](O1)C)O[C@H]1[C@@H]([C@H]([C@@H](CO1)O)O)O)O)O)C)C)C)(C)C(=O)O)O[C@@H]1O[C@@H]([C@H]([C@@H]([C@H]1O)O)O)C(=O)O)O" "InChI=InChI=1S/C52H80O24/c1-20-36(72-41-33(61)28(56)24(54)18-69-41)32(60)35(63)42(71-20)74-38-29(57)25(55)19-70-44(38)76-46(68)52-14-12-47(2,3)16-22(52)21-8-9-26-48(4)17-23(53)39(75-43-34(62)30(58)31(59)37(73-43)40(64)65)51(7,45(66)67)27(48)10-11-50(26,6)49(21,5)13-15-52/h8,20,22-39,41-44,53-63H,9-19H2,1-7H3,(H,64,65)(H,66,67)/t20-,22-,23-,24+,25-,26?,27?,28-,29-,30-,31-,32-,33+,34+,35+,36-,37-,38+,39-,41-,42-,43-,44-,48+,49+,50+,51-,52-/m0/s1" "InChIKey=RPWKGRUCXRZSSG-YJCAFWCGSA-N" "molecular formula=C52H80O24" "total exact mass=1088.5039534399998" "SMILES=[H]OC(=O)C1([H])OC([H])(OC2([H])C([H])(O[H])C([H])([H])C3(C([H])([H])[H])C([H])(C([H])([H])C([H])([H])C4(C([H])([H])[H])C3([H])C([H])([H])C([H])=C5C6([H])C([H])([H])C(C([H])([H])[H])(C([H])([H])[H])C([H])([H])C([H])([H])C6(C(=O)OC7([H])OC([H])([H])C([H])(O[H])C([H])(O[H])C7([H])OC8([H])OC([H])(C([H])([H])[H])C([H])(OC9([H])OC([H])([H])C([H])(O[H])C([H])(O[H])C9([H])O[H])C([H])(O[H])C8([H])O[H])C([H])([H])C([H])([H])C54C([H])([H])[H])C2(C(=O)O[H])C([H])([H])[H])C([H])(O[H])C([H])(O[H])C1([H])O[H]"
Num Peaks: 52
 95 1.101101; 
 99 0.200200; 
 101 4.304304; 
 102 0.300300; 
 103 4.804805; 
 104 0.200200; 
 113 18.418418; 
 114 1.201201; 
 115 0.300300; 
 119 0.300300; 
 129 0.700701; 
 131 5.605606; 
 132 0.300300; 
 133 3.503504; 
 134 0.200200; 
 149 0.300300; 
 157 1.201201; 
 163 0.900901; 
 164 0.200200; 
 175 2.102102; 
 193 66.566567; 
 194 4.404404; 
 195 0.700701; 
 196 0.100100; 
 207 0.100100; 
 439 0.700701; 
 440 0.200200; 
 483 0.300300; 
 484 0.200200; 
 501 3.303303; 
 502 1.101101; 
 503 0.300300; 
 596 0.100100; 
 677 0.600601; 
 678 0.300300; 
 798 0.100100; 
 911 2.702703; 
 912 0.900901; 
 913 0.400400; 
 1084 0.100100; 
 1087 0.300300; 
 1087 0.200200; 
 1087 100.000000; 
 1088 0.200200; 
 1088 0.200200; 
 1088 55.255255; 
 1088 0.100100; 
 1089 19.919920; 
 1089 0.100100; 
 1090 2.702703; 
 1091 0.800801; 
 1519 0.100100; 


Name: 3-GluA-28-Xyl(1-4)Rha(1-2)Ara Medicagenic acid
SYNON: $:00in-source
DB#: MetaboBASE1028
InChIKey: RPWKGRUCXRZSSG-YJCAFWCGSA-N
Instrument_type: LC-ESI-TOF
Instrument: impact HD
Ion_mode: N
InChIKey: RPWKGRUCXRZSSG-YJCAFWCGSA-N
Formula: C52H80O24
MW: 1088
ExactMass: 1088.50395344
Comments: "license=License CC-BY-NC-SA 4.0 International" "author=Plant Biology, The Noble Foundation, Ardmore, OK, US/Dennis Fine, Daniel Wherritt, and Lloyd Sumner" "instrument type=LC-ESI-TOF" "instrument=impact HD" "ionization=ESI" "ionization mode=negative" "peak width=0.011" "date=2014-02-20 15:54:38+01:00" "column=Waters Acquity BEH C18 1.7um x 2.1 x 150 mm" "retention time=797.4" "raw data file=C:\Data\2014Feb20 Lignin extr LCMSMS\CCR1 20634 leaf WT-1 MSMS.d" "annotformula=1087.4971;         C52H79O24" "annotformula=1632.2510;         C50H72O60" "annotformula=1632.7539;         C25H21O82" "Last Auto-Curation=1505111568845" "SMILES=[C@H]1([C@@H]([C@@](C2[C@](C1)(C1[C@@](CC2)([C@]2(C(=CC1)[C@H]1[C@@](CC2)(CCC(C1)(C)C)C(=O)O[C@H]1[C@@H]([C@H]([C@H](CO1)O)O)O[C@H]1[C@@H]([C@@H]([C@H]([C@@H](O1)C)O[C@H]1[C@@H]([C@H]([C@@H](CO1)O)O)O)O)O)C)C)C)(C)C(=O)O)O[C@@H]1O[C@@H]([C@H]([C@@H]([C@H]1O)O)O)C(=O)O)O" "InChI=InChI=1S/C52H80O24/c1-20-36(72-41-33(61)28(56)24(54)18-69-41)32(60)35(63)42(71-20)74-38-29(57)25(55)19-70-44(38)76-46(68)52-14-12-47(2,3)16-22(52)21-8-9-26-48(4)17-23(53)39(75-43-34(62)30(58)31(59)37(73-43)40(64)65)51(7,45(66)67)27(48)10-11-50(26,6)49(21,5)13-15-52/h8,20,22-39,41-44,53-63H,9-19H2,1-7H3,(H,64,65)(H,66,67)/t20-,22-,23-,24+,25-,26?,27?,28-,29-,30-,31-,32-,33+,34+,35+,36-,37-,38+,39-,41-,42-,43-,44-,48+,49+,50+,51-,52-/m0/s1" "InChIKey=RPWKGRUCXRZSSG-YJCAFWCGSA-N" "molecular formula=C52H80O24" "total exact mass=1088.50395344" "SMILES=[H]OC(=O)C1([H])OC([H])(OC2([H])C([H])(O[H])C([H])([H])C3(C([H])([H])[H])C([H])(C([H])([H])C([H])([H])C4(C([H])([H])[H])C3([H])C([H])([H])C([H])=C5C6([H])C([H])([H])C(C([H])([H])[H])(C([H])([H])[H])C([H])([H])C([H])([H])C6(C(=O)OC7([H])OC([H])([H])C([H])(O[H])C([H])(O[H])C7([H])OC8([H])OC([H])(C([H])([H])[H])C([H])(OC9([H])OC([H])([H])C([H])(O[H])C([H])(O[H])C9([H])O[H])C([H])(O[H])C8([H])O[H])C([H])([H])C([H])([H])C54C([H])([H])[H])C2(C(=O)O[H])C([H])([H])[H])C([H])(O[H])C([H])(O[H])C1([H])O[H]"
Num Peaks: 95
 477 0.200200; 
 477 0.100100; 
 543 0.500501; 
 543 0.200200; 
 955 1.101101; 
 956 0.500501; 
 1021 0.400400; 
 1021 0.500501; 
 1022 0.300300; 
 1087 0.200200; 
 1087 0.100100; 
 1087 0.100100; 
 1087 100.000000; 
 1087 0.100100; 
 1088 0.100100; 
 1088 0.100100; 
 1088 57.157157; 
 1089 19.219219; 
 1090 4.004004; 
 1091 0.600601; 
 1106 0.200200; 
 1106 0.200200; 
 1107 0.200200; 
 1109 1.101101; 
 1109 0.100100; 
 1110 0.600601; 
 1111 0.200200; 
 1113 0.200200; 
 1114 0.300300; 
 1114 0.100100; 
 1114 0.100100; 
 1186 0.200200; 
 1187 0.800801; 
 1188 0.500501; 
 1189 0.200200; 
 1235 0.100100; 
 1565 0.500501; 
 1566 0.900901; 
 1566 0.800801; 
 1567 0.500501; 
 1567 0.300300; 
 1631 7.307307; 
 1632 13.713714; 
 1632 0.100100; 
 1632 12.912913; 
 1633 7.907908; 
 1633 3.803804; 
 1634 1.201201; 
 1634 0.500501; 
 1635 0.300300; 
 1642 0.300300; 
 1643 0.500501; 
 1643 0.100100; 
 1643 0.500501; 
 1644 0.300300; 
 1644 0.100100; 
 1644 0.100100; 
 1645 0.100100; 
 1658 0.200200; 
 1659 0.200200; 
 1682 0.200200; 
 1705 0.100100; 
 1706 0.300300; 
 1706 0.200200; 
 1707 0.300300; 
 1769 0.400400; 
 1769 0.400400; 
 1770 0.400400; 
 1770 0.400400; 
 1770 0.200200; 
 1813 0.600601; 
 1813 1.901902; 
 1813 3.203203; 
 1814 3.203203; 
 1814 2.602603; 
 1814 1.701702; 
 1815 1.001001; 
 1815 0.400400; 
 1815 0.300300; 
 1816 0.100100; 
 1820 0.100100; 
 1821 0.200200; 
 1821 0.200200; 
 1821 0.100100; 
 1822 0.100100; 
 1863 0.100100; 
 1863 0.100100; 
 1863 0.100100; 
 1864 0.100100; 
 1904 0.200200; 
 1904 0.300300; 
 1904 0.400400; 
 1905 0.400400; 
 1905 0.300300; 
 1905 0.200200; 


Name: 3-Glu(1-3)GluA-28-Xyl(1-4)[Api(1-3)]Rha(1-2)Ara Medicagenic acid
SYNON: $:00in-source
DB#: MetaboBASE1029
InChIKey: TXOSKRBRXVSPJN-WTWXDXNZSA-N
Spectrum_type: MS2
PrecursorMZ: 1381.61
Instrument_type: LC-ESI-TOF
Instrument: impact HD
Ion_mode: N
Collision_energy: 70.5601
InChIKey: TXOSKRBRXVSPJN-WTWXDXNZSA-N
Formula: C63H98O33
MW: 1382
ExactMass: 1382.599035596
Comments: "license=License CC-BY-NC-SA 4.0 International" "author=Plant Biology, The Noble Foundation, Ardmore, OK, US/Dennis Fine, Daniel Wherritt, and Lloyd Sumner" "instrument type=LC-ESI-TOF" "instrument=impact HD" "ionization=ESI" "ionization mode=negative" "ms level=MS2" "precursor m/z=1381.61" "collision energy=70.5601" "collision energy 2=117.6" "peak width=0.015" "date=2014-02-20 15:13:46+01:00" "column=Waters Acquity BEH C18 1.7um x 2.1 x 150 mm" "retention time=768" "raw data file=C:\Data\2014Feb20 Lignin extr LCMSMS\CCR1 20634 leaf Homo-1 MSMS.d" "Last Auto-Curation=1505110225676" "SMILES=[C@H]1([C@@H]([C@@](C2[C@](C1)(C1[C@@](CC2)([C@]2(C(=CC1)[C@H]1[C@@](CC2)(CCC(C1)(C)C)C(=O)O[C@H]1[C@@H]([C@H]([C@H](CO1)O)O)O[C@H]1[C@@H]([C@@H]([C@H]([C@@H](O1)C)O[C@H]1[C@@H]([C@H]([C@@H](CO1)O)O)O)O[C@@H]1OC[C@]([C@H]1O)(O)CO)O)C)C)C)(C)C(=O)O)O[C@@H]1O[C@@H]([C@H]([C@@H]([C@H]1O)O[C@@H]1O[C@@H]([C@H]([C@@H]([C@H]1O)O)O)CO)O)C(=O)O)O" "InChI=InChI=1S/C63H98O33/c1-23-41(90-49-36(73)32(69)27(67)19-85-49)43(92-54-46(78)63(84,21-65)22-87-54)40(77)51(88-23)94-45-33(70)28(68)20-86-53(45)96-56(83)62-14-12-57(2,3)16-25(62)24-8-9-30-58(4)17-26(66)47(61(7,55(81)82)31(58)10-11-60(30,6)59(24,5)13-15-62)95-52-39(76)42(38(75)44(93-52)48(79)80)91-50-37(74)35(72)34(71)29(18-64)89-50/h8,23,25-47,49-54,64-78,84H,9-22H2,1-7H3,(H,79,80)(H,81,82)/t23-,25-,26-,27+,28-,29+,30?,31?,32-,33-,34+,35-,36+,37+,38-,39+,40+,41-,42-,43-,44-,45+,46-,47-,49-,50-,51-,52-,53-,54-,58+,59+,60+,61-,62-,63+/m0/s1" "InChIKey=TXOSKRBRXVSPJN-WTWXDXNZSA-N" "molecular formula=C63H98O33" "total exact mass=1382.599035596" "SMILES=[H]OC(=O)C1([H])OC([H])(OC2([H])C([H])(O[H])C([H])([H])C3(C([H])([H])[H])C4([H])C([H])([H])C([H])=C5C6([H])C([H])([H])C(C([H])([H])[H])(C([H])([H])[H])C([H])([H])C([H])([H])C6(C(=O)OC7([H])OC([H])([H])C([H])(O[H])C([H])(O[H])C7([H])OC8([H])OC([H])(C([H])([H])[H])C([H])(OC9([H])OC([H])([H])C([H])(O[H])C([H])(O[H])C9([H])O[H])C([H])(OC%10([H])OC([H])([H])C(O[H])(C([H])([H])O[H])C%10([H])O[H])C8([H])O[H])C([H])([H])C([H])([H])C5(C([H])([H])[H])C4(C([H])([H])[H])C([H])([H])C([H])([H])C3([H])C2(C(=O)O[H])C([H])([H])[H])C([H])(O[H])C([H])(OC%11([H])OC([H])(C([H])([H])O[H])C([H])(O[H])C([H])(O[H])C%11([H])O[H])C1([H])O[H]"
Num Peaks: 76
 99 0.100100; 
 101 0.500501; 
 103 0.900901; 
 113 40.640641; 
 114 2.302302; 
 115 0.100100; 
 115 0.100100; 
 119 0.200200; 
 131 0.100100; 
 149 0.100100; 
 161 0.100100; 
 175 0.100100; 
 175 15.615616; 
 176 1.001001; 
 176 0.300300; 
 177 0.100100; 
 179 0.800801; 
 180 0.100100; 
 293 0.100100; 
 293 0.100100; 
 337 0.900901; 
 338 0.100100; 
 355 4.204204; 
 356 0.500501; 
 357 0.100100; 
 425 0.100100; 
 437 0.100100; 
 439 0.700701; 
 440 0.100100; 
 469 0.100100; 
 483 0.100100; 
 484 0.100100; 
 501 2.102102; 
 502 0.600601; 
 502 0.200200; 
 503 0.100100; 
 503 0.100100; 
 579 0.100100; 
 733 0.100100; 
 839 0.600601; 
 840 0.400400; 
 1043 2.302302; 
 1044 0.100100; 
 1044 1.101101; 
 1045 0.400400; 
 1046 0.100100; 
 1380 0.100100; 
 1380 0.100100; 
 1381 0.100100; 
 1381 0.100100; 
 1381 0.300300; 
 1381 0.100100; 
 1381 100.000000; 
 1381 0.200200; 
 1381 0.100100; 
 1382 0.100100; 
 1382 0.100100; 
 1382 0.200200; 
 1382 65.765766; 
 1382 0.100100; 
 1382 0.100100; 
 1383 0.100100; 
 1383 0.100100; 
 1383 0.100100; 
 1383 23.823824; 
 1383 0.300300; 
 1384 0.100100; 
 1384 6.806807; 
 1384 0.100100; 
 1384 0.100100; 
 1385 0.400400; 
 1385 1.401401; 
 1386 0.100100; 
 1386 0.100100; 
 1389 0.100100; 
 1405 0.100100; 


Name: 3-Glu(1-3)GluA-28-Xyl(1-4)[Api(1-3)]Rha(1-2)Ara Medicagenic acid
SYNON: $:00in-source
DB#: MetaboBASE1030
InChIKey: TXOSKRBRXVSPJN-WTWXDXNZSA-N
Instrument_type: LC-ESI-TOF
Instrument: impact HD
Ion_mode: N
Collision_energy: 10
InChIKey: TXOSKRBRXVSPJN-WTWXDXNZSA-N
Formula: C63H98O33
MW: 1382
ExactMass: 1382.599035596
Comments: "license=License CC-BY-NC-SA 4.0 International" "author=Plant Biology, The Noble Foundation, Ardmore, OK, US/Dennis Fine, Daniel Wherritt, and Lloyd Sumner" "instrument type=LC-ESI-TOF" "instrument=impact HD" "ionization=ESI" "ionization mode=negative" "collision energy=10" "peak width=0.022" "date=2015-02-04 01:41:50+01:00" "column=Waters Acquity BEH C18 1.7um x 2.1 x 150 mm" "retention time=768.6" "raw data file=G:\Sumner Lab Data Management Workspace Jun2013\Projects\NSF-JST Metabolomics Nov2011-Sep2014\UPLC-MS-MSMS\2015Mar17 R108 A17 root aerial for poster\A17 aerial" "Last Auto-Curation=1505110226619" "SMILES=[C@H]1([C@@H]([C@@](C2[C@](C1)(C1[C@@](CC2)([C@]2(C(=CC1)[C@H]1[C@@](CC2)(CCC(C1)(C)C)C(=O)O[C@H]1[C@@H]([C@H]([C@H](CO1)O)O)O[C@H]1[C@@H]([C@@H]([C@H]([C@@H](O1)C)O[C@H]1[C@@H]([C@H]([C@@H](CO1)O)O)O)O[C@@H]1OC[C@]([C@H]1O)(O)CO)O)C)C)C)(C)C(=O)O)O[C@@H]1O[C@@H]([C@H]([C@@H]([C@H]1O)O[C@@H]1O[C@@H]([C@H]([C@@H]([C@H]1O)O)O)CO)O)C(=O)O)O" "InChI=InChI=1S/C63H98O33/c1-23-41(90-49-36(73)32(69)27(67)19-85-49)43(92-54-46(78)63(84,21-65)22-87-54)40(77)51(88-23)94-45-33(70)28(68)20-86-53(45)96-56(83)62-14-12-57(2,3)16-25(62)24-8-9-30-58(4)17-26(66)47(61(7,55(81)82)31(58)10-11-60(30,6)59(24,5)13-15-62)95-52-39(76)42(38(75)44(93-52)48(79)80)91-50-37(74)35(72)34(71)29(18-64)89-50/h8,23,25-47,49-54,64-78,84H,9-22H2,1-7H3,(H,79,80)(H,81,82)/t23-,25-,26-,27+,28-,29+,30?,31?,32-,33-,34+,35-,36+,37+,38-,39+,40+,41-,42-,43-,44-,45+,46-,47-,49-,50-,51-,52-,53-,54-,58+,59+,60+,61-,62-,63+/m0/s1" "InChIKey=TXOSKRBRXVSPJN-WTWXDXNZSA-N" "molecular formula=C63H98O33" "total exact mass=1382.599035596" "SMILES=[H]OC(=O)C1([H])OC([H])(OC2([H])C([H])(O[H])C([H])([H])C3(C([H])([H])[H])C4([H])C([H])([H])C([H])=C5C6([H])C([H])([H])C(C([H])([H])[H])(C([H])([H])[H])C([H])([H])C([H])([H])C6(C(=O)OC7([H])OC([H])([H])C([H])(O[H])C([H])(O[H])C7([H])OC8([H])OC([H])(C([H])([H])[H])C([H])(OC9([H])OC([H])([H])C([H])(O[H])C([H])(O[H])C9([H])O[H])C([H])(OC%10([H])OC([H])([H])C(O[H])(C([H])([H])O[H])C%10([H])O[H])C8([H])O[H])C([H])([H])C([H])([H])C5(C([H])([H])[H])C4(C([H])([H])[H])C([H])([H])C([H])([H])C3([H])C2(C(=O)O[H])C([H])([H])[H])C([H])(O[H])C([H])(OC%11([H])OC([H])(C([H])([H])O[H])C([H])(O[H])C([H])(O[H])C%11([H])O[H])C1([H])O[H]"
Num Peaks: 26
 327 4.104104; 
 574 3.203203; 
 574 1.001001; 
 666 3.503504; 
 690 68.768769; 
 690 47.447447; 
 691 21.921922; 
 691 6.706707; 
 701 2.502503; 
 713 18.018018; 
 713 13.313313; 
 714 6.106106; 
 714 0.600601; 
 1149 10.910911; 
 1150 5.105105; 
 1381 100.000000; 
 1382 9.509510; 
 1382 73.173173; 
 1383 2.202202; 
 1383 32.132132; 
 1384 9.309309; 
 1397 1.201201; 
 1403 10.810811; 
 1404 8.008008; 
 1437 7.007007; 
 1438 4.704705; 


Name: 3-Glu(1-3)GluA-28-Xyl(1-4)[Api(1-3)]Rha(1-2)Ara Medicagenic acid
SYNON: $:00in-source
DB#: MetaboBASE1031
InChIKey: TXOSKRBRXVSPJN-WTWXDXNZSA-N
Instrument_type: LC-ESI-TOF
Instrument: impact HD
Ion_mode: N
InChIKey: TXOSKRBRXVSPJN-WTWXDXNZSA-N
Formula: C63H98O33
MW: 1382
ExactMass: 1382.599035596
Comments: "license=License CC-BY-NC-SA 4.0 International" "author=Plant Biology, The Noble Foundation, Ardmore, OK, US/Dennis Fine, Daniel Wherritt, and Lloyd Sumner" "instrument type=LC-ESI-TOF" "instrument=impact HD" "ionization=ESI" "ionization mode=negative" "peak width=0.013" "date=2014-02-20 15:13:46+01:00" "column=Waters Acquity BEH C18 1.7um x 2.1 x 150 mm" "retention time=768.6" "raw data file=C:\Data\2014Feb20 Lignin extr LCMSMS\CCR1 20634 leaf Homo-1 MSMS.d" "Last Auto-Curation=1505111323326" "SMILES=[C@H]1([C@@H]([C@@](C2[C@](C1)(C1[C@@](CC2)([C@]2(C(=CC1)[C@H]1[C@@](CC2)(CCC(C1)(C)C)C(=O)O[C@H]1[C@@H]([C@H]([C@H](CO1)O)O)O[C@H]1[C@@H]([C@@H]([C@H]([C@@H](O1)C)O[C@H]1[C@@H]([C@H]([C@@H](CO1)O)O)O)O[C@@H]1OC[C@]([C@H]1O)(O)CO)O)C)C)C)(C)C(=O)O)O[C@@H]1O[C@@H]([C@H]([C@@H]([C@H]1O)O[C@@H]1O[C@@H]([C@H]([C@@H]([C@H]1O)O)O)CO)O)C(=O)O)O" "InChI=InChI=1S/C63H98O33/c1-23-41(90-49-36(73)32(69)27(67)19-85-49)43(92-54-46(78)63(84,21-65)22-87-54)40(77)51(88-23)94-45-33(70)28(68)20-86-53(45)96-56(83)62-14-12-57(2,3)16-25(62)24-8-9-30-58(4)17-26(66)47(61(7,55(81)82)31(58)10-11-60(30,6)59(24,5)13-15-62)95-52-39(76)42(38(75)44(93-52)48(79)80)91-50-37(74)35(72)34(71)29(18-64)89-50/h8,23,25-47,49-54,64-78,84H,9-22H2,1-7H3,(H,79,80)(H,81,82)/t23-,25-,26-,27+,28-,29+,30?,31?,32-,33-,34+,35-,36+,37+,38-,39+,40+,41-,42-,43-,44-,45+,46-,47-,49-,50-,51-,52-,53-,54-,58+,59+,60+,61-,62-,63+/m0/s1" "InChIKey=TXOSKRBRXVSPJN-WTWXDXNZSA-N" "molecular formula=C63H98O33" "total exact mass=1382.599035596" "SMILES=[H]OC(=O)C1([H])OC([H])(OC2([H])C([H])(O[H])C([H])([H])C3(C([H])([H])[H])C4([H])C([H])([H])C([H])=C5C6([H])C([H])([H])C(C([H])([H])[H])(C([H])([H])[H])C([H])([H])C([H])([H])C6(C(=O)OC7([H])OC([H])([H])C([H])(O[H])C([H])(O[H])C7([H])OC8([H])OC([H])(C([H])([H])[H])C([H])(OC9([H])OC([H])([H])C([H])(O[H])C([H])(O[H])C9([H])O[H])C([H])(OC%10([H])OC([H])([H])C(O[H])(C([H])([H])O[H])C%10([H])O[H])C8([H])O[H])C([H])([H])C([H])([H])C5(C([H])([H])[H])C4(C([H])([H])[H])C([H])([H])C([H])([H])C3([H])C2(C(=O)O[H])C([H])([H])[H])C([H])(O[H])C([H])(OC%11([H])OC([H])(C([H])([H])O[H])C([H])(O[H])C([H])(O[H])C%11([H])O[H])C1([H])O[H]"
Num Peaks: 220
 690 0.100100; 
 690 29.529530; 
 690 0.100100; 
 690 20.520521; 
 691 0.100100; 
 691 8.608609; 
 691 2.502503; 
 692 0.100100; 
 692 0.600601; 
 692 0.200200; 
 701 0.200200; 
 701 0.300300; 
 701 0.200200; 
 701 0.200200; 
 708 0.300300; 
 708 0.200200; 
 709 0.200200; 
 709 0.100100; 
 713 5.405405; 
 713 4.104104; 
 714 1.501502; 
 714 0.700701; 
 1242 0.100100; 
 1243 0.200200; 
 1380 0.100100; 
 1380 0.200200; 
 1380 0.200200; 
 1380 0.100100; 
 1380 0.300300; 
 1380 0.100100; 
 1380 0.200200; 
 1380 0.200200; 
 1380 0.100100; 
 1381 0.300300; 
 1381 0.100100; 
 1381 0.300300; 
 1381 0.100100; 
 1381 0.200200; 
 1381 0.300300; 
 1381 0.100100; 
 1381 0.100100; 
 1381 0.200200; 
 1381 0.100100; 
 1381 100.000000; 
 1381 0.200200; 
 1381 0.200200; 
 1381 0.300300; 
 1381 0.100100; 
 1382 50.650651; 
 1382 0.100100; 
 1382 0.200200; 
 1382 0.100100; 
 1382 0.300300; 
 1382 0.200200; 
 1382 84.384384; 
 1382 0.200200; 
 1382 0.300300; 
 1382 0.200200; 
 1382 0.100100; 
 1383 21.321321; 
 1383 0.300300; 
 1383 0.200200; 
 1383 0.200200; 
 1383 0.100100; 
 1383 26.626627; 
 1383 0.100100; 
 1383 0.200200; 
 1383 0.100100; 
 1384 2.902903; 
 1384 0.100100; 
 1384 4.704705; 
 1384 0.100100; 
 1385 0.100100; 
 1385 0.100100; 
 1385 0.500501; 
 1385 0.100100; 
 1385 0.100100; 
 1385 0.900901; 
 1385 0.300300; 
 1386 0.100100; 
 1392 0.100100; 
 1392 0.100100; 
 1392 1.701702; 
 1392 0.100100; 
 1393 2.902903; 
 1393 2.002002; 
 1393 0.100100; 
 1394 1.301301; 
 1394 0.100100; 
 1394 0.600601; 
 1394 0.100100; 
 1394 0.100100; 
 1395 0.200200; 
 1395 0.100100; 
 1399 0.200200; 
 1399 0.200200; 
 1399 0.100100; 
 1399 0.300300; 
 1400 0.300300; 
 1400 0.600601; 
 1400 0.100100; 
 1400 0.200200; 
 1401 0.600601; 
 1401 0.100100; 
 1401 0.500501; 
 1401 0.200200; 
 1402 0.200200; 
 1402 0.100100; 
 1402 0.100100; 
 1402 0.300300; 
 1402 0.100100; 
 1402 0.100100; 
 1403 1.601602; 
 1403 0.100100; 
 1404 0.400400; 
 1404 0.100100; 
 1404 1.201201; 
 1404 0.100100; 
 1404 0.100100; 
 1405 0.100100; 
 1405 0.300300; 
 1405 0.500501; 
 1405 0.100100; 
 1407 0.100100; 
 1407 0.200200; 
 1407 0.100100; 
 1408 0.400400; 
 1408 0.100100; 
 1408 0.600601; 
 1408 0.100100; 
 1409 0.500501; 
 1409 0.100100; 
 1409 0.500501; 
 1410 0.300300; 
 1410 0.100100; 
 1419 0.300300; 
 1420 0.200200; 
 1420 0.100100; 
 1431 0.900901; 
 1431 0.100100; 
 1432 1.401401; 
 1432 0.100100; 
 1432 1.101101; 
 1433 0.600601; 
 1433 0.200200; 
 1433 0.400400; 
 1434 0.100100; 
 1434 0.100100; 
 1434 0.300300; 
 1435 0.100100; 
 1435 0.200200; 
 1435 0.200200; 
 1436 0.100100; 
 1442 0.100100; 
 1442 0.100100; 
 1442 0.100100; 
 1443 0.300300; 
 1443 0.100100; 
 1449 0.200200; 
 1449 0.100100; 
 1481 1.001001; 
 1481 0.100100; 
 1482 0.100100; 
 1482 0.800801; 
 1483 0.100100; 
 1483 0.400400; 
 1483 0.100100; 
 1484 0.100100; 
 1727 0.200200; 
 1727 0.300300; 
 1727 0.300300; 
 1728 0.100100; 
 1728 0.500501; 
 1728 0.100100; 
 1728 0.300300; 
 1728 0.300300; 
 1729 0.100100; 
 1729 0.100100; 
 1729 0.100100; 
 1729 0.100100; 
 1842 0.100100; 
 1842 1.201201; 
 1842 0.100100; 
 1842 3.003003; 
 1842 0.100100; 
 1843 5.005005; 
 1843 0.100100; 
 1843 4.704705; 
 1843 0.100100; 
 1843 3.603604; 
 1844 0.100100; 
 1844 2.502503; 
 1844 1.401401; 
 1844 0.100100; 
 1844 0.800801; 
 1845 0.300300; 
 1845 0.100100; 
 1845 0.100100; 
 1845 0.100100; 
 1849 0.100100; 
 1850 0.300300; 
 1850 0.100100; 
 1850 0.400400; 
 1850 0.200200; 
 1850 0.600601; 
 1851 0.400400; 
 1851 0.100100; 
 1851 0.100100; 
 1851 0.400400; 
 1851 0.300300; 
 1851 0.100100; 
 1852 0.100100; 
 1852 0.100100; 
 1882 0.200200; 
 1882 0.100100; 
 1882 0.300300; 
 1882 0.100100; 
 1882 0.300300; 
 1883 0.200200; 
 1883 0.200200; 


Name: 3-GluA-28-Xyl(1-4)[Api(1-3)]Rha(1-2)Ara Medicagenic acid
SYNON: $:00in-source
DB#: MetaboBASE1032
InChIKey: MOBNVBHCGSZLDY-VBYBTYMUSA-N
Spectrum_type: MS2
PrecursorMZ: 609.2654
Instrument_type: LC-ESI-TOF
Instrument: impact HD
Ion_mode: N
Collision_energy: 41.5979
InChIKey: MOBNVBHCGSZLDY-VBYBTYMUSA-N
Formula: C57H88O28
MW: 1220
ExactMass: 1220.546212176
Comments: "license=License CC-BY-NC-SA 4.0 International" "author=Plant Biology, The Noble Foundation, Ardmore, OK, US/Dennis Fine, Daniel Wherritt, and Lloyd Sumner" "instrument type=LC-ESI-TOF" "instrument=impact HD" "ionization=ESI" "ionization mode=negative" "ms level=MS2" "precursor m/z=609.2654" "collision energy=41.5979" "collision energy 2=69.3298" "peak width=0.015" "date=2014-12-12 20:57:07+01:00" "column=Waters Acquity BEH C18 1.7um x 2.1 x 150 mm" "retention time=786.6" "raw data file=C:\Data\Noble-Bruker MS libr eval complex mix\2014Dec_A17 aer rt mix MSMS_1-A,2_01_1447.d" "Last Auto-Curation=1505110227899" "SMILES=[C@H]1([C@@H]([C@@](C2[C@](C1)(C1[C@@](CC2)([C@]2(C(=CC1)[C@H]1[C@@](CC2)(CCC(C1)(C)C)C(=O)O[C@H]1[C@@H]([C@H]([C@H](CO1)O)O)O[C@H]1[C@@H]([C@@H]([C@H]([C@@H](O1)C)O[C@H]1[C@@H]([C@H]([C@@H](CO1)O)O)O)O[C@@H]1OC[C@]([C@H]1O)(O)CO)O)C)C)C)(C)C(=O)O)O[C@@H]1O[C@@H]([C@H]([C@@H]([C@H]1O)O)O)C(=O)O)O" "InChI=InChI=1S/C57H88O28/c1-22-37(80-44-34(66)30(62)26(60)18-76-44)38(81-48-41(69)57(75,20-58)21-78-48)36(68)46(79-22)83-40-31(63)27(61)19-77-47(40)85-50(74)56-14-12-51(2,3)16-24(56)23-8-9-28-52(4)17-25(59)42(84-45-35(67)32(64)33(65)39(82-45)43(70)71)55(7,49(72)73)29(52)10-11-54(28,6)53(23,5)13-15-56/h8,22,24-42,44-48,58-69,75H,9-21H2,1-7H3,(H,70,71)(H,72,73)/t22-,24-,25-,26+,27-,28?,29?,30-,31-,32-,33-,34+,35+,36+,37-,38-,39-,40+,41-,42-,44-,45-,46-,47-,48-,52+,53+,54+,55-,56-,57+/m0/s1" "InChIKey=MOBNVBHCGSZLDY-VBYBTYMUSA-N" "molecular formula=C57H88O28" "total exact mass=1220.546212176" "SMILES=[H]OC(=O)C1([H])OC([H])(OC2([H])C([H])(O[H])C([H])([H])C3(C([H])([H])[H])C([H])(C([H])([H])C([H])([H])C4(C([H])([H])[H])C3([H])C([H])([H])C([H])=C5C6([H])C([H])([H])C(C([H])([H])[H])(C([H])([H])[H])C([H])([H])C([H])([H])C6(C(=O)OC7([H])OC([H])([H])C([H])(O[H])C([H])(O[H])C7([H])OC8([H])OC([H])(C([H])([H])[H])C([H])(OC9([H])OC([H])([H])C([H])(O[H])C([H])(O[H])C9([H])O[H])C([H])(OC%10([H])OC([H])([H])C(O[H])(C([H])([H])O[H])C%10([H])O[H])C8([H])O[H])C([H])([H])C([H])([H])C54C([H])([H])[H])C2(C(=O)O[H])C([H])([H])[H])C([H])(O[H])C([H])(O[H])C1([H])O[H]"
Num Peaks: 18
 101 4.404404; 
 103 1.901902; 
 103 2.102102; 
 113 12.712713; 
 131 6.306306; 
 133 2.602603; 
 143 1.401401; 
 193 15.315315; 
 233 5.005005; 
 277 6.006006; 
 337 39.439439; 
 338 2.102102; 
 338 2.702703; 
 338 6.206206; 
 409 2.502503; 
 439 100.000000; 
 440 30.930931; 
 469 18.918919; 


Name: 3-GluA-28-Xyl(1-4)[Api(1-3)]Rha(1-2)Ara Medicagenic acid
SYNON: $:00in-source
DB#: MetaboBASE1033
InChIKey: MOBNVBHCGSZLDY-VBYBTYMUSA-N
Spectrum_type: MS2
PrecursorMZ: 1219.533
Instrument_type: LC-ESI-TOF
Instrument: impact HD
Ion_mode: N
Collision_energy: 64.4835
InChIKey: MOBNVBHCGSZLDY-VBYBTYMUSA-N
Formula: C57H88O28
MW: 1220
ExactMass: 1220.546212176
Comments: "license=License CC-BY-NC-SA 4.0 International" "author=Plant Biology, The Noble Foundation, Ardmore, OK, US/Dennis Fine, Daniel Wherritt, and Lloyd Sumner" "instrument type=LC-ESI-TOF" "instrument=impact HD" "ionization=ESI" "ionization mode=negative" "ms level=MS2" "precursor m/z=1219.533" "collision energy=64.4835" "collision energy 2=107.472" "peak width=0.015" "date=2014-12-12 20:57:07+01:00" "column=Waters Acquity BEH C18 1.7um x 2.1 x 150 mm" "retention time=786.6" "raw data file=C:\Data\Noble-Bruker MS libr eval complex mix\2014Dec_A17 aer rt mix MSMS_1-A,2_01_1447.d" "Last Auto-Curation=1505110228551" "SMILES=[C@H]1([C@@H]([C@@](C2[C@](C1)(C1[C@@](CC2)([C@]2(C(=CC1)[C@H]1[C@@](CC2)(CCC(C1)(C)C)C(=O)O[C@H]1[C@@H]([C@H]([C@H](CO1)O)O)O[C@H]1[C@@H]([C@@H]([C@H]([C@@H](O1)C)O[C@H]1[C@@H]([C@H]([C@@H](CO1)O)O)O)O[C@@H]1OC[C@]([C@H]1O)(O)CO)O)C)C)C)(C)C(=O)O)O[C@@H]1O[C@@H]([C@H]([C@@H]([C@H]1O)O)O)C(=O)O)O" "InChI=InChI=1S/C57H88O28/c1-22-37(80-44-34(66)30(62)26(60)18-76-44)38(81-48-41(69)57(75,20-58)21-78-48)36(68)46(79-22)83-40-31(63)27(61)19-77-47(40)85-50(74)56-14-12-51(2,3)16-24(56)23-8-9-28-52(4)17-25(59)42(84-45-35(67)32(64)33(65)39(82-45)43(70)71)55(7,49(72)73)29(52)10-11-54(28,6)53(23,5)13-15-56/h8,22,24-42,44-48,58-69,75H,9-21H2,1-7H3,(H,70,71)(H,72,73)/t22-,24-,25-,26+,27-,28?,29?,30-,31-,32-,33-,34+,35+,36+,37-,38-,39-,40+,41-,42-,44-,45-,46-,47-,48-,52+,53+,54+,55-,56-,57+/m0/s1" "InChIKey=MOBNVBHCGSZLDY-VBYBTYMUSA-N" "molecular formula=C57H88O28" "total exact mass=1220.546212176" "SMILES=[H]OC(=O)C1([H])OC([H])(OC2([H])C([H])(O[H])C([H])([H])C3(C([H])([H])[H])C([H])(C([H])([H])C([H])([H])C4(C([H])([H])[H])C3([H])C([H])([H])C([H])=C5C6([H])C([H])([H])C(C([H])([H])[H])(C([H])([H])[H])C([H])([H])C([H])([H])C6(C(=O)OC7([H])OC([H])([H])C([H])(O[H])C([H])(O[H])C7([H])OC8([H])OC([H])(C([H])([H])[H])C([H])(OC9([H])OC([H])([H])C([H])(O[H])C([H])(O[H])C9([H])O[H])C([H])(OC%10([H])OC([H])([H])C(O[H])(C([H])([H])O[H])C%10([H])O[H])C8([H])O[H])C([H])([H])C([H])([H])C54C([H])([H])[H])C2(C(=O)O[H])C([H])([H])[H])C([H])(O[H])C([H])(O[H])C1([H])O[H]"
Num Peaks: 48
 101 2.402402; 
 103 3.703704; 
 104 0.200200; 
 113 10.510511; 
 114 0.400400; 
 116 0.600601; 
 129 0.100100; 
 129 0.100100; 
 131 4.004004; 
 133 1.401401; 
 149 0.100100; 
 157 0.900901; 
 163 0.700701; 
 175 1.101101; 
 193 34.134134; 
 194 0.100100; 
 194 2.002002; 
 195 0.200200; 
 337 0.300300; 
 345 0.100100; 
 346 0.100100; 
 350 0.100100; 
 351 0.100100; 
 351 0.100100; 
 362 0.100100; 
 364 0.100100; 
 439 0.500501; 
 501 2.702703; 
 502 0.600601; 
 677 1.401401; 
 678 0.200200; 
 1043 3.303303; 
 1044 0.200200; 
 1044 1.501502; 
 1045 0.100100; 
 1219 0.100100; 
 1219 0.300300; 
 1219 100.000000; 
 1219 0.300300; 
 1219 0.100100; 
 1219 0.100100; 
 1220 0.100100; 
 1220 57.757758; 
 1221 22.122122; 
 1221 0.200200; 
 1222 0.100100; 
 1222 5.805806; 
 1223 0.600601; 


Name: 3-GluA-28-Xyl(1-4)[Api(1-3)]Rha(1-2)Ara Medicagenic acid
SYNON: $:00in-source
DB#: MetaboBASE1034
InChIKey: MOBNVBHCGSZLDY-VBYBTYMUSA-N
Instrument_type: LC-ESI-TOF
Instrument: impact HD
Ion_mode: N
InChIKey: MOBNVBHCGSZLDY-VBYBTYMUSA-N
Formula: C57H88O28
MW: 1220
ExactMass: 1220.546212176
Comments: "license=License CC-BY-NC-SA 4.0 International" "author=Plant Biology, The Noble Foundation, Ardmore, OK, US/Dennis Fine, Daniel Wherritt, and Lloyd Sumner" "instrument type=LC-ESI-TOF" "instrument=impact HD" "ionization=ESI" "ionization mode=negative" "peak width=0.047" "date=2014-12-12 20:57:07+01:00" "column=Waters Acquity BEH C18 1.7um x 2.1 x 150 mm" "retention time=786.6" "raw data file=C:\Data\Noble-Bruker MS libr eval complex mix\2014Dec_A17 aer rt mix MSMS_1-A,2_01_1447.d" "Last Auto-Curation=1505111485474" "SMILES=[C@H]1([C@@H]([C@@](C2[C@](C1)(C1[C@@](CC2)([C@]2(C(=CC1)[C@H]1[C@@](CC2)(CCC(C1)(C)C)C(=O)O[C@H]1[C@@H]([C@H]([C@H](CO1)O)O)O[C@H]1[C@@H]([C@@H]([C@H]([C@@H](O1)C)O[C@H]1[C@@H]([C@H]([C@@H](CO1)O)O)O)O[C@@H]1OC[C@]([C@H]1O)(O)CO)O)C)C)C)(C)C(=O)O)O[C@@H]1O[C@@H]([C@H]([C@@H]([C@H]1O)O)O)C(=O)O)O" "InChI=InChI=1S/C57H88O28/c1-22-37(80-44-34(66)30(62)26(60)18-76-44)38(81-48-41(69)57(75,20-58)21-78-48)36(68)46(79-22)83-40-31(63)27(61)19-77-47(40)85-50(74)56-14-12-51(2,3)16-24(56)23-8-9-28-52(4)17-25(59)42(84-45-35(67)32(64)33(65)39(82-45)43(70)71)55(7,49(72)73)29(52)10-11-54(28,6)53(23,5)13-15-56/h8,22,24-42,44-48,58-69,75H,9-21H2,1-7H3,(H,70,71)(H,72,73)/t22-,24-,25-,26+,27-,28?,29?,30-,31-,32-,33-,34+,35+,36+,37-,38-,39-,40+,41-,42-,44-,45-,46-,47-,48-,52+,53+,54+,55-,56-,57+/m0/s1" "InChIKey=MOBNVBHCGSZLDY-VBYBTYMUSA-N" "molecular formula=C57H88O28" "total exact mass=1220.546212176" "SMILES=[H]OC(=O)C1([H])OC([H])(OC2([H])C([H])(O[H])C([H])([H])C3(C([H])([H])[H])C([H])(C([H])([H])C([H])([H])C4(C([H])([H])[H])C3([H])C([H])([H])C([H])=C5C6([H])C([H])([H])C(C([H])([H])[H])(C([H])([H])[H])C([H])([H])C([H])([H])C6(C(=O)OC7([H])OC([H])([H])C([H])(O[H])C([H])(O[H])C7([H])OC8([H])OC([H])(C([H])([H])[H])C([H])(OC9([H])OC([H])([H])C([H])(O[H])C([H])(O[H])C9([H])O[H])C([H])(OC%10([H])OC([H])([H])C(O[H])(C([H])([H])O[H])C%10([H])O[H])C8([H])O[H])C([H])([H])C([H])([H])C54C([H])([H])[H])C2(C(=O)O[H])C([H])([H])[H])C([H])(O[H])C([H])(O[H])C1([H])O[H]"
Num Peaks: 113
 609 25.325325; 
 609 15.415415; 
 610 5.905906; 
 610 1.701702; 
 611 0.500501; 
 632 0.700701; 
 632 0.500501; 
 1219 0.200200; 
 1219 0.200200; 
 1219 0.300300; 
 1219 0.100100; 
 1219 100.000000; 
 1219 0.100100; 
 1219 0.100100; 
 1219 0.200200; 
 1220 21.021021; 
 1220 0.200200; 
 1220 0.100100; 
 1220 0.100100; 
 1220 0.100100; 
 1220 0.100100; 
 1220 68.568569; 
 1220 0.100100; 
 1220 0.100100; 
 1220 0.100100; 
 1221 7.607608; 
 1221 0.100100; 
 1221 0.200200; 
 1221 22.922923; 
 1221 0.100100; 
 1222 1.001001; 
 1222 4.604605; 
 1223 0.200200; 
 1223 0.700701; 
 1230 1.701702; 
 1231 2.002002; 
 1231 1.401401; 
 1232 0.700701; 
 1232 0.300300; 
 1232 0.300300; 
 1233 0.200200; 
 1238 0.200200; 
 1238 0.500501; 
 1239 0.300300; 
 1239 0.200200; 
 1239 0.400400; 
 1240 0.100100; 
 1241 1.901902; 
 1242 0.600601; 
 1242 1.301301; 
 1243 0.100100; 
 1243 0.400400; 
 1245 0.100100; 
 1245 0.400400; 
 1246 0.700701; 
 1247 0.500501; 
 1269 0.300300; 
 1270 0.400400; 
 1270 0.100100; 
 1272 0.100100; 
 1272 0.400400; 
 1273 0.400400; 
 1293 0.700701; 
 1294 1.101101; 
 1294 0.700701; 
 1295 0.400400; 
 1304 0.200200; 
 1305 0.200200; 
 1319 1.201201; 
 1320 0.700701; 
 1320 0.100100; 
 1321 0.100100; 
 1367 0.400400; 
 1368 0.400400; 
 1626 0.300300; 
 1626 0.200200; 
 1626 1.101101; 
 1627 1.501502; 
 1627 1.601602; 
 1627 0.800801; 
 1628 0.300300; 
 1628 0.300300; 
 1628 0.300300; 
 1628 0.200200; 
 1629 0.100100; 
 1633 0.100100; 
 1634 0.100100; 
 1634 0.200200; 
 1634 0.500501; 
 1634 0.100100; 
 1829 2.902903; 
 1830 7.007007; 
 1830 0.300300; 
 1830 0.100100; 
 1830 7.307307; 
 1831 0.200200; 
 1831 5.505506; 
 1831 0.100100; 
 1831 2.502503; 
 1832 1.201201; 
 1832 0.400400; 
 1840 0.200200; 
 1841 0.500501; 
 1841 0.500501; 
 1842 0.100100; 
 1842 0.400400; 
 1880 0.300300; 
 1881 0.300300; 
 1903 0.100100; 
 1904 0.100100; 
 1904 0.200200; 
 1904 0.300300; 
 1905 0.200200; 


Name: 3-Glu-28-Xyl(1-4)[Api(1-3)]Rha(1-2)Ara Medicagenic acid
SYNON: $:00in-source
DB#: MetaboBASE1035
InChIKey: ADIBRWUTYMYVDH-DUIVSVLLSA-N
Instrument_type: LC-ESI-TOF
Instrument: impact HD
Ion_mode: N
InChIKey: ADIBRWUTYMYVDH-DUIVSVLLSA-N
Formula: C57H90O27
MW: 1206
ExactMass: 1206.56694762
Comments: "license=License CC-BY-NC-SA 4.0 International" "author=Plant Biology, The Noble Foundation, Ardmore, OK, US/Dennis Fine, Daniel Wherritt, and Lloyd Sumner" "instrument type=LC-ESI-TOF" "instrument=impact HD" "ionization=ESI" "ionization mode=negative" "peak width=0.015" "date=2014-02-20 15:54:38+01:00" "column=Waters Acquity BEH C18 1.7um x 2.1 x 150 mm" "retention time=808.2" "raw data file=C:\Data\2014Feb20 Lignin extr LCMSMS\CCR1 20634 leaf WT-1 MSMS.d" "annotformula=1184.0494;         C26H40O52" "annotformula=1205.5621;         C50H93O32" "Last Auto-Curation=1505110993908" "SMILES=[C@H]1([C@@H]([C@@](C2[C@](C1)(C1[C@@](CC2)([C@]2(C(=CC1)[C@H]1[C@@](CC2)(CCC(C1)(C)C)C(=O)O[C@H]1[C@@H]([C@H]([C@H](CO1)O)O)O[C@H]1[C@@H]([C@@H]([C@H]([C@@H](O1)C)O[C@H]1[C@@H]([C@H]([C@@H](CO1)O)O)O)O[C@@H]1OC[C@]([C@H]1O)(O)CO)O)C)C)C)(C)C(=O)O)O[C@@H]1O[C@@H]([C@H]([C@@H]([C@H]1O)O)O)CO)O" "InChI=InChI=1S/C57H90O27/c1-23-39(80-44-36(67)32(63)27(61)19-75-44)40(81-48-42(70)57(74,21-59)22-77-48)38(69)46(78-23)82-41-33(64)28(62)20-76-47(41)84-50(73)56-14-12-51(2,3)16-25(56)24-8-9-30-52(4)17-26(60)43(83-45-37(68)35(66)34(65)29(18-58)79-45)55(7,49(71)72)31(52)10-11-54(30,6)53(24,5)13-15-56/h8,23,25-48,58-70,74H,9-22H2,1-7H3,(H,71,72)/t23-,25-,26-,27+,28-,29+,30?,31?,32-,33-,34+,35-,36+,37+,38+,39-,40-,41+,42-,43-,44-,45-,46-,47-,48-,52+,53+,54+,55-,56-,57+/m0/s1" "InChIKey=ADIBRWUTYMYVDH-DUIVSVLLSA-N" "molecular formula=C57H90O27" "total exact mass=1206.56694762" "SMILES=[H]OC(=O)C1(C([H])([H])[H])C([H])(OC2([H])OC([H])(C([H])([H])O[H])C([H])(O[H])C([H])(O[H])C2([H])O[H])C([H])(O[H])C([H])([H])C3(C([H])([H])[H])C1([H])C([H])([H])C([H])([H])C4(C([H])([H])[H])C3([H])C([H])([H])C([H])=C5C6([H])C([H])([H])C(C([H])([H])[H])(C([H])([H])[H])C([H])([H])C([H])([H])C6(C(=O)OC7([H])OC([H])([H])C([H])(O[H])C([H])(O[H])C7([H])OC8([H])OC([H])(C([H])([H])[H])C([H])(OC9([H])OC([H])([H])C([H])(O[H])C([H])(O[H])C9([H])O[H])C([H])(OC%10([H])OC([H])([H])C(O[H])(C([H])([H])O[H])C%10([H])O[H])C8([H])O[H])C([H])([H])C([H])([H])C54C([H])([H])[H]"
Num Peaks: 62
 556 2.902903; 
 557 0.200200; 
 580 9.109109; 
 580 5.605606; 
 581 2.802803; 
 581 0.900901; 
 602 2.602603; 
 602 1.401401; 
 603 2.602603; 
 603 1.201201; 
 604 1.301301; 
 604 0.300300; 
 614 1.201201; 
 614 0.800801; 
 629 0.900901; 
 630 0.100100; 
 841 1.001001; 
 841 0.300300; 
 1087 0.100100; 
 1087 4.004004; 
 1088 0.700701; 
 1088 3.003003; 
 1183 9.309309; 
 1183 0.200200; 
 1183 0.200200; 
 1184 11.311311; 
 1184 0.100100; 
 1184 0.200200; 
 1184 8.308308; 
 1185 3.703704; 
 1185 2.002002; 
 1186 0.200200; 
 1205 100.000000; 
 1206 4.204204; 
 1206 0.400400; 
 1206 0.200200; 
 1206 57.057057; 
 1206 0.300300; 
 1207 1.901902; 
 1207 0.300300; 
 1207 0.200200; 
 1207 0.200200; 
 1207 17.517518; 
 1207 0.200200; 
 1208 0.200200; 
 1208 4.504505; 
 1229 0.100100; 
 1229 1.301301; 
 1230 0.100100; 
 1273 4.704705; 
 1274 0.100100; 
 1274 0.100100; 
 1274 2.702703; 
 1275 0.200200; 
 1275 0.100100; 
 1305 0.400400; 
 1305 2.302302; 
 1306 1.401401; 
 1306 2.302302; 
 1306 0.200200; 
 1307 0.100100; 
 1307 0.400400; 


Name: 3-Glu-28-Xyl(1-4)[Api(1-3)]Rha(1-2)Ara Medicagenic acid
SYNON: $:00in-source
DB#: MetaboBASE1036
InChIKey: ADIBRWUTYMYVDH-DUIVSVLLSA-N
Spectrum_type: MS2
PrecursorMZ: 1205.562
Instrument_type: LC-ESI-TOF
Instrument: impact HD
Ion_mode: N
Collision_energy: 63.9592
InChIKey: ADIBRWUTYMYVDH-DUIVSVLLSA-N
Formula: C57H90O27
MW: 1206
ExactMass: 1206.56694762
Comments: "license=License CC-BY-NC-SA 4.0 International" "author=Plant Biology, The Noble Foundation, Ardmore, OK, US/Dennis Fine, Daniel Wherritt, and Lloyd Sumner" "instrument type=LC-ESI-TOF" "instrument=impact HD" "ionization=ESI" "ionization mode=negative" "ms level=MS2" "precursor m/z=1205.562" "collision energy=63.9592" "collision energy 2=106.599" "peak width=0.0098" "date=2014-02-20 15:54:38+01:00" "column=Waters Acquity BEH C18 1.7um x 2.1 x 150 mm" "retention time=808.2" "raw data file=C:\Data\2014Feb20 Lignin extr LCMSMS\CCR1 20634 leaf WT-1 MSMS.d" "annotformula=337.1135;         C13H21O10" "annotformula=439.3217;         C29H43O3" "annotformula=1205.5627;         C75H81O14" "annotformula=1206.5558;         C71H82O17" "Last Auto-Curation=1505110230234" "SMILES=[C@H]1([C@@H]([C@@](C2[C@](C1)(C1[C@@](CC2)([C@]2(C(=CC1)[C@H]1[C@@](CC2)(CCC(C1)(C)C)C(=O)O[C@H]1[C@@H]([C@H]([C@H](CO1)O)O)O[C@H]1[C@@H]([C@@H]([C@H]([C@@H](O1)C)O[C@H]1[C@@H]([C@H]([C@@H](CO1)O)O)O)O[C@@H]1OC[C@]([C@H]1O)(O)CO)O)C)C)C)(C)C(=O)O)O[C@@H]1O[C@@H]([C@H]([C@@H]([C@H]1O)O)O)CO)O" "InChI=InChI=1S/C57H90O27/c1-23-39(80-44-36(67)32(63)27(61)19-75-44)40(81-48-42(70)57(74,21-59)22-77-48)38(69)46(78-23)82-41-33(64)28(62)20-76-47(41)84-50(73)56-14-12-51(2,3)16-25(56)24-8-9-30-52(4)17-26(60)43(83-45-37(68)35(66)34(65)29(18-58)79-45)55(7,49(71)72)31(52)10-11-54(30,6)53(24,5)13-15-56/h8,23,25-48,58-70,74H,9-22H2,1-7H3,(H,71,72)/t23-,25-,26-,27+,28-,29+,30?,31?,32-,33-,34+,35-,36+,37+,38+,39-,40-,41+,42-,43-,44-,45-,46-,47-,48-,52+,53+,54+,55-,56-,57+/m0/s1" "InChIKey=ADIBRWUTYMYVDH-DUIVSVLLSA-N" "molecular formula=C57H90O27" "total exact mass=1206.56694762" "SMILES=[H]OC(=O)C1(C([H])([H])[H])C([H])(OC2([H])OC([H])(C([H])([H])O[H])C([H])(O[H])C([H])(O[H])C2([H])O[H])C([H])(O[H])C([H])([H])C3(C([H])([H])[H])C1([H])C([H])([H])C([H])([H])C4(C([H])([H])[H])C3([H])C([H])([H])C([H])=C5C6([H])C([H])([H])C(C([H])([H])[H])(C([H])([H])[H])C([H])([H])C([H])([H])C6(C(=O)OC7([H])OC([H])([H])C([H])(O[H])C([H])(O[H])C7([H])OC8([H])OC([H])(C([H])([H])[H])C([H])(OC9([H])OC([H])([H])C([H])(O[H])C([H])(O[H])C9([H])O[H])C([H])(OC%10([H])OC([H])([H])C(O[H])(C([H])([H])O[H])C%10([H])O[H])C8([H])O[H])C([H])([H])C([H])([H])C54C([H])([H])[H]"
Num Peaks: 39
 113 1.601602; 
 205 1.101101; 
 233 2.802803; 
 277 4.604605; 
 285 1.101101; 
 337 23.623624; 
 409 3.403403; 
 409 2.302302; 
 439 35.835836; 
 440 1.801802; 
 440 6.006006; 
 441 1.701702; 
 469 17.317317; 
 469 1.101101; 
 485 1.501502; 
 541 2.002002; 
 643 1.101101; 
 731 5.305305; 
 733 1.101101; 
 793 2.402402; 
 981 4.704705; 
 981 3.403403; 
 981 1.301301; 
 982 2.002002; 
 983 1.701702; 
 1203 7.307307; 
 1203 4.504505; 
 1204 1.001001; 
 1204 1.601602; 
 1204 2.502503; 
 1205 1.801802; 
 1205 100.000000; 
 1205 1.101101; 
 1206 56.556557; 
 1207 18.718719; 
 1208 1.301301; 
 1208 2.302302; 
 1209 1.401401; 
 1209 1.801802; 


Name: Oct-1-en-3-yl Ara (1-6)Glu
SYNON: $:00in-source
DB#: MetaboBASE1037
InChIKey: VXNMHZVTDWLWRX-GNRUMFBNSA-N
Precursor_type: [M-H]-
Spectrum_type: MS2
PrecursorMZ: 421.2081
Instrument_type: LC-ESI-TOF
Instrument: impact HD
Ion_mode: N
Collision_energy: 33.0683
InChIKey: VXNMHZVTDWLWRX-GNRUMFBNSA-N
Formula: C19H34O10
MW: 422
ExactMass: 422.215197288
Comments: "synonym=Oct-1-en-3-yl Ara-(1-6)-Glu (NMR)" "license=License CC-BY-NC-SA 4.0 International" "author=Plant Biology, The Noble Foundation, Ardmore, OK, US/Dennis Fine, Daniel Wherritt, and Lloyd Sumner" "instrument type=LC-ESI-TOF" "instrument=impact HD" "ionization=ESI" "ionization mode=negative" "ms level=MS2" "precursor m/z=421.2081" "collision energy=33.0683" "collision energy 2=55.1139" "peak width=0.018" "date=2014-02-20 15:54:38+01:00" "column=Waters Acquity BEH C18 1.7um x 2.1 x 150 mm" "retention time=524.4" "raw data file=C:\Data\2014Feb20 Lignin extr LCMSMS\CCR1 20634 leaf WT-1 MSMS.d" "annotformula=101.0239;         C4H5O3" "annotformula=113.0239;         C5H5O3" "precursor type=[M-H]-" "mass accuracy=0.42428433826174416" "mass error=1.7871199997898657E-4" "SMILES=CCCCC[C@@H](O[C@@H]1O[C@@H]([C@H]([C@@H]([C@H]1O)O)O)CO[C@H]1[C@@H]([C@H]([C@H](CO1)O)O)O)C=C" "InChI=InChI=1S/C19H34O10/c1-3-5-6-7-10(4-2)28-19-17(25)15(23)14(22)12(29-19)9-27-18-16(24)13(21)11(20)8-26-18/h4,10-25H,2-3,5-9H2,1H3/t10-,11-,12+,13-,14+,15-,16+,17+,18-,19+/m0/s1" "InChIKey=VXNMHZVTDWLWRX-GNRUMFBNSA-N" "molecular formula=C19H34O10" "total exact mass=422.215197288" "SMILES=CCCCCC(OC1OC(C(C(C1O)O)O)COC2C(C(C(CO2)O)O)O)C=C"
Num Peaks: 6
 101 100.000000; 
 113 54.854855; 
 116 5.305305; 
 131 6.406406; 
 161 8.808809; 
 255 5.105105; 


Name: Oct-1-en-3-yl Ara (1-6)Glu
SYNON: $:00in-source
DB#: MetaboBASE1038
InChIKey: VXNMHZVTDWLWRX-GNRUMFBNSA-N
Instrument_type: LC-ESI-TOF
Instrument: impact HD
Ion_mode: N
Collision_energy: 10
InChIKey: VXNMHZVTDWLWRX-GNRUMFBNSA-N
Formula: C19H34O10
MW: 422
ExactMass: 422.215197288
Comments: "synonym=Oct-1-en-3-yl Ara-(1-6)-Glu (NMR)" "license=License CC-BY-NC-SA 4.0 International" "author=Plant Biology, The Noble Foundation, Ardmore, OK, US/Dennis Fine, Daniel Wherritt, and Lloyd Sumner" "instrument type=LC-ESI-TOF" "instrument=impact HD" "ionization=ESI" "ionization mode=negative" "collision energy=10" "peak width=0.012" "date=2014-01-24 01:42:38+01:00" "column=Waters Acquity BEH C18 1.7um x 2.1 x 150 mm" "retention time=524.4" "raw data file=C:\Data\2014Jan16 Lignin extr LCMS\CCR1 20634\CCR1 20634 leaf WT-1.d" "annotformula=116.9293;         C19H31O7" "annotformula=149.0462;         C21H33O8" "annotformula=763.3586;         C36H33O18" "annotformula=964.3154;         C37H31O21" "SMILES=CCCCC[C@@H](O[C@@H]1O[C@@H]([C@H]([C@@H]([C@H]1O)O)O)CO[C@H]1[C@@H]([C@H]([C@H](CO1)O)O)O)C=C" "InChI=InChI=1S/C19H34O10/c1-3-5-6-7-10(4-2)28-19-17(25)15(23)14(22)12(29-19)9-27-18-16(24)13(21)11(20)8-26-18/h4,10-25H,2-3,5-9H2,1H3/t10-,11-,12+,13-,14+,15-,16+,17+,18-,19+/m0/s1" "InChIKey=VXNMHZVTDWLWRX-GNRUMFBNSA-N" "molecular formula=C19H34O10" "total exact mass=422.215197288" "SMILES=CCCCCC(OC1OC(C(C(C1O)O)O)COC2C(C(C(CO2)O)O)O)C=C"
Num Peaks: 48
 112 1.201201; 
 116 0.300300; 
 130 0.200200; 
 149 0.200200; 
 174 0.400400; 
 180 0.600601; 
 242 0.300300; 
 248 0.300300; 
 289 1.601602; 
 290 0.200200; 
 293 0.500501; 
 421 100.000000; 
 422 18.618619; 
 423 3.303303; 
 424 0.500501; 
 457 1.901902; 
 458 0.400400; 
 459 0.700701; 
 467 36.836837; 
 468 7.107107; 
 469 1.501502; 
 470 0.200200; 
 489 0.200200; 
 505 0.200200; 
 519 0.500501; 
 520 1.201201; 
 521 0.500501; 
 523 0.200200; 
 535 0.600601; 
 551 0.200200; 
 566 0.400400; 
 603 0.200200; 
 691 1.101101; 
 692 0.500501; 
 711 0.200200; 
 741 0.200200; 
 763 0.200200; 
 821 0.200200; 
 843 1.001001; 
 844 0.400400; 
 896 0.700701; 
 897 0.300300; 
 911 0.200200; 
 964 0.200200; 
 964 0.200200; 
 1113 0.300300; 
 1114 0.200200; 
 1318 0.200200; 


Name: 6'-Malonyl Ononin
SYNON: $:00in-source
DB#: MetaboBASE1039
InChIKey: RDTAGQKYPGLCBK-GOZZSVHWSA-N
Spectrum_type: MS2
PrecursorMZ: 267.0664
Instrument_type: LC-ESI-TOF
Instrument: impact HD
Ion_mode: N
Collision_energy: 22.8316
InChIKey: RDTAGQKYPGLCBK-GOZZSVHWSA-N
Formula: C25H24O12
MW: 516
ExactMass: 516.126776208
Comments: "license=License CC-BY-NC-SA 4.0 International" "author=Plant Biology, The Noble Foundation, Ardmore, OK, US/Dennis Fine, Daniel Wherritt, and Lloyd Sumner" "instrument type=LC-ESI-TOF" "instrument=impact HD" "ionization=ESI" "ionization mode=negative" "ms level=MS2" "precursor m/z=267.0664" "collision energy=22.8316" "collision energy 2=38.0527" "peak width=0.0063" "date=2013-02-26 03:27:52+01:00" "column=Waters Acquity BEH C18 1.7um x 2.1 x 150 mm" "retention time=575.4" "raw data file=C:\Data\A-17 MSMS aerial root\A-17 root aerial MM Std\A-17_root_extr_MSMS1.d" "Last Auto-Curation=1505110231008" "SMILES=c1(ccc2c(c1)occ(c2=O)c1ccc(cc1)OC)O[C@@H]1O[C@@H]([C@H]([C@@H]([C@H]1O)O)O)COC(=O)CC(=O)O" "InChI=InChI=1S/C25H24O12/c1-33-13-4-2-12(3-5-13)16-10-34-17-8-14(6-7-15(17)21(16)29)36-25-24(32)23(31)22(30)18(37-25)11-35-20(28)9-19(26)27/h2-8,10,18,22-25,30-32H,9,11H2,1H3,(H,26,27)/t18-,22-,23+,24-,25-/m1/s1" "InChIKey=RDTAGQKYPGLCBK-GOZZSVHWSA-N" "molecular formula=C25H24O12" "total exact mass=516.126776208" "SMILES=[H]OC(=O)C([H])([H])C(=O)OC([H])([H])C1([H])OC([H])(OC2=C([H])C([H])=C3C(=O)C(=C([H])OC3=C2[H])C=4C([H])=C([H])C(OC([H])([H])[H])=C([H])C4[H])C([H])(O[H])C([H])(O[H])C1([H])O[H]"
Num Peaks: 17
 132 2.602603; 
 132 1.101101; 
 135 1.401401; 
 135 1.001001; 
 194 0.900901; 
 195 3.603604; 
 223 53.653654; 
 224 10.410410; 
 225 1.501502; 
 251 23.823824; 
 252 100.000000; 
 253 15.915916; 
 254 0.900901; 
 267 21.121121; 
 267 2.002002; 
 268 1.701702; 
 306 1.001001; 


Name: 6'-Malonyl Ononin
SYNON: $:00in-source
DB#: MetaboBASE1040
InChIKey: RDTAGQKYPGLCBK-GOZZSVHWSA-N
Spectrum_type: MS2
PrecursorMZ: 267.0304
Instrument_type: LC-ESI-TOF
Instrument: impact HD
Ion_mode: N
Collision_energy: 30.4398
InChIKey: RDTAGQKYPGLCBK-GOZZSVHWSA-N
Formula: C25H24O12
MW: 516
ExactMass: 516.1267762079999
Comments: "license=License CC-BY-NC-SA 4.0 International" "author=Plant Biology, The Noble Foundation, Ardmore, OK, US/Dennis Fine, Daniel Wherritt, and Lloyd Sumner" "instrument type=LC-ESI-TOF" "instrument=impact HD" "ionization=ESI" "ionization mode=negative" "ms level=MS2" "precursor m/z=267.0304" "isolation width=4.46158" "collision energy=30.4398" "peak width=0.0048" "date=2013-02-26 01:25:21+01:00" "column=Waters Acquity BEH C18 1.7um x 2.1 x 150 mm" "retention time=575.4" "raw data file=C:\Data\A-17 aerial root MSMS\A-17_aerial_extr_MSMS1.d" "annotformula=266.0216;         C15H6O5" "annotformula=267.0306;         C15H7O5" "Last Auto-Curation=1505110231313" "SMILES=c1(ccc2c(c1)occ(c2=O)c1ccc(cc1)OC)O[C@@H]1O[C@@H]([C@H]([C@@H]([C@H]1O)O)O)COC(=O)CC(=O)O" "InChI=InChI=1S/C25H24O12/c1-33-13-4-2-12(3-5-13)16-10-34-17-8-14(6-7-15(17)21(16)29)36-25-24(32)23(31)22(30)18(37-25)11-35-20(28)9-19(26)27/h2-8,10,18,22-25,30-32H,9,11H2,1H3,(H,26,27)/t18-,22-,23+,24-,25-/m1/s1" "InChIKey=RDTAGQKYPGLCBK-GOZZSVHWSA-N" "molecular formula=C25H24O12" "total exact mass=516.1267762079999" "SMILES=[H]OC(=O)C([H])([H])C(=O)OC([H])([H])C1([H])OC([H])(OC2=C([H])C([H])=C3C(=O)C(=C([H])OC3=C2[H])C=4C([H])=C([H])C(OC([H])([H])[H])=C([H])C4[H])C([H])(O[H])C([H])(O[H])C1([H])O[H]"
Num Peaks: 10
 167 9.109109; 
 195 7.307307; 
 196 6.506507; 
 211 6.906907; 
 238 6.306306; 
 251 5.905906; 
 266 72.772773; 
 267 100.000000; 
 268 12.312312; 
 269 14.114114; 


Name: 6'-Malonyl Ononin
SYNON: $:00in-source
DB#: MetaboBASE1041
InChIKey: RDTAGQKYPGLCBK-GOZZSVHWSA-N
Instrument_type: LC-ESI-TOF
Instrument: impact HD
Ion_mode: N
InChIKey: RDTAGQKYPGLCBK-GOZZSVHWSA-N
Formula: C25H24O12
MW: 516
ExactMass: 516.1267762079999
Comments: "license=License CC-BY-NC-SA 4.0 International" "author=Plant Biology, The Noble Foundation, Ardmore, OK, US/Dennis Fine, Daniel Wherritt, and Lloyd Sumner" "instrument type=LC-ESI-TOF" "instrument=impact HD" "ionization=ESI" "ionization mode=negative" "peak width=0.016" "date=2014-06-03 20:53:11+02:00" "column=Waters Acquity BEH C18 1.7um x 2.1 x 150 mm" "retention time=575.4" "raw data file=C:\Data\BWatson\14Jun03_BW_HR1-D_MSMS_2-A,1_01_198.d" "Last Auto-Curation=1505111324191" "SMILES=c1(ccc2c(c1)occ(c2=O)c1ccc(cc1)OC)O[C@@H]1O[C@@H]([C@H]([C@@H]([C@H]1O)O)O)COC(=O)CC(=O)O" "InChI=InChI=1S/C25H24O12/c1-33-13-4-2-12(3-5-13)16-10-34-17-8-14(6-7-15(17)21(16)29)36-25-24(32)23(31)22(30)18(37-25)11-35-20(28)9-19(26)27/h2-8,10,18,22-25,30-32H,9,11H2,1H3,(H,26,27)/t18-,22-,23+,24-,25-/m1/s1" "InChIKey=RDTAGQKYPGLCBK-GOZZSVHWSA-N" "molecular formula=C25H24O12" "total exact mass=516.1267762079999" "SMILES=[H]OC(=O)C([H])([H])C(=O)OC([H])([H])C1([H])OC([H])(OC2=C([H])C([H])=C3C(=O)C(=C([H])OC3=C2[H])C=4C([H])=C([H])C(OC([H])([H])[H])=C([H])C4[H])C([H])(O[H])C([H])(O[H])C1([H])O[H]"
Num Peaks: 15
 128 1.201201; 
 245 1.001001; 
 252 15.315315; 
 253 2.202202; 
 267 100.000000; 
 268 15.815816; 
 269 2.102102; 
 335 1.101101; 
 614 1.301301; 
 615 3.203203; 
 616 1.401401; 
 1031 11.811812; 
 1032 6.006006; 
 1033 2.502503; 
 1053 1.901902; 


Name: 6'-Malonyl Ononin
SYNON: $:00in-source
DB#: MetaboBASE1042
InChIKey: RDTAGQKYPGLCBK-GOZZSVHWSA-N
Spectrum_type: MS2
PrecursorMZ: 1031.264
Instrument_type: LC-ESI-TOF
Instrument: impact HD
Ion_mode: N
Collision_energy: 57.4223
InChIKey: RDTAGQKYPGLCBK-GOZZSVHWSA-N
Formula: C25H24O12
MW: 516
ExactMass: 516.1267762079999
Comments: "license=License CC-BY-NC-SA 4.0 International" "author=Plant Biology, The Noble Foundation, Ardmore, OK, US/Dennis Fine, Daniel Wherritt, and Lloyd Sumner" "comment=Dimer of m/z 516 + 515" "instrument type=LC-ESI-TOF" "instrument=impact HD" "ionization=ESI" "ionization mode=negative" "ms level=MS2" "precursor m/z=1031.264" "collision energy=57.4223" "collision energy 2=95.7038" "peak width=0.014" "date=2014-12-12 20:57:07+01:00" "column=Waters Acquity BEH C18 1.7um x 2.1 x 150 mm" "retention time=575.4" "raw data file=C:\Data\Noble-Bruker MS libr eval complex mix\2014Dec_A17 aer rt mix MSMS_1-A,2_01_1447.d" "Last Auto-Curation=1505110994703" "SMILES=c1(ccc2c(c1)occ(c2=O)c1ccc(cc1)OC)O[C@@H]1O[C@@H]([C@H]([C@@H]([C@H]1O)O)O)COC(=O)CC(=O)O" "InChI=InChI=1S/C25H24O12/c1-33-13-4-2-12(3-5-13)16-10-34-17-8-14(6-7-15(17)21(16)29)36-25-24(32)23(31)22(30)18(37-25)11-35-20(28)9-19(26)27/h2-8,10,18,22-25,30-32H,9,11H2,1H3,(H,26,27)/t18-,22-,23+,24-,25-/m1/s1" "InChIKey=RDTAGQKYPGLCBK-GOZZSVHWSA-N" "molecular formula=C25H24O12" "total exact mass=516.1267762079999" "SMILES=[H]OC(=O)C([H])([H])C(=O)OC([H])([H])C1([H])OC([H])(OC2=C([H])C([H])=C3C(=O)C(=C([H])OC3=C2[H])C=4C([H])=C([H])C(OC([H])([H])[H])=C([H])C4[H])C([H])(O[H])C([H])(O[H])C1([H])O[H]"
Num Peaks: 20
 223 2.302302; 
 224 0.600601; 
 236 0.200200; 
 251 1.801802; 
 251 1.001001; 
 252 32.732733; 
 253 4.804805; 
 254 0.500501; 
 267 100.000000; 
 268 17.217217; 
 269 2.302302; 
 270 0.100100; 
 280 0.200200; 
 281 0.600601; 
 282 0.100100; 
 289 0.200200; 
 295 0.100100; 
 309 0.600601; 
 1049 0.100100; 
 1289 0.100100; 


Name: 3-(6'-O-Malonyl)-Glu-28-Glu Medicagenic acid
SYNON: $:00in-source
DB#: MetaboBASE1043
InChIKey: YOXRCWBQUFOFDB-DELBEMASSA-N
Instrument_type: LC-ESI-TOF
Instrument: impact HD
Ion_mode: N
InChIKey: YOXRCWBQUFOFDB-DELBEMASSA-N
Formula: C45H68O19
MW: 912
ExactMass: 912.4354799559999
Comments: "license=License CC-BY-NC-SA 4.0 International" "author=Plant Biology, The Noble Foundation, Ardmore, OK, US/Dennis Fine, Daniel Wherritt, and Lloyd Sumner" "instrument type=LC-ESI-TOF" "instrument=impact HD" "ionization=ESI" "ionization mode=negative" "peak width=0.0037" "date=2013-02-26 03:27:52+01:00" "column=Waters Acquity BEH C18 1.7um x 2.1 x 150 mm" "retention time=808.8" "raw data file=C:\Data\A-17 MSMS aerial root\A-17 root aerial MM Std\A-17_root_extr_MSMS1.d" "SMILES=[C@H]1([C@@H]([C@@](C2[C@](C1)(C1[C@@](CC2)([C@]2(C(=CC1)[C@H]1[C@@](CC2)(CCC(C1)(C)C)C(=O)O[C@@H]1O[C@@H]([C@H]([C@@H]([C@H]1O)O)O)CO)C)C)C)(C)C(=O)O)O[C@@H]1O[C@@H]([C@H]([C@@H]([C@H]1O)O)O)COC(=O)CC(=O)O)O" "InChI=InChI=1S/C45H68O19/c1-40(2)11-13-45(39(59)64-37-34(56)31(53)29(51)23(18-46)61-37)14-12-42(4)20(21(45)16-40)7-8-25-41(3)17-22(47)35(44(6,38(57)58)26(41)9-10-43(25,42)5)63-36-33(55)32(54)30(52)24(62-36)19-60-28(50)15-27(48)49/h7,21-26,29-37,46-47,51-56H,8-19H2,1-6H3,(H,48,49)(H,57,58)/t21-,22-,23+,24+,25?,26?,29+,30+,31-,32-,33+,34+,35-,36-,37-,41+,42+,43+,44-,45-/m0/s1" "InChIKey=YOXRCWBQUFOFDB-DELBEMASSA-N" "molecular formula=C45H68O19" "total exact mass=912.4354799559999" "SMILES=C1(C(C(C2C(C1)(C3C(CC2)(C4(C(=CC3)C5C(CC4)(CCC(C5)(C)C)C(OC6OC(C(C(C6O)O)O)CO)=O)C)C)C)(C)C(=O)O)OC7OC(C(C(C7O)O)O)COC(CC(O)=O)=O)O"
Num Peaks: 32
 478 0.400400; 
 478 0.200200; 
 623 0.800801; 
 623 0.500501; 
 867 1.501502; 
 867 0.200200; 
 868 0.700701; 
 882 0.600601; 
 882 0.600601; 
 883 0.400400; 
 883 0.100100; 
 889 1.001001; 
 911 100.000000; 
 911 0.100100; 
 911 0.600601; 
 912 46.746747; 
 912 0.200200; 
 913 11.611612; 
 914 1.901902; 
 922 0.600601; 
 922 0.600601; 
 933 6.506507; 
 933 0.400400; 
 934 2.802803; 
 935 0.800801; 
 1001 1.401401; 
 1002 0.800801; 
 1011 0.900901; 
 1012 0.700701; 
 1012 0.100100; 
 1013 0.100100; 
 1069 0.600601; 


Name: 3-(6'-O-Malonyl)-Glu-28-Glu Medicagenic acid
SYNON: $:00in-source
DB#: MetaboBASE1044
InChIKey: YOXRCWBQUFOFDB-DELBEMASSA-N
Spectrum_type: MS2
PrecursorMZ: 1368.232
Instrument_type: LC-ESI-TOF
Instrument: impact HD
Ion_mode: N
Collision_energy: 70.0587
InChIKey: YOXRCWBQUFOFDB-DELBEMASSA-N
Formula: C45H68O19
MW: 912
ExactMass: 912.435479956
Comments: "license=License CC-BY-NC-SA 4.0 International" "author=Plant Biology, The Noble Foundation, Ardmore, OK, US/Dennis Fine, Daniel Wherritt, and Lloyd Sumner" "instrument type=LC-ESI-TOF" "instrument=impact HD" "ionization=ESI" "ionization mode=negative" "ms level=MS2" "precursor m/z=1368.232" "isolation width=13.6823" "collision energy=70.0587" "collision energy 2=116.764" "peak width=0.018" "date=2014-06-03 20:53:11+02:00" "column=Waters Acquity BEH C18 1.7um x 2.1 x 150 mm" "retention time=808.8" "raw data file=C:\Data\BWatson\14Jun03_BW_HR1-D_MSMS_2-A,1_01_198.d" "SMILES=[C@H]1([C@@H]([C@@](C2[C@](C1)(C1[C@@](CC2)([C@]2(C(=CC1)[C@H]1[C@@](CC2)(CCC(C1)(C)C)C(=O)O[C@@H]1O[C@@H]([C@H]([C@@H]([C@H]1O)O)O)CO)C)C)C)(C)C(=O)O)O[C@@H]1O[C@@H]([C@H]([C@@H]([C@H]1O)O)O)COC(=O)CC(=O)O)O" "InChI=InChI=1S/C45H68O19/c1-40(2)11-13-45(39(59)64-37-34(56)31(53)29(51)23(18-46)61-37)14-12-42(4)20(21(45)16-40)7-8-25-41(3)17-22(47)35(44(6,38(57)58)26(41)9-10-43(25,42)5)63-36-33(55)32(54)30(52)24(62-36)19-60-28(50)15-27(48)49/h7,21-26,29-37,46-47,51-56H,8-19H2,1-6H3,(H,48,49)(H,57,58)/t21-,22-,23+,24+,25?,26?,29+,30+,31-,32-,33+,34+,35-,36-,37-,41+,42+,43+,44-,45-/m0/s1" "InChIKey=YOXRCWBQUFOFDB-DELBEMASSA-N" "molecular formula=C45H68O19" "total exact mass=912.435479956" "SMILES=C1(C(C(C2C(C1)(C3C(CC2)(C4(C(=CC3)C5C(CC4)(CCC(C5)(C)C)C(OC6OC(C(C(C6O)O)O)CO)=O)C)C)C)(C)C(=O)O)OC7OC(C(C(C7O)O)O)COC(CC(O)=O)=O)O"
Num Peaks: 6
 101 45.845846; 
 161 51.751752; 
 439 100.000000; 
 440 29.229229; 
 867 77.377377; 
 868 36.636637; 


Name: 3-(6'-O-Malonyl)-Glu-28-Glu Medicagenic acid
SYNON: $:00in-source
DB#: MetaboBASE1045
InChIKey: YOXRCWBQUFOFDB-DELBEMASSA-N
Precursor_type: [M-H]-
Spectrum_type: MS2
PrecursorMZ: 911.4889
Instrument_type: LC-ESI-TOF
Instrument: impact HD
Ion_mode: N
Collision_energy: 52.9308
InChIKey: YOXRCWBQUFOFDB-DELBEMASSA-N
Formula: C45H68O19
MW: 912
ExactMass: 912.435479956
Comments: "license=License CC-BY-NC-SA 4.0 International" "author=Plant Biology, The Noble Foundation, Ardmore, OK, US/Dennis Fine, Daniel Wherritt, and Lloyd Sumner" "instrument type=LC-ESI-TOF" "instrument=impact HD" "ionization=ESI" "ionization mode=negative" "ms level=MS2" "precursor m/z=911.4889" "isolation width=9.64596" "collision energy=52.9308" "collision energy 2=88.2181" "peak width=0.018" "date=2014-06-03 20:53:11+02:00" "column=Waters Acquity BEH C18 1.7um x 2.1 x 150 mm" "retention time=808.8" "raw data file=C:\Data\BWatson\14Jun03_BW_HR1-D_MSMS_2-A,1_01_198.d" "precursor type=[M-H]-" "mass accuracy=66.58999796925296" "mass error=0.06069604399999662" "SMILES=[C@H]1([C@@H]([C@@](C2[C@](C1)(C1[C@@](CC2)([C@]2(C(=CC1)[C@H]1[C@@](CC2)(CCC(C1)(C)C)C(=O)O[C@@H]1O[C@@H]([C@H]([C@@H]([C@H]1O)O)O)CO)C)C)C)(C)C(=O)O)O[C@@H]1O[C@@H]([C@H]([C@@H]([C@H]1O)O)O)COC(=O)CC(=O)O)O" "InChI=InChI=1S/C45H68O19/c1-40(2)11-13-45(39(59)64-37-34(56)31(53)29(51)23(18-46)61-37)14-12-42(4)20(21(45)16-40)7-8-25-41(3)17-22(47)35(44(6,38(57)58)26(41)9-10-43(25,42)5)63-36-33(55)32(54)30(52)24(62-36)19-60-28(50)15-27(48)49/h7,21-26,29-37,46-47,51-56H,8-19H2,1-6H3,(H,48,49)(H,57,58)/t21-,22-,23+,24+,25?,26?,29+,30+,31-,32-,33+,34+,35-,36-,37-,41+,42+,43+,44-,45-/m0/s1" "InChIKey=YOXRCWBQUFOFDB-DELBEMASSA-N" "molecular formula=C45H68O19" "total exact mass=912.435479956" "SMILES=C1(C(C(C2C(C1)(C3C(CC2)(C4(C(=CC3)C5C(CC4)(CCC(C5)(C)C)C(OC6OC(C(C(C6O)O)O)CO)=O)C)C)C)(C)C(=O)O)OC7OC(C(C(C7O)O)O)COC(CC(O)=O)=O)O"
Num Peaks: 15
 101 75.775776; 
 113 13.913914; 
 119 11.611612; 
 125 4.804805; 
 131 13.913914; 
 143 9.509510; 
 149 14.714715; 
 155 7.307307; 
 161 60.760761; 
 221 7.007007; 
 439 100.000000; 
 440 29.829830; 
 441 5.405405; 
 705 6.306306; 
 867 6.306306; 


Name: 3-Rha(1-2)Gal(1-2)GluA-Soyasaponenol B
SYNON: $:00in-source
DB#: MetaboBASE1046
InChIKey: PTDAHAWQAGSZDD-VJQGOKKYSA-N
Precursor_type: [M-H]-
Spectrum_type: MS2
PrecursorMZ: 941.5121
Instrument_type: LC-ESI-TOF
Instrument: impact HD
Ion_mode: N
Collision_energy: 52.5
InChIKey: PTDAHAWQAGSZDD-VJQGOKKYSA-N
Formula: C48H78O18
MW: 942
ExactMass: 942.518815656
Comments: "license=License CC-BY-NC-SA 4.0 International" "author=Plant Biology, The Noble Foundation, Ardmore, OK, US/Dennis Fine, Daniel Wherritt, and Lloyd Sumner" "instrument type=LC-ESI-TOF" "instrument=impact HD" "ionization=ESI" "ionization mode=negative" "ms level=MS2" "precursor m/z=941.5121" "isolation width=10" "collision energy=52.5" "collision energy 2=87.5" "peak width=0.0034" "date=2013-02-26 03:27:52+01:00" "column=Waters Acquity BEH C18 1.7um x 2.1 x 150 mm" "retention time=1044.6" "raw data file=C:\Data\A-17 MSMS aerial root\A-17 root aerial MM Std\A-17_root_extr_MSMS1.d" "precursor type=[M-H]-" "mass accuracy=0.5951532646942146" "mass error=5.603440000641058E-4" "SMILES=C1[C@@H]([C@@](C2[C@](C1)(C1[C@@](CC2)([C@]2(C(=CC1)[C@H]1[C@@](CC2)([C@@H](CC(C1)(C)C)O)C)C)C)C)(CO)C)O[C@@H]1O[C@@H]([C@H]([C@@H]([C@H]1O[C@@H]1O[C@@H]([C@@H]([C@@H]([C@H]1O[C@@H]1O[C@H]([C@@H]([C@H]([C@H]1O)O)O)C)O)O)CO)O)O)C(=O)O" "InChI=InChI=1S/C48H78O18/c1-21-29(52)31(54)35(58)40(61-21)65-37-32(55)30(53)24(19-49)62-41(37)66-38-34(57)33(56)36(39(59)60)64-42(38)63-28-12-13-45(5)25(46(28,6)20-50)11-14-48(8)26(45)10-9-22-23-17-43(2,3)18-27(51)44(23,4)15-16-47(22,48)7/h9,21,23-38,40-42,49-58H,10-20H2,1-8H3,(H,59,60)/t21-,23-,24+,25?,26?,27+,28-,29-,30-,31+,32-,33-,34-,35+,36-,37+,38+,40-,41-,42+,44+,45-,46+,47+,48+/m0/s1" "InChIKey=PTDAHAWQAGSZDD-VJQGOKKYSA-N" "molecular formula=C48H78O18" "total exact mass=942.518815656" "SMILES=C1C(C(C2C(C1)(C3C(CC2)(C4(C(=CC3)C5C(CC4)(C(CC(C5)(C)C)O)C)C)C)C)(CO)C)OC6OC(C(C(C6OC7OC(C(C(C7OC8OC(C(C(C8O)O)O)C)O)O)CO)O)O)C(=O)O"
Num Peaks: 26
 99 1.601602; 
 100 0.900901; 
 101 1.301301; 
 112 0.900901; 
 113 1.301301; 
 113 1.101101; 
 119 1.001001; 
 143 1.501502; 
 163 2.602603; 
 180 0.900901; 
 205 1.301301; 
 247 3.003003; 
 256 0.800801; 
 265 0.800801; 
 457 0.800801; 
 462 1.101101; 
 604 1.001001; 
 879 0.900901; 
 923 0.700701; 
 923 1.501502; 
 934 0.900901; 
 941 100.000000; 
 942 59.159159; 
 943 22.022022; 
 944 1.801802; 
 1042 0.700701; 


Name: 3-Rha(1-2)Gal(1-2)GluA-Soyasaponenol B
SYNON: $:00in-source
DB#: MetaboBASE1047
InChIKey: PTDAHAWQAGSZDD-VJQGOKKYSA-N
Instrument_type: LC-ESI-TOF
Instrument: impact HD
Ion_mode: N
InChIKey: PTDAHAWQAGSZDD-VJQGOKKYSA-N
Formula: C48H78O18
MW: 942
ExactMass: 942.518815656
Comments: "license=License CC-BY-NC-SA 4.0 International" "author=Plant Biology, The Noble Foundation, Ardmore, OK, US/Dennis Fine, Daniel Wherritt, and Lloyd Sumner" "instrument type=LC-ESI-TOF" "instrument=impact HD" "ionization=ESI" "ionization mode=negative" "peak width=0.0029" "date=2013-02-26 03:27:52+01:00" "column=Waters Acquity BEH C18 1.7um x 2.1 x 150 mm" "retention time=1044.6" "raw data file=C:\Data\A-17 MSMS aerial root\A-17 root aerial MM Std\A-17_root_extr_MSMS1.d" "SMILES=C1[C@@H]([C@@](C2[C@](C1)(C1[C@@](CC2)([C@]2(C(=CC1)[C@H]1[C@@](CC2)([C@@H](CC(C1)(C)C)O)C)C)C)C)(CO)C)O[C@@H]1O[C@@H]([C@H]([C@@H]([C@H]1O[C@@H]1O[C@@H]([C@@H]([C@@H]([C@H]1O[C@@H]1O[C@H]([C@@H]([C@H]([C@H]1O)O)O)C)O)O)CO)O)O)C(=O)O" "InChI=InChI=1S/C48H78O18/c1-21-29(52)31(54)35(58)40(61-21)65-37-32(55)30(53)24(19-49)62-41(37)66-38-34(57)33(56)36(39(59)60)64-42(38)63-28-12-13-45(5)25(46(28,6)20-50)11-14-48(8)26(45)10-9-22-23-17-43(2,3)18-27(51)44(23,4)15-16-47(22,48)7/h9,21,23-38,40-42,49-58H,10-20H2,1-8H3,(H,59,60)/t21-,23-,24+,25?,26?,27+,28-,29-,30-,31+,32-,33-,34-,35+,36-,37+,38+,40-,41-,42+,44+,45-,46+,47+,48+/m0/s1" "InChIKey=PTDAHAWQAGSZDD-VJQGOKKYSA-N" "molecular formula=C48H78O18" "total exact mass=942.518815656" "SMILES=C1C(C(C2C(C1)(C3C(CC2)(C4(C(=CC3)C5C(CC4)(C(CC(C5)(C)C)O)C)C)C)C)(CO)C)OC6OC(C(C(C6OC7OC(C(C(C7OC8OC(C(C(C8O)O)O)C)O)O)CO)O)O)C(=O)O"
Num Peaks: 25
 691 0.500501; 
 749 3.903904; 
 750 1.401401; 
 941 0.100100; 
 941 0.100100; 
 941 100.000000; 
 942 47.547548; 
 942 0.100100; 
 943 11.911912; 
 944 2.302302; 
 977 0.900901; 
 987 14.414414; 
 988 7.007007; 
 989 1.801802; 
 1009 8.308308; 
 1010 3.803804; 
 1011 1.101101; 
 1059 1.301301; 
 1060 0.900901; 
 1061 0.100100; 
 1077 1.401401; 
 1078 0.800801; 
 1413 0.900901; 
 1413 0.800801; 
 1414 0.300300; 


Name: 6'-Malonyl-3-Glu Medicarpin
SYNON: $:00in-source
DB#: MetaboBASE1048
InChIKey: BQAJKXKYTQTBDK-PCHDOLKHSA-N
Spectrum_type: MS2
PrecursorMZ: 254.0582
Instrument_type: LC-ESI-TOF
Instrument: impact HD
Ion_mode: N
Collision_energy: 22.2218
InChIKey: BQAJKXKYTQTBDK-PCHDOLKHSA-N
Formula: C25H26O12
MW: 518
ExactMass: 518.142426272
Comments: "license=License CC-BY-NC-SA 4.0 International" "author=Plant Biology, The Noble Foundation, Ardmore, OK, US/Dennis Fine, Daniel Wherritt, and Lloyd Sumner" "instrument type=LC-ESI-TOF" "instrument=impact HD" "ionization=ESI" "ionization mode=negative" "ms level=MS2" "precursor m/z=254.0582" "collision energy=22.2218" "collision energy 2=37.0364" "peak width=0.0029" "date=2013-02-26 03:27:52+01:00" "column=Waters Acquity BEH C18 1.7um x 2.1 x 150 mm" "retention time=652.8" "raw data file=C:\Data\A-17 MSMS aerial root\A-17 root aerial MM Std\A-17_root_extr_MSMS1.d" "Last Auto-Curation=1505110996985" "SMILES=c1(ccc2c(c1)OC[C@@H]1[C@H]2Oc2c1ccc(c2)OC)O[C@@H]1O[C@@H]([C@H]([C@@H]([C@H]1O)O)O)COC(=O)CC(=O)O" "InChI=InChI=1S/C25H26O12/c1-32-11-2-4-13-15-9-33-16-7-12(3-5-14(16)24(15)36-17(13)6-11)35-25-23(31)22(30)21(29)18(37-25)10-34-20(28)8-19(26)27/h2-7,15,18,21-25,29-31H,8-10H2,1H3,(H,26,27)/t15-,18+,21+,22-,23+,24-,25+/m0/s1" "InChIKey=BQAJKXKYTQTBDK-PCHDOLKHSA-N" "molecular formula=C25H26O12" "total exact mass=518.142426272" "SMILES=[H]OC(=O)C([H])([H])C(=O)OC([H])([H])C1([H])OC([H])(OC2=C([H])C([H])=C3C(OC([H])([H])C4([H])C5=C([H])C([H])=C(OC([H])([H])[H])C([H])=C5OC34[H])=C2[H])C([H])(O[H])C([H])(O[H])C1([H])O[H]"
Num Peaks: 9
 108 16.116116; 
 185 16.916917; 
 191 18.118118; 
 212 17.317317; 
 225 30.030030; 
 225 43.443443; 
 237 18.118118; 
 253 35.035035; 
 254 100.000000; 


Name: 6'-Malonyl-3-Glu Medicarpin
SYNON: $:00in-source
DB#: MetaboBASE1049
InChIKey: BQAJKXKYTQTBDK-PCHDOLKHSA-N
Spectrum_type: MS2
PrecursorMZ: 269.0821
Instrument_type: LC-ESI-TOF
Instrument: impact HD
Ion_mode: N
Collision_energy: 22.9261
InChIKey: BQAJKXKYTQTBDK-PCHDOLKHSA-N
Formula: C25H26O12
MW: 518
ExactMass: 518.142426272
Comments: "license=License CC-BY-NC-SA 4.0 International" "author=Plant Biology, The Noble Foundation, Ardmore, OK, US/Dennis Fine, Daniel Wherritt, and Lloyd Sumner" "instrument type=LC-ESI-TOF" "instrument=impact HD" "ionization=ESI" "ionization mode=negative" "ms level=MS2" "precursor m/z=269.0821" "collision energy=22.9261" "collision energy 2=38.2102" "peak width=0.0058" "date=2013-02-26 03:27:52+01:00" "column=Waters Acquity BEH C18 1.7um x 2.1 x 150 mm" "retention time=652.8" "raw data file=C:\Data\A-17 MSMS aerial root\A-17 root aerial MM Std\A-17_root_extr_MSMS1.d" "Last Auto-Curation=1505111325593" "SMILES=c1(ccc2c(c1)OC[C@@H]1[C@H]2Oc2c1ccc(c2)OC)O[C@@H]1O[C@@H]([C@H]([C@@H]([C@H]1O)O)O)COC(=O)CC(=O)O" "InChI=InChI=1S/C25H26O12/c1-32-11-2-4-13-15-9-33-16-7-12(3-5-14(16)24(15)36-17(13)6-11)35-25-23(31)22(30)21(29)18(37-25)10-34-20(28)8-19(26)27/h2-7,15,18,21-25,29-31H,8-10H2,1H3,(H,26,27)/t15-,18+,21+,22-,23+,24-,25+/m0/s1" "InChIKey=BQAJKXKYTQTBDK-PCHDOLKHSA-N" "molecular formula=C25H26O12" "total exact mass=518.142426272" "SMILES=[H]OC(=O)C([H])([H])C(=O)OC([H])([H])C1([H])OC([H])(OC2=C([H])C([H])=C3C(OC([H])([H])C4([H])C5=C([H])C([H])=C(OC([H])([H])[H])C([H])=C5OC34[H])=C2[H])C([H])(O[H])C([H])(O[H])C1([H])O[H]"
Num Peaks: 33
 108 1.701702; 
 132 0.500501; 
 133 0.700701; 
 142 0.400400; 
 165 0.500501; 
 183 0.500501; 
 185 2.202202; 
 186 1.301301; 
 197 0.400400; 
 207 0.500501; 
 208 0.400400; 
 209 3.203203; 
 210 1.301301; 
 210 0.800801; 
 211 3.903904; 
 211 0.900901; 
 212 0.400400; 
 223 0.500501; 
 224 0.700701; 
 225 12.012012; 
 226 5.605606; 
 227 0.900901; 
 235 1.201201; 
 237 3.203203; 
 239 6.006006; 
 240 0.500501; 
 253 12.612613; 
 254 100.000000; 
 255 9.909910; 
 256 1.501502; 
 269 4.004004; 
 270 0.800801; 
 1080 0.400400; 


Name: 6'-Malonyl-3-Glu Medicarpin
SYNON: $:00in-source
DB#: MetaboBASE1050
InChIKey: BQAJKXKYTQTBDK-PCHDOLKHSA-N
Instrument_type: LC-ESI-TOF
Instrument: impact HD
Ion_mode: N
InChIKey: BQAJKXKYTQTBDK-PCHDOLKHSA-N
Formula: C25H26O12
MW: 518
ExactMass: 518.142426272
Comments: "license=License CC-BY-NC-SA 4.0 International" "author=Plant Biology, The Noble Foundation, Ardmore, OK, US/Dennis Fine, Daniel Wherritt, and Lloyd Sumner" "instrument type=LC-ESI-TOF" "instrument=impact HD" "ionization=ESI" "ionization mode=negative" "peak width=0.0066" "date=2013-02-26 03:27:52+01:00" "column=Waters Acquity BEH C18 1.7um x 2.1 x 150 mm" "retention time=652.8" "raw data file=C:\Data\A-17 MSMS aerial root\A-17 root aerial MM Std\A-17_root_extr_MSMS1.d" "Last Auto-Curation=1505110997272" "SMILES=c1(ccc2c(c1)OC[C@@H]1[C@H]2Oc2c1ccc(c2)OC)O[C@@H]1O[C@@H]([C@H]([C@@H]([C@H]1O)O)O)COC(=O)CC(=O)O" "InChI=InChI=1S/C25H26O12/c1-32-11-2-4-13-15-9-33-16-7-12(3-5-14(16)24(15)36-17(13)6-11)35-25-23(31)22(30)21(29)18(37-25)10-34-20(28)8-19(26)27/h2-7,15,18,21-25,29-31H,8-10H2,1H3,(H,26,27)/t15-,18+,21+,22-,23+,24-,25+/m0/s1" "InChIKey=BQAJKXKYTQTBDK-PCHDOLKHSA-N" "molecular formula=C25H26O12" "total exact mass=518.142426272" "SMILES=[H]OC(=O)C([H])([H])C(=O)OC([H])([H])C1([H])OC([H])(OC2=C([H])C([H])=C3C(OC([H])([H])C4([H])C5=C([H])C([H])=C(OC([H])([H])[H])C([H])=C5OC34[H])=C2[H])C([H])(O[H])C([H])(O[H])C1([H])O[H]"
Num Peaks: 25
 254 35.335335; 
 255 5.105105; 
 268 0.300300; 
 268 0.200200; 
 269 100.000000; 
 270 15.415415; 
 271 2.002002; 
 291 2.702703; 
 337 5.805806; 
 338 0.900901; 
 405 0.700701; 
 515 0.700701; 
 541 1.501502; 
 542 0.100100; 
 609 0.900901; 
 617 2.802803; 
 618 0.900901; 
 619 0.200200; 
 1035 5.105105; 
 1036 0.100100; 
 1036 2.502503; 
 1037 0.900901; 
 1057 1.001001; 
 1058 0.700701; 
 1059 0.100100; 


Name: 3-Rha-7-Rha Kaempferol
SYNON: $:00in-source
DB#: MetaboBASE1051
InChIKey: PUPKKEQDLNREIM-QNSQPKOQSA-N
Instrument_type: LC-ESI-TOF
Instrument: impact HD
Ion_mode: N
InChIKey: PUPKKEQDLNREIM-QNSQPKOQSA-N
Formula: C27H30O14
MW: 578
ExactMass: 578.1635556399999
Comments: "license=License CC-BY-NC-SA 4.0 International" "author=Plant Biology, The Noble Foundation, Ardmore, OK, US/Dennis Fine, Daniel Wherritt, and Lloyd Sumner" "instrument type=LC-ESI-TOF" "instrument=impact HD" "ionization=ESI" "ionization mode=negative" "peak width=0.011" "date=2013-12-09 22:32:55+01:00" "column=Waters Acquity BEH C18 1.7um x 2.1 x 150 mm" "retention time=208.8" "raw data file=C:\Data\AtW_4_1p13_9Dec_13msms.d" "SMILES=O=c1c2c(oc(c1O[C@@H]1O[C@H]([C@@H]([C@H]([C@H]1O)O)O)C)c1ccc(cc1)O)cc(cc2O)O[C@@H]1O[C@H]([C@@H]([C@H]([C@H]1O)O)O)C" "InChI=InChI=1S/C27H30O14/c1-9-17(30)20(33)22(35)26(37-9)39-13-7-14(29)16-15(8-13)40-24(11-3-5-12(28)6-4-11)25(19(16)32)41-27-23(36)21(34)18(31)10(2)38-27/h3-10,17-18,20-23,26-31,33-36H,1-2H3/t9-,10-,17-,18-,20+,21+,22+,23+,26-,27-/m0/s1" "InChIKey=PUPKKEQDLNREIM-QNSQPKOQSA-N" "molecular formula=C27H30O14" "total exact mass=578.1635556399999" "SMILES=O=C1C2=C(OC(=C1OC3OC(C(C(C3O)O)O)C)C4=CC=C(C=C4)O)C=C(C=C2O)OC5OC(C(C(C5O)O)O)C"
Num Peaks: 171
 387 0.400400; 
 388 0.100100; 
 607 2.402402; 
 608 0.700701; 
 609 0.200200; 
 727 0.300300; 
 728 0.100100; 
 753 0.100100; 
 753 5.505506; 
 754 0.100100; 
 754 0.100100; 
 754 1.701702; 
 754 0.100100; 
 755 0.100100; 
 755 0.100100; 
 755 0.100100; 
 755 100.000000; 
 755 0.100100; 
 755 0.100100; 
 755 0.100100; 
 756 0.100100; 
 756 35.935936; 
 756 0.100100; 
 757 9.709710; 
 758 1.601602; 
 759 0.300300; 
 781 0.300300; 
 782 0.200200; 
 782 0.100100; 
 783 0.100100; 
 789 0.100100; 
 791 0.200200; 
 792 0.100100; 
 792 0.100100; 
 793 0.100100; 
 799 0.800801; 
 800 0.200200; 
 801 0.100100; 
 807 0.100100; 
 808 0.100100; 
 816 0.100100; 
 817 0.100100; 
 821 0.300300; 
 822 0.100100; 
 823 2.002002; 
 824 0.600601; 
 825 0.200200; 
 839 0.100100; 
 839 0.100100; 
 845 0.100100; 
 853 0.100100; 
 853 0.200200; 
 854 0.600601; 
 855 0.400400; 
 856 0.100100; 
 857 0.100100; 
 871 0.200200; 
 872 0.100100; 
 873 1.601602; 
 874 0.600601; 
 875 0.300300; 
 876 0.100100; 
 876 0.100100; 
 885 0.200200; 
 886 0.100100; 
 891 0.100100; 
 1013 0.100100; 
 1143 0.200200; 
 1144 0.200200; 
 1144 0.100100; 
 1144 0.200200; 
 1145 0.100100; 
 1152 0.200200; 
 1152 0.100100; 
 1153 0.100100; 
 1155 0.100100; 
 1155 0.100100; 
 1156 0.100100; 
 1156 0.100100; 
 1158 0.100100; 
 1159 0.100100; 
 1159 0.500501; 
 1160 0.500501; 
 1160 0.300300; 
 1161 0.200200; 
 1161 0.100100; 
 1163 0.100100; 
 1170 0.100100; 
 1171 0.200200; 
 1171 0.100100; 
 1509 1.801802; 
 1509 0.400400; 
 1510 2.702703; 
 1510 1.701702; 
 1511 0.100100; 
 1511 11.911912; 
 1511 0.100100; 
 1512 1.801802; 
 1512 7.407407; 
 1513 0.600601; 
 1513 2.602603; 
 1513 0.100100; 
 1514 0.100100; 
 1514 0.800801; 
 1515 0.100100; 
 1515 0.100100; 
 1515 0.200200; 
 1521 0.100100; 
 1521 0.200200; 
 1522 0.500501; 
 1522 0.500501; 
 1523 0.400400; 
 1523 0.200200; 
 1524 0.100100; 
 1524 0.100100; 
 1530 0.200200; 
 1530 0.100100; 
 1531 0.200200; 
 1531 0.100100; 
 1532 0.100100; 
 1533 0.300300; 
 1533 0.100100; 
 1534 0.100100; 
 1534 0.200200; 
 1535 0.100100; 
 1535 0.100100; 
 1535 0.100100; 
 1536 0.100100; 
 1536 0.100100; 
 1536 0.100100; 
 1537 0.200200; 
 1537 0.300300; 
 1538 0.300300; 
 1538 0.200200; 
 1539 0.200200; 
 1539 0.100100; 
 1548 0.100100; 
 1548 0.100100; 
 1548 0.100100; 
 1762 0.100100; 
 1762 0.200200; 
 1763 0.400400; 
 1763 0.300300; 
 1763 0.200200; 
 1764 0.400400; 
 1764 0.300300; 
 1764 0.400400; 
 1765 0.100100; 
 1770 0.100100; 
 1770 0.100100; 
 1770 0.100100; 
 1771 0.100100; 
 1771 0.100100; 
 1771 0.100100; 
 1772 0.100100; 
 1781 0.100100; 
 1781 0.100100; 
 1782 0.100100; 
 1887 0.100100; 
 1888 0.100100; 
 1888 0.500501; 
 1889 0.200200; 
 1889 0.700701; 
 1890 0.600601; 
 1890 0.500501; 
 1891 0.400400; 
 1891 0.200200; 
 1892 0.100100; 
 1900 0.100100; 
 1901 0.200200; 
 1901 0.100100; 


Name: 3-Rha-7-Rha Kaempferol
SYNON: $:00in-source
DB#: MetaboBASE1052
InChIKey: PUPKKEQDLNREIM-QNSQPKOQSA-N
Spectrum_type: MS2
PrecursorMZ: 755.1657
Instrument_type: LC-ESI-TOF
Instrument: impact HD
Ion_mode: N
Collision_energy: 45.7128
InChIKey: PUPKKEQDLNREIM-QNSQPKOQSA-N
Formula: C27H30O14
MW: 578
ExactMass: 578.1635556399999
Comments: "license=License CC-BY-NC-SA 4.0 International" "author=Plant Biology, The Noble Foundation, Ardmore, OK, US/Dennis Fine, Daniel Wherritt, and Lloyd Sumner" "instrument type=LC-ESI-TOF" "instrument=impact HD" "ionization=ESI" "ionization mode=negative" "ms level=MS2" "precursor m/z=755.1657" "collision energy=45.7128" "collision energy 2=76.188" "peak width=0.014" "date=2013-12-09 22:32:55+01:00" "column=Waters Acquity BEH C18 1.7um x 2.1 x 150 mm" "retention time=208.8" "raw data file=C:\Data\AtW_4_1p13_9Dec_13msms.d" "SMILES=O=c1c2c(oc(c1O[C@@H]1O[C@H]([C@@H]([C@H]([C@H]1O)O)O)C)c1ccc(cc1)O)cc(cc2O)O[C@@H]1O[C@H]([C@@H]([C@H]([C@H]1O)O)O)C" "InChI=InChI=1S/C27H30O14/c1-9-17(30)20(33)22(35)26(37-9)39-13-7-14(29)16-15(8-13)40-24(11-3-5-12(28)6-4-11)25(19(16)32)41-27-23(36)21(34)18(31)10(2)38-27/h3-10,17-18,20-23,26-31,33-36H,1-2H3/t9-,10-,17-,18-,20+,21+,22+,23+,26-,27-/m0/s1" "InChIKey=PUPKKEQDLNREIM-QNSQPKOQSA-N" "molecular formula=C27H30O14" "total exact mass=578.1635556399999" "SMILES=O=C1C2=C(OC(=C1OC3OC(C(C(C3O)O)O)C)C4=CC=C(C=C4)O)C=C(C=C2O)OC5OC(C(C(C5O)O)O)C"
Num Peaks: 67
 107 0.100100; 
 151 0.500501; 
 179 0.300300; 
 199 0.100100; 
 214 0.100100; 
 215 0.100100; 
 226 0.200200; 
 227 0.700701; 
 228 0.100100; 
 229 0.100100; 
 229 0.100100; 
 241 0.500501; 
 242 1.201201; 
 243 1.801802; 
 244 0.300300; 
 245 0.400400; 
 253 0.100100; 
 254 0.400400; 
 255 1.301301; 
 256 0.300300; 
 257 0.100100; 
 270 1.701702; 
 271 27.627628; 
 272 4.204204; 
 273 0.700701; 
 282 0.200200; 
 283 0.200200; 
 284 0.100100; 
 295 0.100100; 
 297 0.100100; 
 297 0.100100; 
 297 0.200200; 
 298 1.101101; 
 299 100.000000; 
 300 24.424424; 
 301 6.706707; 
 302 0.900901; 
 303 0.100100; 
 313 0.100100; 
 314 0.100100; 
 325 0.500501; 
 326 0.100100; 
 343 0.100100; 
 355 0.100100; 
 401 0.100100; 
 417 0.100100; 
 418 0.100100; 
 445 2.102102; 
 446 57.457457; 
 447 13.713714; 
 448 2.502503; 
 449 0.400400; 
 450 0.100100; 
 463 0.100100; 
 489 0.200200; 
 490 0.100100; 
 607 1.001001; 
 608 0.400400; 
 609 9.809810; 
 610 2.802803; 
 611 0.600601; 
 612 0.100100; 
 635 0.100100; 
 755 14.414414; 
 756 4.604605; 
 757 1.201201; 
 758 0.200200; 


Name: 3-Rha-7-Rha Quercetin
SYNON: $:00in-source
DB#: MetaboBASE1053
InChIKey: GXLQUHPXGLZNGE-BJBZVNFPSA-N
Precursor_type: [M-H]-
Spectrum_type: MS2
PrecursorMZ: 593.1225
Instrument_type: LC-ESI-TOF
Instrument: impact HD
Ion_mode: N
Collision_energy: 38.1163
InChIKey: GXLQUHPXGLZNGE-BJBZVNFPSA-N
Formula: C27H30O15
MW: 594
ExactMass: 594.1584702600001
Comments: "license=License CC-BY-NC-SA 4.0 International" "author=Plant Biology, The Noble Foundation, Ardmore, OK, US/Dennis Fine, Daniel Wherritt, and Lloyd Sumner" "instrument type=LC-ESI-TOF" "instrument=impact HD" "ionization=ESI" "ionization mode=negative" "ms level=MS2" "precursor m/z=593.1225" "collision energy=38.1163" "collision energy 2=63.5272" "peak width=0.016" "date=2013-12-09 22:32:55+01:00" "column=Waters Acquity BEH C18 1.7um x 2.1 x 150 mm" "retention time=304.2" "raw data file=C:\Data\AtW_4_1p13_9Dec_13msms.d" "precursor type=[M-H]-" "mass accuracy=48.37830296450682" "mass error=-0.028694260000065697" "SMILES=O=c1c2c(oc(c1O[C@@H]1O[C@H]([C@@H]([C@H]([C@H]1O)O)O)C)c1cc(c(cc1)O)O)cc(cc2O)O[C@@H]1O[C@H]([C@@H]([C@H]([C@H]1O)O)O)C" "InChI=InChI=1S/C27H30O15/c1-8-17(31)20(34)22(36)26(38-8)40-11-6-14(30)16-15(7-11)41-24(10-3-4-12(28)13(29)5-10)25(19(16)33)42-27-23(37)21(35)18(32)9(2)39-27/h3-9,17-18,20-23,26-32,34-37H,1-2H3/t8-,9-,17-,18-,20+,21+,22+,23+,26-,27-/m0/s1" "InChIKey=GXLQUHPXGLZNGE-BJBZVNFPSA-N" "molecular formula=C27H30O15" "total exact mass=594.1584702600001" "SMILES=O=C1C2=C(OC(=C1OC3OC(C(C(C3O)O)O)C)C4=CC(=C(C=C4)O)O)C=C(C=C2O)OC5OC(C(C(C5O)O)O)C"
Num Peaks: 64
 151 0.400400; 
 152 0.100100; 
 154 0.100100; 
 163 0.100100; 
 165 0.100100; 
 167 0.100100; 
 169 0.100100; 
 169 0.100100; 
 173 0.100100; 
 183 0.100100; 
 185 0.100100; 
 187 0.100100; 
 189 0.100100; 
 199 0.100100; 
 211 0.200200; 
 212 0.100100; 
 213 0.300300; 
 214 0.100100; 
 215 0.100100; 
 226 0.100100; 
 227 3.303303; 
 228 0.600601; 
 229 0.800801; 
 230 0.100100; 
 239 0.500501; 
 240 0.100100; 
 241 0.500501; 
 242 0.100100; 
 243 0.600601; 
 244 0.100100; 
 255 32.332332; 
 256 5.705706; 
 257 2.002002; 
 258 0.300300; 
 258 0.100100; 
 267 0.100100; 
 269 0.100100; 
 282 0.100100; 
 282 0.100100; 
 283 100.000000; 
 284 19.719720; 
 285 47.647648; 
 286 6.906907; 
 287 0.900901; 
 288 0.100100; 
 297 0.100100; 
 315 0.100100; 
 327 0.400400; 
 328 0.100100; 
 357 0.100100; 
 429 0.100100; 
 429 0.100100; 
 430 40.240240; 
 431 23.723724; 
 432 4.304304; 
 433 0.700701; 
 434 0.100100; 
 447 10.710711; 
 448 2.402402; 
 449 0.500501; 
 450 0.100100; 
 593 4.704705; 
 594 1.401401; 
 595 0.400400; 


Name: 3-Rha-7-Rha Quercetin
SYNON: $:00in-source
DB#: MetaboBASE1054
InChIKey: GXLQUHPXGLZNGE-BJBZVNFPSA-N
Instrument_type: LC-ESI-TOF
Instrument: impact HD
Ion_mode: N
InChIKey: GXLQUHPXGLZNGE-BJBZVNFPSA-N
Formula: C27H30O15
MW: 594
ExactMass: 594.15847026
Comments: "license=License CC-BY-NC-SA 4.0 International" "author=Plant Biology, The Noble Foundation, Ardmore, OK, US/Dennis Fine, Daniel Wherritt, and Lloyd Sumner" "instrument type=LC-ESI-TOF" "instrument=impact HD" "ionization=ESI" "ionization mode=negative" "peak width=0.011" "date=2013-12-09 22:32:55+01:00" "column=Waters Acquity BEH C18 1.7um x 2.1 x 150 mm" "retention time=304.2" "raw data file=C:\Data\AtW_4_1p13_9Dec_13msms.d" "SMILES=O=c1c2c(oc(c1O[C@@H]1O[C@H]([C@@H]([C@H]([C@H]1O)O)O)C)c1cc(c(cc1)O)O)cc(cc2O)O[C@@H]1O[C@H]([C@@H]([C@H]([C@H]1O)O)O)C" "InChI=InChI=1S/C27H30O15/c1-8-17(31)20(34)22(36)26(38-8)40-11-6-14(30)16-15(7-11)41-24(10-3-4-12(28)13(29)5-10)25(19(16)33)42-27-23(37)21(35)18(32)9(2)39-27/h3-9,17-18,20-23,26-32,34-37H,1-2H3/t8-,9-,17-,18-,20+,21+,22+,23+,26-,27-/m0/s1" "InChIKey=GXLQUHPXGLZNGE-BJBZVNFPSA-N" "molecular formula=C27H30O15" "total exact mass=594.15847026" "SMILES=O=C1C2=C(OC(=C1OC3OC(C(C(C3O)O)O)C)C4=CC(=C(C=C4)O)O)C=C(C=C2O)OC5OC(C(C(C5O)O)O)C"
Num Peaks: 125
 116 0.300300; 
 447 0.200200; 
 463 0.300300; 
 557 0.100100; 
 593 0.100100; 
 593 0.100100; 
 593 100.000000; 
 593 0.100100; 
 593 0.100100; 
 594 31.331331; 
 595 0.100100; 
 595 6.706707; 
 596 1.101101; 
 597 0.200200; 
 619 0.300300; 
 641 0.100100; 
 645 0.200200; 
 661 2.202202; 
 662 0.500501; 
 663 0.100100; 
 663 0.100100; 
 691 0.100100; 
 692 0.200200; 
 692 0.100100; 
 693 0.100100; 
 693 0.100100; 
 711 0.200200; 
 712 0.100100; 
 723 0.200200; 
 723 0.100100; 
 723 0.100100; 
 729 0.200200; 
 739 2.602603; 
 740 0.800801; 
 741 0.200200; 
 755 0.300300; 
 916 0.300300; 
 917 0.300300; 
 917 0.200200; 
 977 0.100100; 
 977 0.300300; 
 978 0.100100; 
 978 0.100100; 
 1057 0.100100; 
 1057 0.100100; 
 1187 15.415415; 
 1187 2.902903; 
 1188 9.509510; 
 1188 0.900901; 
 1189 2.602603; 
 1189 0.100100; 
 1189 0.200200; 
 1190 0.800801; 
 1190 0.100100; 
 1191 0.200200; 
 1198 0.600601; 
 1198 0.700701; 
 1199 0.400400; 
 1199 0.300300; 
 1200 0.100100; 
 1209 0.400400; 
 1209 0.200200; 
 1210 0.300300; 
 1210 0.100100; 
 1211 0.100100; 
 1213 0.100100; 
 1214 0.300300; 
 1214 0.200200; 
 1215 0.100100; 
 1229 0.200200; 
 1229 0.200200; 
 1230 0.300300; 
 1230 0.100100; 
 1231 0.100100; 
 1260 0.100100; 
 1260 0.100100; 
 1260 0.100100; 
 1261 0.100100; 
 1261 0.100100; 
 1261 0.100100; 
 1333 0.100100; 
 1333 0.100100; 
 1357 0.100100; 
 1357 0.200200; 
 1358 0.200200; 
 1358 0.100100; 
 1358 0.100100; 
 1484 0.100100; 
 1484 1.801802; 
 1484 0.100100; 
 1484 0.100100; 
 1484 3.003003; 
 1485 2.302302; 
 1485 1.401401; 
 1486 0.600601; 
 1486 0.100100; 
 1487 0.100100; 
 1487 0.100100; 
 1495 0.200200; 
 1495 0.300300; 
 1496 0.200200; 
 1496 0.200200; 
 1497 0.100100; 
 1511 0.200200; 
 1511 0.100100; 
 1512 0.100100; 
 1557 0.100100; 
 1558 0.100100; 
 1583 0.100100; 
 1583 0.100100; 
 1584 0.200200; 
 1584 0.100100; 
 1584 0.100100; 
 1781 0.300300; 
 1781 0.100100; 
 1781 0.100100; 
 1782 0.300300; 
 1782 0.100100; 
 1782 0.700701; 
 1782 0.100100; 
 1783 0.300300; 
 1783 0.100100; 
 1783 0.300300; 
 1784 0.200200; 
 1784 0.100100; 


Name: 3-O-Neohesperidoside Kaempferol
SYNON: $:00in-source
DB#: MetaboBASE1055
InChIKey: OHOBPOYHROOXEI-JWMUNMLDSA-N
Spectrum_type: MS2
PrecursorMZ: 933.1848
Instrument_type: LC-ESI-TOF
Instrument: impact HD
Ion_mode: N
Collision_energy: 52.5
InChIKey: OHOBPOYHROOXEI-JWMUNMLDSA-N
Formula: C27H30O15
MW: 594
ExactMass: 594.1584702600001
Comments: "synonym=3-O-Neohesperidoside Kaempferol (NMR)" "license=License CC-BY-NC-SA 4.0 International" "author=Plant Biology, The Noble Foundation, Ardmore, OK, US/Dennis Fine, Daniel Wherritt, and Lloyd Sumner" "instrument type=LC-ESI-TOF" "instrument=impact HD" "ionization=ESI" "ionization mode=negative" "ms level=MS2" "precursor m/z=933.1848" "isolation width=10" "collision energy=52.5" "collision energy 2=87.5" "peak width=0.02" "date=2013-12-09 22:32:55+01:00" "column=Waters Acquity BEH C18 1.7um x 2.1 x 150 mm" "retention time=313.2" "raw data file=C:\Data\AtW_4_1p13_9Dec_13msms.d" "SMILES=c1(cc(c2c(c1)oc(c(c2=O)O[C@@H]1O[C@@H]([C@H]([C@@H]([C@H]1O[C@@H]1O[C@H]([C@@H]([C@H]([C@H]1O)O)O)C)O)O)CO)c1ccc(cc1)O)O)O" "InChI=InChI=1S/C27H30O15/c1-9-17(32)20(35)22(37)26(38-9)42-25-21(36)18(33)15(8-28)40-27(25)41-24-19(34)16-13(31)6-12(30)7-14(16)39-23(24)10-2-4-11(29)5-3-10/h2-7,9,15,17-18,20-22,25-33,35-37H,8H2,1H3/t9-,15+,17-,18+,20+,21-,22+,25+,26-,27-/m0/s1" "InChIKey=OHOBPOYHROOXEI-JWMUNMLDSA-N" "molecular formula=C27H30O15" "total exact mass=594.1584702600001" "SMILES=C1(=CC(=C2C(=C1)OC(=C(C2=O)OC3OC(C(C(C3OC4OC(C(C(C4O)O)O)C)O)O)CO)C5=CC=C(C=C5)O)O)O"
Num Peaks: 98
 115 22.422422; 
 116 1.201201; 
 117 0.200200; 
 117 0.100100; 
 121 0.900901; 
 121 0.100100; 
 132 0.100100; 
 132 0.100100; 
 133 100.000000; 
 134 4.204204; 
 135 1.301301; 
 135 0.100100; 
 135 0.300300; 
 135 0.100100; 
 136 0.100100; 
 147 1.901902; 
 149 6.806807; 
 150 0.800801; 
 151 0.200200; 
 151 0.300300; 
 158 0.100100; 
 163 0.100100; 
 164 27.927928; 
 165 2.602603; 
 166 0.100100; 
 166 0.100100; 
 167 0.200200; 
 169 0.100100; 
 178 0.100100; 
 179 4.304304; 
 180 0.100100; 
 180 0.300300; 
 182 0.100100; 
 193 0.700701; 
 208 0.800801; 
 209 0.100100; 
 222 0.400400; 
 222 0.100100; 
 222 0.100100; 
 222 0.100100; 
 223 91.091091; 
 224 9.209209; 
 225 0.100100; 
 225 0.500501; 
 225 1.301301; 
 226 0.100100; 
 226 0.100100; 
 227 0.600601; 
 229 0.100100; 
 255 0.600601; 
 260 0.100100; 
 267 0.100100; 
 271 1.501502; 
 272 0.100100; 
 284 2.202202; 
 285 0.600601; 
 299 12.512513; 
 300 3.203203; 
 301 7.607608; 
 302 0.900901; 
 302 0.200200; 
 303 0.100100; 
 305 0.100100; 
 325 0.100100; 
 339 1.401401; 
 340 0.500501; 
 341 0.100100; 
 341 0.100100; 
 344 0.100100; 
 367 0.100100; 
 397 0.100100; 
 446 3.703704; 
 447 3.503504; 
 448 0.800801; 
 449 0.200200; 
 449 0.100100; 
 505 0.100100; 
 593 0.200200; 
 593 0.200200; 
 593 8.108108; 
 593 0.100100; 
 594 2.602603; 
 595 0.500501; 
 679 0.100100; 
 680 0.100100; 
 759 0.100100; 
 759 0.100100; 
 766 0.100100; 
 907 0.100100; 
 1178 0.100100; 
 1182 0.100100; 
 1395 0.200200; 
 1427 0.100100; 
 1489 0.100100; 
 1634 0.100100; 
 1667 0.300300; 
 1793 0.100100; 
 1863 0.100100; 


Name: 3-O-Neohesperidoside Kaempferol
SYNON: $:00in-source
DB#: MetaboBASE1056
InChIKey: OHOBPOYHROOXEI-JWMUNMLDSA-N
Precursor_type: [M-H]-
Spectrum_type: MS2
PrecursorMZ: 593.1218
Instrument_type: LC-ESI-TOF
Instrument: impact HD
Ion_mode: N
Collision_energy: 38.1163
InChIKey: OHOBPOYHROOXEI-JWMUNMLDSA-N
Formula: C27H30O15
MW: 594
ExactMass: 594.15847026
Comments: "synonym=3-O-Neohesperidoside Kaempferol (NMR)" "license=License CC-BY-NC-SA 4.0 International" "author=Plant Biology, The Noble Foundation, Ardmore, OK, US/Dennis Fine, Daniel Wherritt, and Lloyd Sumner" "instrument type=LC-ESI-TOF" "instrument=impact HD" "ionization=ESI" "ionization mode=negative" "ms level=MS2" "precursor m/z=593.1218" "collision energy=38.1163" "collision energy 2=63.5272" "peak width=0.017" "date=2013-12-09 22:32:55+01:00" "column=Waters Acquity BEH C18 1.7um x 2.1 x 150 mm" "retention time=313.2" "raw data file=C:\Data\AtW_4_1p13_9Dec_13msms.d" "precursor type=[M-H]-" "mass accuracy=49.5585561007705" "mass error=-0.029394259999889982" "SMILES=c1(cc(c2c(c1)oc(c(c2=O)O[C@@H]1O[C@@H]([C@H]([C@@H]([C@H]1O[C@@H]1O[C@H]([C@@H]([C@H]([C@H]1O)O)O)C)O)O)CO)c1ccc(cc1)O)O)O" "InChI=InChI=1S/C27H30O15/c1-9-17(32)20(35)22(37)26(38-9)42-25-21(36)18(33)15(8-28)40-27(25)41-24-19(34)16-13(31)6-12(30)7-14(16)39-23(24)10-2-4-11(29)5-3-10/h2-7,9,15,17-18,20-22,25-33,35-37H,8H2,1H3/t9-,15+,17-,18+,20+,21-,22+,25+,26-,27-/m0/s1" "InChIKey=OHOBPOYHROOXEI-JWMUNMLDSA-N" "molecular formula=C27H30O15" "total exact mass=594.15847026" "SMILES=C1(=CC(=C2C(=C1)OC(=C(C2=O)OC3OC(C(C(C3OC4OC(C(C(C4O)O)O)C)O)O)CO)C5=CC=C(C=C5)O)O)O"
Num Peaks: 92
 107 0.100100; 
 107 0.100100; 
 132 0.100100; 
 135 0.100100; 
 151 0.900901; 
 152 0.100100; 
 159 0.100100; 
 163 0.100100; 
 164 0.100100; 
 179 0.600601; 
 180 0.100100; 
 185 0.100100; 
 200 0.100100; 
 211 0.200200; 
 215 0.100100; 
 226 0.500501; 
 227 26.826827; 
 228 3.903904; 
 229 0.100100; 
 229 1.901902; 
 230 0.100100; 
 230 0.300300; 
 231 0.100100; 
 239 0.700701; 
 240 0.200200; 
 241 0.100100; 
 241 0.200200; 
 242 0.300300; 
 243 1.401401; 
 244 0.300300; 
 245 0.300300; 
 254 0.500501; 
 254 0.100100; 
 255 0.100100; 
 255 52.652653; 
 256 10.410410; 
 257 2.402402; 
 258 0.300300; 
 259 0.100100; 
 267 0.100100; 
 270 0.200200; 
 271 19.319319; 
 272 3.103103; 
 273 0.800801; 
 274 0.100100; 
 281 0.100100; 
 282 0.100100; 
 282 0.100100; 
 283 2.702703; 
 283 0.100100; 
 284 100.000000; 
 284 0.100100; 
 285 25.025025; 
 286 3.303303; 
 287 0.300300; 
 287 0.100100; 
 288 0.100100; 
 298 0.100100; 
 299 41.541542; 
 300 9.309309; 
 301 24.024024; 
 302 3.503504; 
 303 0.600601; 
 309 0.200200; 
 310 0.100100; 
 311 0.100100; 
 325 0.100100; 
 326 0.200200; 
 327 0.500501; 
 328 0.100100; 
 339 0.100100; 
 363 0.100100; 
 369 0.100100; 
 393 0.100100; 
 401 0.100100; 
 411 0.100100; 
 429 1.201201; 
 430 0.500501; 
 431 0.200200; 
 431 0.100100; 
 445 0.600601; 
 446 0.100100; 
 446 20.020020; 
 447 17.517518; 
 448 3.403403; 
 449 0.500501; 
 450 0.100100; 
 473 0.300300; 
 593 14.614615; 
 594 3.603604; 
 595 0.900901; 
 596 0.200200; 


Name: 3-O-Neohesperidoside Kaempferol
SYNON: $:00in-source
DB#: MetaboBASE1057
InChIKey: OHOBPOYHROOXEI-JWMUNMLDSA-N
Instrument_type: LC-ESI-TOF
Instrument: impact HD
Ion_mode: N
InChIKey: OHOBPOYHROOXEI-JWMUNMLDSA-N
Formula: C27H30O15
MW: 594
ExactMass: 594.1584702600001
Comments: "synonym=3-O-Neohesperidoside Kaempferol (NMR)" "license=License CC-BY-NC-SA 4.0 International" "author=Plant Biology, The Noble Foundation, Ardmore, OK, US/Dennis Fine, Daniel Wherritt, and Lloyd Sumner" "instrument type=LC-ESI-TOF" "instrument=impact HD" "ionization=ESI" "ionization mode=negative" "peak width=0.013" "date=2013-12-09 22:32:55+01:00" "column=Waters Acquity BEH C18 1.7um x 2.1 x 150 mm" "retention time=313.2" "raw data file=C:\Data\AtW_4_1p13_9Dec_13msms.d" "SMILES=c1(cc(c2c(c1)oc(c(c2=O)O[C@@H]1O[C@@H]([C@H]([C@@H]([C@H]1O[C@@H]1O[C@H]([C@@H]([C@H]([C@H]1O)O)O)C)O)O)CO)c1ccc(cc1)O)O)O" "InChI=InChI=1S/C27H30O15/c1-9-17(32)20(35)22(37)26(38-9)42-25-21(36)18(33)15(8-28)40-27(25)41-24-19(34)16-13(31)6-12(30)7-14(16)39-23(24)10-2-4-11(29)5-3-10/h2-7,9,15,17-18,20-22,25-33,35-37H,8H2,1H3/t9-,15+,17-,18+,20+,21-,22+,25+,26-,27-/m0/s1" "InChIKey=OHOBPOYHROOXEI-JWMUNMLDSA-N" "molecular formula=C27H30O15" "total exact mass=594.1584702600001" "SMILES=C1(=CC(=C2C(=C1)OC(=C(C2=O)OC3OC(C(C(C3OC4OC(C(C(C4O)O)O)C)O)O)CO)C5=CC=C(C=C5)O)O)O"
Num Peaks: 178
 115 1.401401; 
 121 0.300300; 
 133 7.807808; 
 134 0.300300; 
 134 0.200200; 
 135 0.100100; 
 135 0.300300; 
 147 0.300300; 
 149 1.601602; 
 163 0.500501; 
 164 6.506507; 
 165 0.600601; 
 179 0.100100; 
 179 0.900901; 
 207 1.101101; 
 208 0.300300; 
 222 0.500501; 
 223 18.218218; 
 224 2.202202; 
 225 0.200200; 
 225 0.300300; 
 323 1.401401; 
 324 0.200200; 
 329 0.100100; 
 338 0.300300; 
 339 16.016016; 
 340 2.302302; 
 341 0.300300; 
 341 0.400400; 
 341 0.100100; 
 342 0.100100; 
 342 0.100100; 
 342 0.100100; 
 357 0.400400; 
 384 0.100100; 
 401 0.400400; 
 402 0.100100; 
 421 0.100100; 
 427 0.600601; 
 428 0.200200; 
 439 0.300300; 
 445 1.401401; 
 445 0.300300; 
 446 0.300300; 
 517 0.800801; 
 518 0.200200; 
 521 0.200200; 
 537 0.100100; 
 546 0.100100; 
 561 0.500501; 
 591 0.500501; 
 592 0.200200; 
 592 0.100100; 
 593 0.100100; 
 593 0.100100; 
 593 100.000000; 
 593 0.100100; 
 593 0.100100; 
 594 29.729730; 
 595 6.806807; 
 596 1.101101; 
 597 0.100100; 
 597 0.100100; 
 597 0.100100; 
 597 0.100100; 
 619 0.100100; 
 661 0.800801; 
 662 0.300300; 
 663 0.100100; 
 663 0.100100; 
 663 0.100100; 
 677 15.015015; 
 678 4.304304; 
 679 1.501502; 
 680 0.400400; 
 686 0.200200; 
 691 0.200200; 
 692 0.200200; 
 693 0.100100; 
 693 0.100100; 
 695 0.400400; 
 696 0.100100; 
 701 0.500501; 
 702 0.200200; 
 702 0.100100; 
 711 0.400400; 
 712 0.200200; 
 723 0.100100; 
 886 0.200200; 
 917 0.700701; 
 918 0.300300; 
 931 1.101101; 
 932 0.700701; 
 932 0.100100; 
 933 52.952953; 
 933 0.100100; 
 934 24.224224; 
 935 6.406406; 
 936 1.301301; 
 937 0.300300; 
 949 0.200200; 
 955 0.600601; 
 956 0.200200; 
 965 0.100100; 
 986 0.100100; 
 1185 0.700701; 
 1186 0.400400; 
 1186 0.100100; 
 1187 14.414414; 
 1187 0.100100; 
 1188 0.100100; 
 1188 7.907908; 
 1189 2.502503; 
 1190 0.600601; 
 1191 0.100100; 
 1209 0.100100; 
 1229 0.700701; 
 1229 0.800801; 
 1230 0.500501; 
 1230 0.300300; 
 1231 0.200200; 
 1231 0.100100; 
 1240 0.100100; 
 1271 1.101101; 
 1272 0.700701; 
 1273 0.300300; 
 1273 0.200200; 
 1274 0.100100; 
 1293 0.100100; 
 1294 0.100100; 
 1368 0.100100; 
 1368 0.100100; 
 1484 0.400400; 
 1484 0.500501; 
 1485 0.500501; 
 1485 0.300300; 
 1486 0.100100; 
 1525 0.200200; 
 1525 0.100100; 
 1525 0.100100; 
 1526 0.600601; 
 1526 0.700701; 
 1527 3.103103; 
 1527 0.500501; 
 1528 2.202202; 
 1528 0.300300; 
 1529 0.800801; 
 1529 0.100100; 
 1530 0.200200; 
 1530 0.100100; 
 1531 0.100100; 
 1531 0.100100; 
 1654 0.300300; 
 1655 0.300300; 
 1655 0.300300; 
 1656 0.200200; 
 1656 0.100100; 
 1697 0.100100; 
 1697 0.100100; 
 1698 0.100100; 
 1698 0.100100; 
 1779 0.100100; 
 1780 0.100100; 
 1781 0.100100; 
 1781 0.700701; 
 1782 0.200200; 
 1782 0.100100; 
 1782 0.900901; 
 1783 0.300300; 
 1784 0.100100; 
 1823 0.100100; 
 1824 0.100100; 
 1824 0.400400; 
 1824 0.100100; 
 1825 0.400400; 
 1825 0.400400; 
 1826 0.200200; 
 1826 0.100100; 


Name: 3-O-Neohesperidoside Quercetin
SYNON: $:00in-source
DB#: MetaboBASE1058
InChIKey: FYBMGZSDYDNBFX-GXPPAHCZSA-N
Precursor_type: [2M-H]-
Spectrum_type: MS2
PrecursorMZ: 1219.242
Instrument_type: LC-ESI-TOF
Instrument: impact HD
Ion_mode: N
Collision_energy: 52.5
InChIKey: FYBMGZSDYDNBFX-GXPPAHCZSA-N
Formula: C27H30O16
MW: 610
ExactMass: 610.1533848800001
Comments: "license=License CC-BY-NC-SA 4.0 International" "author=Plant Biology, The Noble Foundation, Ardmore, OK, US/Dennis Fine, Daniel Wherritt, and Lloyd Sumner" "instrument type=LC-ESI-TOF" "instrument=impact HD" "ionization=ESI" "ionization mode=negative" "ms level=MS2" "precursor m/z=1219.242" "isolation width=10" "collision energy=52.5" "collision energy 2=87.5" "peak width=0.015" "date=2013-12-09 22:32:55+01:00" "column=Waters Acquity BEH C18 1.7um x 2.1 x 150 mm" "retention time=259.2" "raw data file=C:\Data\AtW_4_1p13_9Dec_13msms.d" "precursor type=[2M-H]-" "mass accuracy=47.15533093526172" "mass error=-0.05749376000017037" "SMILES=c1(cc(c2c(c1)oc(c(c2=O)O[C@@H]1O[C@@H]([C@H]([C@@H]([C@H]1O[C@@H]1O[C@H]([C@@H]([C@H]([C@H]1O)O)O)C)O)O)CO)c1ccc(c(c1)O)O)O)O" "InChI=InChI=1S/C27H30O16/c1-8-17(33)20(36)22(38)26(39-8)43-25-21(37)18(34)15(7-28)41-27(25)42-24-19(35)16-13(32)5-10(29)6-14(16)40-23(24)9-2-3-11(30)12(31)4-9/h2-6,8,15,17-18,20-22,25-34,36-38H,7H2,1H3/t8-,15+,17-,18+,20+,21-,22+,25+,26-,27-/m0/s1" "InChIKey=FYBMGZSDYDNBFX-GXPPAHCZSA-N" "molecular formula=C27H30O16" "total exact mass=610.1533848800001" "SMILES=C1(=CC(=C2C(=C1)OC(=C(C2=O)OC3OC(C(C(C3OC4OC(C(C(C4O)O)O)C)O)O)CO)C5=CC=C(C(=C5)O)O)O)O"
Num Peaks: 85
 125 0.100100; 
 151 0.300300; 
 227 0.100100; 
 227 0.100100; 
 229 0.100100; 
 255 0.200200; 
 271 1.301301; 
 272 0.100100; 
 273 0.100100; 
 297 0.100100; 
 297 0.400400; 
 298 0.100100; 
 299 15.915916; 
 300 3.803804; 
 300 0.100100; 
 301 14.414414; 
 302 2.402402; 
 303 0.400400; 
 315 0.100100; 
 315 0.100100; 
 316 0.100100; 
 317 0.200200; 
 318 0.200200; 
 325 0.300300; 
 329 0.100100; 
 343 0.300300; 
 405 0.100100; 
 418 0.100100; 
 441 0.100100; 
 444 0.100100; 
 445 1.301301; 
 445 0.100100; 
 445 0.100100; 
 446 56.056056; 
 446 0.100100; 
 447 0.100100; 
 447 32.732733; 
 448 0.100100; 
 448 6.406406; 
 449 1.101101; 
 450 0.200200; 
 460 0.100100; 
 460 0.100100; 
 461 1.201201; 
 462 0.400400; 
 463 10.310310; 
 464 1.901902; 
 465 0.400400; 
 466 0.100100; 
 479 0.100100; 
 489 0.100100; 
 574 0.100100; 
 606 0.100100; 
 606 0.100100; 
 607 0.100100; 
 607 18.718719; 
 607 0.100100; 
 607 0.100100; 
 608 0.100100; 
 608 5.505506; 
 608 0.100100; 
 608 0.100100; 
 608 0.100100; 
 608 0.100100; 
 608 0.100100; 
 608 0.100100; 
 608 0.100100; 
 609 100.000000; 
 609 0.100100; 
 609 0.100100; 
 609 0.100100; 
 609 0.100100; 
 609 0.100100; 
 610 0.200200; 
 610 28.728729; 
 611 0.100100; 
 611 6.006006; 
 612 0.800801; 
 613 0.200200; 
 613 0.100100; 
 613 0.100100; 
 949 0.100100; 
 1217 0.100100; 
 1620 0.100100; 
 1736 0.100100; 


Name: 3-O-Neohesperidoside Quercetin
SYNON: $:00in-source
DB#: MetaboBASE1059
InChIKey: FYBMGZSDYDNBFX-GXPPAHCZSA-N
Precursor_type: [M-H]-
Spectrum_type: MS2
PrecursorMZ: 609.1166
Instrument_type: LC-ESI-TOF
Instrument: impact HD
Ion_mode: N
Collision_energy: 38.8662
InChIKey: FYBMGZSDYDNBFX-GXPPAHCZSA-N
Formula: C27H30O16
MW: 610
ExactMass: 610.15338488
Comments: "license=License CC-BY-NC-SA 4.0 International" "author=Plant Biology, The Noble Foundation, Ardmore, OK, US/Dennis Fine, Daniel Wherritt, and Lloyd Sumner" "instrument type=LC-ESI-TOF" "instrument=impact HD" "ionization=ESI" "ionization mode=negative" "ms level=MS2" "precursor m/z=609.1166" "collision energy=38.8662" "collision energy 2=64.777" "peak width=0.016" "date=2013-12-09 22:32:55+01:00" "column=Waters Acquity BEH C18 1.7um x 2.1 x 150 mm" "retention time=259.2" "raw data file=C:\Data\AtW_4_1p13_9Dec_13msms.d" "precursor type=[M-H]-" "mass accuracy=48.44537154295304" "mass error=-0.02950887999998031" "SMILES=c1(cc(c2c(c1)oc(c(c2=O)O[C@@H]1O[C@@H]([C@H]([C@@H]([C@H]1O[C@@H]1O[C@H]([C@@H]([C@H]([C@H]1O)O)O)C)O)O)CO)c1ccc(c(c1)O)O)O)O" "InChI=InChI=1S/C27H30O16/c1-8-17(33)20(36)22(38)26(39-8)43-25-21(37)18(34)15(7-28)41-27(25)42-24-19(35)16-13(32)5-10(29)6-14(16)40-23(24)9-2-3-11(30)12(31)4-9/h2-6,8,15,17-18,20-22,25-34,36-38H,7H2,1H3/t8-,15+,17-,18+,20+,21-,22+,25+,26-,27-/m0/s1" "InChIKey=FYBMGZSDYDNBFX-GXPPAHCZSA-N" "molecular formula=C27H30O16" "total exact mass=610.15338488" "SMILES=C1(=CC(=C2C(=C1)OC(=C(C2=O)OC3OC(C(C(C3OC4OC(C(C(C4O)O)O)C)O)O)CO)C5=CC=C(C(=C5)O)O)O)O"
Num Peaks: 115
 107 0.200200; 
 109 0.100100; 
 133 0.100100; 
 151 1.301301; 
 152 0.100100; 
 153 0.100100; 
 159 0.100100; 
 161 0.100100; 
 163 0.200200; 
 165 0.200200; 
 175 0.100100; 
 175 0.100100; 
 179 0.300300; 
 185 0.100100; 
 187 0.100100; 
 190 0.100100; 
 191 0.100100; 
 199 0.200200; 
 201 0.100100; 
 201 0.100100; 
 211 0.100100; 
 214 0.100100; 
 215 0.200200; 
 216 0.100100; 
 225 0.100100; 
 226 0.600601; 
 227 1.801802; 
 228 0.300300; 
 229 0.200200; 
 229 0.900901; 
 230 0.100100; 
 231 0.300300; 
 239 0.100100; 
 241 0.900901; 
 241 0.100100; 
 242 1.801802; 
 243 3.703704; 
 244 0.500501; 
 245 0.600601; 
 245 0.300300; 
 246 0.100100; 
 253 0.100100; 
 253 0.100100; 
 254 1.001001; 
 255 3.603604; 
 256 0.800801; 
 257 0.500501; 
 259 0.100100; 
 267 0.100100; 
 270 2.102102; 
 271 0.100100; 
 271 42.742743; 
 272 6.306306; 
 273 1.401401; 
 274 0.100100; 
 281 0.100100; 
 282 0.300300; 
 283 0.400400; 
 284 0.200200; 
 285 0.200200; 
 286 0.100100; 
 287 0.100100; 
 294 0.100100; 
 295 0.100100; 
 296 0.100100; 
 297 0.200200; 
 297 0.100100; 
 297 0.200200; 
 298 0.900901; 
 298 0.100100; 
 299 100.000000; 
 300 20.520521; 
 301 29.229229; 
 302 4.304304; 
 303 0.800801; 
 311 0.100100; 
 312 0.100100; 
 313 0.200200; 
 314 0.100100; 
 315 0.100100; 
 325 0.200200; 
 341 0.200200; 
 342 0.100100; 
 343 0.300300; 
 373 0.100100; 
 389 0.100100; 
 401 0.100100; 
 402 0.100100; 
 417 0.300300; 
 417 0.100100; 
 418 0.100100; 
 444 0.100100; 
 445 6.006006; 
 446 51.051051; 
 447 25.125125; 
 447 0.100100; 
 448 4.604605; 
 449 0.700701; 
 450 0.100100; 
 459 0.200200; 
 461 0.300300; 
 462 0.200200; 
 463 6.706707; 
 464 1.301301; 
 465 0.100100; 
 465 0.200200; 
 487 0.300300; 
 488 0.100100; 
 489 0.100100; 
 607 0.300300; 
 609 10.410410; 
 610 0.100100; 
 610 2.402402; 
 611 0.700701; 
 612 0.100100; 


Name: 3-O-Neohesperidoside Quercetin
SYNON: $:00in-source
DB#: MetaboBASE1060
InChIKey: FYBMGZSDYDNBFX-GXPPAHCZSA-N
Instrument_type: LC-ESI-TOF
Instrument: impact HD
Ion_mode: N
InChIKey: FYBMGZSDYDNBFX-GXPPAHCZSA-N
Formula: C27H30O16
MW: 610
ExactMass: 610.15338488
Comments: "license=License CC-BY-NC-SA 4.0 International" "author=Plant Biology, The Noble Foundation, Ardmore, OK, US/Dennis Fine, Daniel Wherritt, and Lloyd Sumner" "instrument type=LC-ESI-TOF" "instrument=impact HD" "ionization=ESI" "ionization mode=negative" "peak width=0.013" "date=2013-12-09 22:32:55+01:00" "column=Waters Acquity BEH C18 1.7um x 2.1 x 150 mm" "retention time=259.2" "raw data file=C:\Data\AtW_4_1p13_9Dec_13msms.d" "SMILES=c1(cc(c2c(c1)oc(c(c2=O)O[C@@H]1O[C@@H]([C@H]([C@@H]([C@H]1O[C@@H]1O[C@H]([C@@H]([C@H]([C@H]1O)O)O)C)O)O)CO)c1ccc(c(c1)O)O)O)O" "InChI=InChI=1S/C27H30O16/c1-8-17(33)20(36)22(38)26(39-8)43-25-21(37)18(34)15(7-28)41-27(25)42-24-19(35)16-13(32)5-10(29)6-14(16)40-23(24)9-2-3-11(30)12(31)4-9/h2-6,8,15,17-18,20-22,25-34,36-38H,7H2,1H3/t8-,15+,17-,18+,20+,21-,22+,25+,26-,27-/m0/s1" "InChIKey=FYBMGZSDYDNBFX-GXPPAHCZSA-N" "molecular formula=C27H30O16" "total exact mass=610.15338488" "SMILES=C1(=CC(=C2C(=C1)OC(=C(C2=O)OC3OC(C(C(C3OC4OC(C(C(C4O)O)O)C)O)O)CO)C5=CC=C(C(=C5)O)O)O)O"
Num Peaks: 185
 251 0.200200; 
 299 0.100100; 
 445 1.401401; 
 446 0.400400; 
 454 0.300300; 
 461 0.400400; 
 468 0.100100; 
 551 1.301301; 
 552 0.400400; 
 581 0.200200; 
 581 0.100100; 
 607 17.517518; 
 607 0.100100; 
 608 0.100100; 
 608 4.904905; 
 608 0.100100; 
 608 0.100100; 
 608 0.100100; 
 608 0.100100; 
 609 0.100100; 
 609 100.000000; 
 609 0.100100; 
 609 0.100100; 
 609 0.100100; 
 609 0.100100; 
 609 0.100100; 
 609 0.100100; 
 610 0.100100; 
 610 30.430430; 
 611 0.100100; 
 611 6.806807; 
 611 0.100100; 
 612 1.101101; 
 613 0.200200; 
 613 0.100100; 
 625 0.900901; 
 626 0.300300; 
 635 0.100100; 
 635 0.200200; 
 636 0.200200; 
 636 0.100100; 
 667 0.100100; 
 675 0.400400; 
 676 0.200200; 
 677 0.800801; 
 678 0.200200; 
 707 0.200200; 
 708 0.300300; 
 709 0.200200; 
 725 0.400400; 
 725 0.100100; 
 726 0.100100; 
 727 1.801802; 
 727 0.100100; 
 728 0.700701; 
 729 0.300300; 
 1159 0.300300; 
 1160 0.100100; 
 1161 0.600601; 
 1162 0.400400; 
 1163 0.100100; 
 1215 0.500501; 
 1216 0.400400; 
 1217 0.100100; 
 1217 13.713714; 
 1217 0.100100; 
 1218 7.807808; 
 1218 0.100100; 
 1218 0.100100; 
 1219 0.100100; 
 1219 34.234234; 
 1219 0.100100; 
 1219 0.100100; 
 1220 18.618619; 
 1220 0.100100; 
 1221 0.100100; 
 1221 6.006006; 
 1221 0.100100; 
 1222 1.301301; 
 1223 0.100100; 
 1223 0.300300; 
 1224 0.100100; 
 1230 0.400400; 
 1230 0.200200; 
 1231 0.100100; 
 1231 0.300300; 
 1231 0.200200; 
 1232 0.100100; 
 1239 0.300300; 
 1239 0.100100; 
 1240 0.200200; 
 1240 0.100100; 
 1241 0.600601; 
 1241 0.100100; 
 1242 0.100100; 
 1243 0.100100; 
 1244 0.200200; 
 1244 0.200200; 
 1245 0.300300; 
 1245 0.200200; 
 1246 0.400400; 
 1246 0.200200; 
 1246 0.100100; 
 1247 0.100100; 
 1247 0.100100; 
 1256 0.100100; 
 1256 0.100100; 
 1257 0.100100; 
 1272 0.200200; 
 1273 0.100100; 
 1363 0.300300; 
 1364 0.200200; 
 1365 1.001001; 
 1366 0.700701; 
 1367 0.200200; 
 1521 0.100100; 
 1521 0.100100; 
 1521 0.300300; 
 1522 0.700701; 
 1522 0.700701; 
 1523 1.701702; 
 1523 1.801802; 
 1524 0.100100; 
 1524 1.701702; 
 1524 0.100100; 
 1524 1.401401; 
 1525 1.101101; 
 1525 0.600601; 
 1526 0.100100; 
 1526 0.300300; 
 1526 0.100100; 
 1527 0.100100; 
 1534 0.200200; 
 1534 0.500501; 
 1534 0.400400; 
 1535 0.100100; 
 1535 0.500501; 
 1535 0.100100; 
 1535 0.400400; 
 1536 0.100100; 
 1536 0.100100; 
 1550 0.100100; 
 1550 0.100100; 
 1551 0.400400; 
 1551 0.100100; 
 1551 0.200200; 
 1552 0.100100; 
 1596 0.300300; 
 1596 0.300300; 
 1597 0.400400; 
 1597 0.300300; 
 1598 0.200200; 
 1598 0.200200; 
 1827 0.100100; 
 1827 1.201201; 
 1827 0.200200; 
 1828 0.500501; 
 1828 0.200200; 
 1828 1.801802; 
 1828 0.400400; 
 1828 0.100100; 
 1829 0.800801; 
 1829 0.300300; 
 1829 0.200200; 
 1829 2.902903; 
 1829 0.400400; 
 1830 1.001001; 
 1830 0.300300; 
 1830 0.300300; 
 1830 1.401401; 
 1830 0.100100; 
 1830 0.100100; 
 1831 0.400400; 
 1831 0.100100; 
 1831 0.100100; 
 1831 0.600601; 
 1831 0.100100; 
 1832 0.100100; 
 1832 0.100100; 
 1901 0.100100; 
 1901 0.100100; 
 1901 0.100100; 
 1902 0.200200; 
 1902 0.100100; 
 1902 0.100100; 


Name: 3-Glu-7-Rha Quercetin
SYNON: $:00in-source
DB#: MetaboBASE1061
InChIKey: OTUCXMIQUNROBJ-DWZPKPSVSA-N
Instrument_type: LC-ESI-TOF
Instrument: impact HD
Ion_mode: N
InChIKey: OTUCXMIQUNROBJ-DWZPKPSVSA-N
Formula: C27H30O16
MW: 610
ExactMass: 610.1533848800001
Comments: "synonym=3-Glu-1-Rha Quercetin (NMR)" "license=License CC-BY-NC-SA 4.0 International" "author=Plant Biology, The Noble Foundation, Ardmore, OK, US/Dennis Fine, Daniel Wherritt, and Lloyd Sumner" "instrument type=LC-ESI-TOF" "instrument=impact HD" "ionization=ESI" "ionization mode=negative" "peak width=0.011" "date=2013-12-09 22:32:55+01:00" "column=Waters Acquity BEH C18 1.7um x 2.1 x 150 mm" "retention time=269.4" "raw data file=C:\Data\AtW_4_1p13_9Dec_13msms.d" "SMILES=c1(cc(c2c(c1)oc(c(c2=O)O[C@@H]1O[C@@H]([C@H]([C@@H]([C@H]1O)O)O)CO)c1ccc(c(c1)O)O)O)O[C@@H]1O[C@H]([C@H]([C@@H]([C@H]1O)O)O)C" "InChI=InChI=1S/C27H30O16/c1-8-17(32)20(35)22(37)26(39-8)40-10-5-13(31)16-14(6-10)41-24(9-2-3-11(29)12(30)4-9)25(19(16)34)43-27-23(38)21(36)18(33)15(7-28)42-27/h2-6,8,15,17-18,20-23,26-33,35-38H,7H2,1H3/t8-,15+,17+,18+,20-,21-,22+,23+,26-,27-/m0/s1" "InChIKey=OTUCXMIQUNROBJ-DWZPKPSVSA-N" "molecular formula=C27H30O16" "total exact mass=610.1533848800001" "SMILES=C1(=CC(=C2C(=C1)OC(=C(C2=O)OC3OC(C(C(C3O)O)O)CO)C4=CC=C(C(=C4)O)O)O)OC5OC(C(C(C5O)O)O)C"
Num Peaks: 96
 255 0.100100; 
 518 0.500501; 
 519 0.500501; 
 607 13.113113; 
 608 3.503504; 
 608 0.100100; 
 609 0.100100; 
 609 100.000000; 
 610 0.100100; 
 610 30.730731; 
 611 7.207207; 
 612 1.001001; 
 613 0.200200; 
 625 0.900901; 
 626 0.200200; 
 635 0.100100; 
 635 0.100100; 
 675 0.100100; 
 675 0.100100; 
 677 1.801802; 
 678 0.600601; 
 679 0.100100; 
 693 0.200200; 
 707 0.200200; 
 708 0.700701; 
 709 0.400400; 
 710 0.100100; 
 723 0.100100; 
 728 0.100100; 
 729 0.100100; 
 729 0.100100; 
 769 0.100100; 
 770 0.100100; 
 965 0.100100; 
 965 0.100100; 
 981 0.400400; 
 982 0.200200; 
 1128 0.200200; 
 1217 3.303303; 
 1218 1.701702; 
 1219 11.611612; 
 1220 6.006006; 
 1221 2.002002; 
 1222 0.600601; 
 1223 0.100100; 
 1239 0.100100; 
 1239 0.100100; 
 1241 0.500501; 
 1241 0.100100; 
 1242 0.200200; 
 1242 0.100100; 
 1243 0.100100; 
 1244 0.100100; 
 1245 0.100100; 
 1245 0.200200; 
 1246 0.200200; 
 1246 0.100100; 
 1272 0.100100; 
 1273 0.100100; 
 1273 0.200200; 
 1289 0.100100; 
 1290 0.100100; 
 1291 1.101101; 
 1292 0.700701; 
 1293 0.200200; 
 1294 0.100100; 
 1341 0.100100; 
 1523 0.200200; 
 1523 0.100100; 
 1524 0.300300; 
 1524 0.300300; 
 1525 0.200200; 
 1525 0.100100; 
 1535 0.100100; 
 1535 0.100100; 
 1535 0.100100; 
 1536 0.100100; 
 1560 0.100100; 
 1560 0.100100; 
 1561 0.100100; 
 1562 0.100100; 
 1596 0.100100; 
 1597 0.100100; 
 1597 0.100100; 
 1598 0.100100; 
 1828 0.200200; 
 1829 0.100100; 
 1829 0.200200; 
 1829 0.100100; 
 1829 0.100100; 
 1830 0.100100; 
 1830 0.100100; 
 1830 0.200200; 
 1830 0.200200; 
 1831 0.100100; 
 1831 0.100100; 


Name: 3-Glu-7-Rha Quercetin
SYNON: $:00in-source
DB#: MetaboBASE1062
InChIKey: OTUCXMIQUNROBJ-DWZPKPSVSA-N
Precursor_type: [M-H]-
Spectrum_type: MS2
PrecursorMZ: 609.1156
Instrument_type: LC-ESI-TOF
Instrument: impact HD
Ion_mode: N
Collision_energy: 38.8662
InChIKey: OTUCXMIQUNROBJ-DWZPKPSVSA-N
Formula: C27H30O16
MW: 610
ExactMass: 610.1533848800001
Comments: "synonym=3-Glu-1-Rha Quercetin (NMR)" "license=License CC-BY-NC-SA 4.0 International" "author=Plant Biology, The Noble Foundation, Ardmore, OK, US/Dennis Fine, Daniel Wherritt, and Lloyd Sumner" "instrument type=LC-ESI-TOF" "instrument=impact HD" "ionization=ESI" "ionization mode=negative" "ms level=MS2" "precursor m/z=609.1156" "collision energy=38.8662" "collision energy 2=64.777" "peak width=0.015" "date=2013-12-09 22:32:55+01:00" "column=Waters Acquity BEH C18 1.7um x 2.1 x 150 mm" "retention time=269.4" "raw data file=C:\Data\AtW_4_1p13_9Dec_13msms.d" "precursor type=[M-H]-" "mass accuracy=50.08717557072968" "mass error=-0.03050888000007035" "SMILES=c1(cc(c2c(c1)oc(c(c2=O)O[C@@H]1O[C@@H]([C@H]([C@@H]([C@H]1O)O)O)CO)c1ccc(c(c1)O)O)O)O[C@@H]1O[C@H]([C@H]([C@@H]([C@H]1O)O)O)C" "InChI=InChI=1S/C27H30O16/c1-8-17(32)20(35)22(37)26(39-8)40-10-5-13(31)16-14(6-10)41-24(9-2-3-11(29)12(30)4-9)25(19(16)34)43-27-23(38)21(36)18(33)15(7-28)42-27/h2-6,8,15,17-18,20-23,26-33,35-38H,7H2,1H3/t8-,15+,17+,18+,20-,21-,22+,23+,26-,27-/m0/s1" "InChIKey=OTUCXMIQUNROBJ-DWZPKPSVSA-N" "molecular formula=C27H30O16" "total exact mass=610.1533848800001" "SMILES=C1(=CC(=C2C(=C1)OC(=C(C2=O)OC3OC(C(C(C3O)O)O)CO)C4=CC=C(C(=C4)O)O)O)OC5OC(C(C(C5O)O)O)C"
Num Peaks: 76
 107 0.100100; 
 108 0.300300; 
 135 0.100100; 
 148 0.100100; 
 151 0.700701; 
 152 0.100100; 
 163 0.100100; 
 164 0.100100; 
 179 0.900901; 
 180 0.100100; 
 186 0.100100; 
 187 0.100100; 
 192 0.100100; 
 199 0.100100; 
 202 0.100100; 
 214 0.300300; 
 215 0.200200; 
 216 0.100100; 
 216 0.100100; 
 216 0.100100; 
 218 0.100100; 
 226 0.800801; 
 227 1.601602; 
 228 0.300300; 
 229 0.100100; 
 239 0.100100; 
 241 3.803804; 
 242 2.702703; 
 243 8.208208; 
 244 1.501502; 
 245 1.501502; 
 245 0.300300; 
 246 0.100100; 
 253 0.100100; 
 254 1.601602; 
 255 17.817818; 
 256 2.502503; 
 257 0.400400; 
 270 3.803804; 
 271 43.443443; 
 272 7.907908; 
 273 1.101101; 
 274 0.100100; 
 274 0.100100; 
 282 0.100100; 
 283 0.200200; 
 284 0.400400; 
 285 0.200200; 
 295 0.100100; 
 297 0.100100; 
 298 3.203203; 
 299 5.705706; 
 299 0.100100; 
 300 100.000000; 
 301 20.220220; 
 302 2.802803; 
 303 0.400400; 
 323 0.100100; 
 325 0.200200; 
 341 0.100100; 
 343 0.200200; 
 373 0.100100; 
 427 0.100100; 
 445 0.400400; 
 446 0.500501; 
 447 0.100100; 
 447 0.100100; 
 463 0.300300; 
 489 0.300300; 
 490 0.100100; 
 607 0.300300; 
 608 0.100100; 
 609 9.409409; 
 610 2.302302; 
 611 0.700701; 
 612 0.100100; 


Name: 3-O-Neohesperidoside-7-Rha Kaempferol
SYNON: $:00in-source
DB#: MetaboBASE1063
InChIKey: DDELFAUOHDSZJL-NISQZGKJSA-N
Instrument_type: LC-ESI-TOF
Instrument: impact HD
Ion_mode: N
InChIKey: DDELFAUOHDSZJL-NISQZGKJSA-N
Formula: C33H40O19
MW: 740
ExactMass: 740.21637906
Comments: "license=License CC-BY-NC-SA 4.0 International" "author=Plant Biology, The Noble Foundation, Ardmore, OK, US/Dennis Fine, Daniel Wherritt, and Lloyd Sumner" "instrument type=LC-ESI-TOF" "instrument=impact HD" "ionization=ESI" "ionization mode=negative" "peak width=0.011" "date=2013-12-09 22:32:55+01:00" "column=Waters Acquity BEH C18 1.7um x 2.1 x 150 mm" "retention time=237" "raw data file=C:\Data\AtW_4_1p13_9Dec_13msms.d" "SMILES=c1(cc(c2c(c1)oc(c(c2=O)O[C@@H]1O[C@@H]([C@H]([C@@H]([C@H]1O[C@@H]1O[C@H]([C@@H]([C@H]([C@H]1O)O)O)C)O)O)CO)c1ccc(cc1)O)O)O[C@@H]1O[C@H]([C@H]([C@@H]([C@H]1O)O)O)C" "InChI=InChI=1S/C33H40O19/c1-10-19(37)23(41)26(44)31(46-10)48-14-7-15(36)18-16(8-14)49-28(12-3-5-13(35)6-4-12)29(22(18)40)51-33-30(25(43)21(39)17(9-34)50-33)52-32-27(45)24(42)20(38)11(2)47-32/h3-8,10-11,17,19-21,23-27,30-39,41-45H,9H2,1-2H3/t10-,11-,17+,19+,20-,21+,23-,24+,25-,26+,27+,30+,31-,32-,33-/m0/s1" "InChIKey=DDELFAUOHDSZJL-NISQZGKJSA-N" "molecular formula=C33H40O19" "total exact mass=740.21637906" "SMILES=C1(=CC(=C2C(=C1)OC(=C(C2=O)OC3OC(C(C(C3OC4OC(C(C(C4O)O)O)C)O)O)CO)C5=CC=C(C=C5)O)O)OC6OC(C(C(C6O)O)O)C"
Num Peaks: 162
 389 0.300300; 
 389 0.100100; 
 390 0.100100; 
 397 0.100100; 
 431 0.200200; 
 593 0.200200; 
 594 0.100100; 
 738 0.100100; 
 739 0.100100; 
 739 0.100100; 
 739 0.100100; 
 739 100.000000; 
 739 0.100100; 
 739 0.100100; 
 740 0.100100; 
 740 0.100100; 
 740 35.735736; 
 740 0.100100; 
 741 9.809810; 
 742 1.601602; 
 743 0.300300; 
 761 0.100100; 
 765 0.400400; 
 766 0.300300; 
 766 0.100100; 
 775 0.200200; 
 776 0.100100; 
 777 0.100100; 
 791 0.100100; 
 792 0.100100; 
 807 1.501502; 
 808 0.500501; 
 809 0.200200; 
 837 0.200200; 
 838 0.200200; 
 839 0.100100; 
 857 1.401401; 
 858 0.600601; 
 859 0.200200; 
 869 0.200200; 
 875 0.100100; 
 965 0.100100; 
 1044 0.100100; 
 1045 0.100100; 
 1109 2.402402; 
 1109 2.602603; 
 1110 1.601602; 
 1110 0.800801; 
 1111 0.300300; 
 1111 0.100100; 
 1120 0.100100; 
 1120 0.100100; 
 1121 0.100100; 
 1131 0.100100; 
 1131 0.100100; 
 1135 0.200200; 
 1136 0.300300; 
 1136 0.200200; 
 1137 0.100100; 
 1147 0.100100; 
 1291 0.100100; 
 1292 0.100100; 
 1385 0.100100; 
 1385 0.100100; 
 1386 0.100100; 
 1386 0.100100; 
 1386 0.100100; 
 1479 0.100100; 
 1479 11.911912; 
 1479 0.100100; 
 1479 0.200200; 
 1480 9.109109; 
 1480 0.400400; 
 1480 11.811812; 
 1480 0.100100; 
 1480 0.200200; 
 1481 4.004004; 
 1481 0.100100; 
 1481 3.403403; 
 1482 0.600601; 
 1482 0.600601; 
 1483 0.100100; 
 1483 0.100100; 
 1483 0.100100; 
 1487 0.100100; 
 1487 0.100100; 
 1490 0.300300; 
 1490 0.500501; 
 1491 0.400400; 
 1491 0.400400; 
 1492 0.200200; 
 1493 0.100100; 
 1498 0.100100; 
 1498 0.100100; 
 1499 0.100100; 
 1499 0.100100; 
 1501 0.200200; 
 1501 0.100100; 
 1501 0.100100; 
 1502 0.100100; 
 1503 0.100100; 
 1505 0.200200; 
 1506 0.300300; 
 1506 0.200200; 
 1507 0.100100; 
 1507 0.100100; 
 1517 0.100100; 
 1538 0.100100; 
 1726 0.300300; 
 1726 1.401401; 
 1726 1.101101; 
 1727 1.201201; 
 1727 1.001001; 
 1727 0.600601; 
 1728 0.400400; 
 1728 0.300300; 
 1728 0.100100; 
 1733 0.100100; 
 1733 0.100100; 
 1734 0.200200; 
 1734 0.100100; 
 1734 0.100100; 
 1735 0.200200; 
 1744 0.100100; 
 1744 0.100100; 
 1744 0.100100; 
 1745 0.100100; 
 1756 0.100100; 
 1756 0.100100; 
 1849 0.700701; 
 1849 0.100100; 
 1850 1.501502; 
 1850 0.100100; 
 1850 0.100100; 
 1850 1.501502; 
 1850 0.300300; 
 1851 1.101101; 
 1851 0.100100; 
 1851 0.700701; 
 1852 0.200200; 
 1852 0.100100; 
 1852 0.100100; 
 1860 0.100100; 
 1861 0.200200; 
 1861 0.200200; 
 1862 0.100100; 
 1972 0.200200; 
 1973 0.500501; 
 1973 0.700701; 
 1974 0.700701; 
 1974 0.600601; 
 1974 0.400400; 
 1975 0.400400; 
 1975 0.100100; 
 1975 0.100100; 
 1975 0.100100; 
 1980 0.100100; 
 1980 0.100100; 
 1981 0.100100; 
 1981 0.100100; 
 1981 0.100100; 
 1982 0.100100; 


Name: 3-O-Neohesperidoside-7-Rha Kaempferol
SYNON: $:00in-source
DB#: MetaboBASE1064
InChIKey: DDELFAUOHDSZJL-NISQZGKJSA-N
Precursor_type: [M-H]-
Spectrum_type: MS2
PrecursorMZ: 739.1716
Instrument_type: LC-ESI-TOF
Instrument: impact HD
Ion_mode: N
Collision_energy: 44.9628
InChIKey: DDELFAUOHDSZJL-NISQZGKJSA-N
Formula: C33H40O19
MW: 740
ExactMass: 740.21637906
Comments: "license=License CC-BY-NC-SA 4.0 International" "author=Plant Biology, The Noble Foundation, Ardmore, OK, US/Dennis Fine, Daniel Wherritt, and Lloyd Sumner" "instrument type=LC-ESI-TOF" "instrument=impact HD" "ionization=ESI" "ionization mode=negative" "ms level=MS2" "precursor m/z=739.1716" "collision energy=44.9628" "collision energy 2=74.938" "peak width=0.014" "date=2013-12-09 22:32:55+01:00" "column=Waters Acquity BEH C18 1.7um x 2.1 x 150 mm" "retention time=237" "raw data file=C:\Data\AtW_4_1p13_9Dec_13msms.d" "precursor type=[M-H]-" "mass accuracy=50.73660838694165" "mass error=-0.03750305999994907" "SMILES=c1(cc(c2c(c1)oc(c(c2=O)O[C@@H]1O[C@@H]([C@H]([C@@H]([C@H]1O[C@@H]1O[C@H]([C@@H]([C@H]([C@H]1O)O)O)C)O)O)CO)c1ccc(cc1)O)O)O[C@@H]1O[C@H]([C@H]([C@@H]([C@H]1O)O)O)C" "InChI=InChI=1S/C33H40O19/c1-10-19(37)23(41)26(44)31(46-10)48-14-7-15(36)18-16(8-14)49-28(12-3-5-13(35)6-4-12)29(22(18)40)51-33-30(25(43)21(39)17(9-34)50-33)52-32-27(45)24(42)20(38)11(2)47-32/h3-8,10-11,17,19-21,23-27,30-39,41-45H,9H2,1-2H3/t10-,11-,17+,19+,20-,21+,23-,24+,25-,26+,27+,30+,31-,32-,33-/m0/s1" "InChIKey=DDELFAUOHDSZJL-NISQZGKJSA-N" "molecular formula=C33H40O19" "total exact mass=740.21637906" "SMILES=C1(=CC(=C2C(=C1)OC(=C(C2=O)OC3OC(C(C(C3OC4OC(C(C(C4O)O)O)C)O)O)CO)C5=CC=C(C=C5)O)O)OC6OC(C(C(C6O)O)O)C"
Num Peaks: 57
 107 0.100100; 
 151 0.500501; 
 152 0.100100; 
 179 0.400400; 
 180 0.100100; 
 183 0.100100; 
 211 0.100100; 
 213 0.100100; 
 226 0.100100; 
 227 6.506507; 
 228 0.900901; 
 229 0.300300; 
 239 0.200200; 
 240 0.100100; 
 241 0.200200; 
 243 0.100100; 
 255 29.929930; 
 256 5.905906; 
 257 1.501502; 
 258 0.200200; 
 267 0.100100; 
 269 0.100100; 
 281 0.100100; 
 282 0.100100; 
 283 0.100100; 
 283 100.000000; 
 284 54.054054; 
 285 19.319319; 
 286 2.802803; 
 287 0.300300; 
 298 0.100100; 
 309 0.300300; 
 310 0.100100; 
 326 0.200200; 
 327 0.500501; 
 328 0.100100; 
 339 0.100100; 
 357 0.100100; 
 401 0.100100; 
 411 0.100100; 
 429 1.701702; 
 430 34.234234; 
 431 9.009009; 
 432 1.701702; 
 433 0.300300; 
 447 0.300300; 
 448 0.100100; 
 473 0.300300; 
 593 0.100100; 
 593 55.255255; 
 594 16.016016; 
 595 3.403403; 
 596 0.500501; 
 739 1.401401; 
 740 0.500501; 
 741 0.100100; 
 741 0.100100; 


Name: 3-O-Neohesperidoside-7-Rha Quercetin
SYNON: $:00in-source
DB#: MetaboBASE1065
InChIKey: WLPJMCCYDZFCBL-JABRZMJWSA-N
Precursor_type: [M-H]-
Spectrum_type: MS2
PrecursorMZ: 755.1657
Instrument_type: LC-ESI-TOF
Instrument: impact HD
Ion_mode: N
Collision_energy: 45.7128
InChIKey: WLPJMCCYDZFCBL-JABRZMJWSA-N
Formula: C33H40O20
MW: 756
ExactMass: 756.2112936799999
Comments: "license=License CC-BY-NC-SA 4.0 International" "author=Plant Biology, The Noble Foundation, Ardmore, OK, US/Dennis Fine, Daniel Wherritt, and Lloyd Sumner" "instrument type=LC-ESI-TOF" "instrument=impact HD" "ionization=ESI" "ionization mode=negative" "ms level=MS2" "precursor m/z=755.1657" "collision energy=45.7128" "collision energy 2=76.188" "peak width=0.014" "date=2013-12-09 22:32:55+01:00" "column=Waters Acquity BEH C18 1.7um x 2.1 x 150 mm" "retention time=208.8" "raw data file=C:\Data\AtW_4_1p13_9Dec_13msms.d" "precursor type=[M-H]-" "mass accuracy=50.74075795532515" "mass error=-0.038317679999863685" "SMILES=c1(cc(c2c(c1)oc(c(c2=O)O[C@@H]1O[C@@H]([C@H]([C@@H]([C@H]1O[C@@H]1O[C@H]([C@@H]([C@H]([C@H]1O)O)O)C)O)O)CO)c1ccc(c(c1)O)O)O)O[C@@H]1O[C@H]([C@H]([C@@H]([C@H]1O)O)O)C" "InChI=InChI=1S/C33H40O20/c1-9-19(38)23(42)26(45)31(47-9)49-12-6-15(37)18-16(7-12)50-28(11-3-4-13(35)14(36)5-11)29(22(18)41)52-33-30(25(44)21(40)17(8-34)51-33)53-32-27(46)24(43)20(39)10(2)48-32/h3-7,9-10,17,19-21,23-27,30-40,42-46H,8H2,1-2H3/t9-,10-,17+,19+,20-,21+,23-,24+,25-,26+,27+,30+,31-,32-,33-/m0/s1" "InChIKey=WLPJMCCYDZFCBL-JABRZMJWSA-N" "molecular formula=C33H40O20" "total exact mass=756.2112936799999" "SMILES=C1(=CC(=C2C(=C1)OC(=C(C2=O)OC3OC(C(C(C3OC4OC(C(C(C4O)O)O)C)O)O)CO)C5=CC=C(C(=C5)O)O)O)OC6OC(C(C(C6O)O)O)C"
Num Peaks: 67
 107 0.100100; 
 151 0.500501; 
 179 0.300300; 
 199 0.100100; 
 214 0.100100; 
 215 0.100100; 
 226 0.200200; 
 227 0.700701; 
 228 0.100100; 
 229 0.100100; 
 229 0.100100; 
 241 0.500501; 
 242 1.201201; 
 243 1.801802; 
 244 0.300300; 
 245 0.400400; 
 253 0.100100; 
 254 0.400400; 
 255 1.301301; 
 256 0.300300; 
 257 0.100100; 
 270 1.701702; 
 271 27.627628; 
 272 4.204204; 
 273 0.700701; 
 282 0.200200; 
 283 0.200200; 
 284 0.100100; 
 295 0.100100; 
 297 0.100100; 
 297 0.100100; 
 297 0.200200; 
 298 1.101101; 
 299 100.000000; 
 300 24.424424; 
 301 6.706707; 
 302 0.900901; 
 303 0.100100; 
 313 0.100100; 
 314 0.100100; 
 325 0.500501; 
 326 0.100100; 
 343 0.100100; 
 355 0.100100; 
 401 0.100100; 
 417 0.100100; 
 418 0.100100; 
 445 2.102102; 
 446 57.457457; 
 447 13.713714; 
 448 2.502503; 
 449 0.400400; 
 450 0.100100; 
 463 0.100100; 
 489 0.200200; 
 490 0.100100; 
 607 1.001001; 
 608 0.400400; 
 609 9.809810; 
 610 2.802803; 
 611 0.600601; 
 612 0.100100; 
 635 0.100100; 
 755 14.414414; 
 756 4.604605; 
 757 1.201201; 
 758 0.200200; 


Name: 3-O-Neohesperidoside-7-Rha Quercetin
SYNON: $:00in-source
DB#: MetaboBASE1066
InChIKey: WLPJMCCYDZFCBL-JABRZMJWSA-N
Instrument_type: LC-ESI-TOF
Instrument: impact HD
Ion_mode: N
InChIKey: WLPJMCCYDZFCBL-JABRZMJWSA-N
Formula: C33H40O20
MW: 756
ExactMass: 756.2112936799999
Comments: "license=License CC-BY-NC-SA 4.0 International" "author=Plant Biology, The Noble Foundation, Ardmore, OK, US/Dennis Fine, Daniel Wherritt, and Lloyd Sumner" "instrument type=LC-ESI-TOF" "instrument=impact HD" "ionization=ESI" "ionization mode=negative" "peak width=0.011" "date=2013-12-09 22:32:55+01:00" "column=Waters Acquity BEH C18 1.7um x 2.1 x 150 mm" "retention time=208.8" "raw data file=C:\Data\AtW_4_1p13_9Dec_13msms.d" "SMILES=c1(cc(c2c(c1)oc(c(c2=O)O[C@@H]1O[C@@H]([C@H]([C@@H]([C@H]1O[C@@H]1O[C@H]([C@@H]([C@H]([C@H]1O)O)O)C)O)O)CO)c1ccc(c(c1)O)O)O)O[C@@H]1O[C@H]([C@H]([C@@H]([C@H]1O)O)O)C" "InChI=InChI=1S/C33H40O20/c1-9-19(38)23(42)26(45)31(47-9)49-12-6-15(37)18-16(7-12)50-28(11-3-4-13(35)14(36)5-11)29(22(18)41)52-33-30(25(44)21(40)17(8-34)51-33)53-32-27(46)24(43)20(39)10(2)48-32/h3-7,9-10,17,19-21,23-27,30-40,42-46H,8H2,1-2H3/t9-,10-,17+,19+,20-,21+,23-,24+,25-,26+,27+,30+,31-,32-,33-/m0/s1" "InChIKey=WLPJMCCYDZFCBL-JABRZMJWSA-N" "molecular formula=C33H40O20" "total exact mass=756.2112936799999" "SMILES=C1(=CC(=C2C(=C1)OC(=C(C2=O)OC3OC(C(C(C3OC4OC(C(C(C4O)O)O)C)O)O)CO)C5=CC=C(C(=C5)O)O)O)OC6OC(C(C(C6O)O)O)C"
Num Peaks: 171
 387 0.400400; 
 388 0.100100; 
 607 2.402402; 
 608 0.700701; 
 609 0.200200; 
 727 0.300300; 
 728 0.100100; 
 753 0.100100; 
 753 5.505506; 
 754 0.100100; 
 754 0.100100; 
 754 1.701702; 
 754 0.100100; 
 755 0.100100; 
 755 0.100100; 
 755 0.100100; 
 755 100.000000; 
 755 0.100100; 
 755 0.100100; 
 755 0.100100; 
 756 0.100100; 
 756 35.935936; 
 756 0.100100; 
 757 9.709710; 
 758 1.601602; 
 759 0.300300; 
 781 0.300300; 
 782 0.200200; 
 782 0.100100; 
 783 0.100100; 
 789 0.100100; 
 791 0.200200; 
 792 0.100100; 
 792 0.100100; 
 793 0.100100; 
 799 0.800801; 
 800 0.200200; 
 801 0.100100; 
 807 0.100100; 
 808 0.100100; 
 816 0.100100; 
 817 0.100100; 
 821 0.300300; 
 822 0.100100; 
 823 2.002002; 
 824 0.600601; 
 825 0.200200; 
 839 0.100100; 
 839 0.100100; 
 845 0.100100; 
 853 0.100100; 
 853 0.200200; 
 854 0.600601; 
 855 0.400400; 
 856 0.100100; 
 857 0.100100; 
 871 0.200200; 
 872 0.100100; 
 873 1.601602; 
 874 0.600601; 
 875 0.300300; 
 876 0.100100; 
 876 0.100100; 
 885 0.200200; 
 886 0.100100; 
 891 0.100100; 
 1013 0.100100; 
 1143 0.200200; 
 1144 0.200200; 
 1144 0.100100; 
 1144 0.200200; 
 1145 0.100100; 
 1152 0.200200; 
 1152 0.100100; 
 1153 0.100100; 
 1155 0.100100; 
 1155 0.100100; 
 1156 0.100100; 
 1156 0.100100; 
 1158 0.100100; 
 1159 0.100100; 
 1159 0.500501; 
 1160 0.500501; 
 1160 0.300300; 
 1161 0.200200; 
 1161 0.100100; 
 1163 0.100100; 
 1170 0.100100; 
 1171 0.200200; 
 1171 0.100100; 
 1509 1.801802; 
 1509 0.400400; 
 1510 2.702703; 
 1510 1.701702; 
 1511 0.100100; 
 1511 11.911912; 
 1511 0.100100; 
 1512 1.801802; 
 1512 7.407407; 
 1513 0.600601; 
 1513 2.602603; 
 1513 0.100100; 
 1514 0.100100; 
 1514 0.800801; 
 1515 0.100100; 
 1515 0.100100; 
 1515 0.200200; 
 1521 0.100100; 
 1521 0.200200; 
 1522 0.500501; 
 1522 0.500501; 
 1523 0.400400; 
 1523 0.200200; 
 1524 0.100100; 
 1524 0.100100; 
 1530 0.200200; 
 1530 0.100100; 
 1531 0.200200; 
 1531 0.100100; 
 1532 0.100100; 
 1533 0.300300; 
 1533 0.100100; 
 1534 0.100100; 
 1534 0.200200; 
 1535 0.100100; 
 1535 0.100100; 
 1535 0.100100; 
 1536 0.100100; 
 1536 0.100100; 
 1536 0.100100; 
 1537 0.200200; 
 1537 0.300300; 
 1538 0.300300; 
 1538 0.200200; 
 1539 0.200200; 
 1539 0.100100; 
 1548 0.100100; 
 1548 0.100100; 
 1548 0.100100; 
 1762 0.100100; 
 1762 0.200200; 
 1763 0.400400; 
 1763 0.300300; 
 1763 0.200200; 
 1764 0.400400; 
 1764 0.300300; 
 1764 0.400400; 
 1765 0.100100; 
 1770 0.100100; 
 1770 0.100100; 
 1770 0.100100; 
 1771 0.100100; 
 1771 0.100100; 
 1771 0.100100; 
 1772 0.100100; 
 1781 0.100100; 
 1781 0.100100; 
 1782 0.100100; 
 1887 0.100100; 
 1888 0.100100; 
 1888 0.500501; 
 1889 0.200200; 
 1889 0.700701; 
 1890 0.600601; 
 1890 0.500501; 
 1891 0.400400; 
 1891 0.200200; 
 1892 0.100100; 
 1900 0.100100; 
 1901 0.200200; 
 1901 0.100100; 


Name: Sinapoyl malate
SYNON: $:00in-source
DB#: MetaboBASE1067
InChIKey: DUDGAPSRYCQPBG-UFFNRZRYSA-N
Spectrum_type: MS2
PrecursorMZ: 223.0506
Instrument_type: LC-ESI-TOF
Instrument: impact HD
Ion_mode: N
Collision_energy: 20.7684
InChIKey: DUDGAPSRYCQPBG-UFFNRZRYSA-N
Formula: C15H16O9
MW: 340
ExactMass: 340.079432092
Comments: "license=License CC-BY-NC-SA 4.0 International" "author=Plant Biology, The Noble Foundation, Ardmore, OK, US/Dennis Fine, Daniel Wherritt, and Lloyd Sumner" "instrument type=LC-ESI-TOF" "instrument=impact HD" "ionization=ESI" "ionization mode=negative" "ms level=MS2" "precursor m/z=223.0506" "collision energy=20.7684" "collision energy 2=34.6141" "peak width=0.016" "date=2013-12-09 22:32:55+01:00" "column=Waters Acquity BEH C18 1.7um x 2.1 x 150 mm" "retention time=296.4" "raw data file=C:\Data\AtW_4_1p13_9Dec_13msms.d" "SMILES=COc1cc(cc(c1O)OC)/C=C/C(=O)O[C@@H](CC(=O)O)C(=O)O" "InChI=InChI=1S/C15H16O9/c1-22-9-5-8(6-10(23-2)14(9)19)3-4-13(18)24-11(15(20)21)7-12(16)17/h3-6,11,19H,7H2,1-2H3,(H,16,17)(H,20,21)/b4-3+/t11-/m0/s1" "InChIKey=DUDGAPSRYCQPBG-UFFNRZRYSA-N" "molecular formula=C15H16O9" "total exact mass=340.079432092" "SMILES=COC1=CC(=CC(=C1O)OC)C=CC(=O)OC(CC(=O)O)C(=O)O"
Num Peaks: 54
 103 0.200200; 
 104 1.201201; 
 105 0.300300; 
 108 0.100100; 
 109 0.300300; 
 117 2.602603; 
 118 0.200200; 
 118 0.100100; 
 119 0.100100; 
 119 1.901902; 
 121 42.042042; 
 122 2.702703; 
 123 0.200200; 
 132 2.502503; 
 133 0.200200; 
 134 0.500501; 
 135 2.502503; 
 136 0.100100; 
 136 0.100100; 
 137 0.200200; 
 145 0.100100; 
 146 0.100100; 
 147 4.904905; 
 148 0.400400; 
 148 0.400400; 
 149 100.000000; 
 150 7.807808; 
 151 0.900901; 
 152 1.701702; 
 153 0.100100; 
 162 0.100100; 
 163 3.403403; 
 164 24.924925; 
 165 1.601602; 
 165 2.102102; 
 166 0.100100; 
 166 0.200200; 
 167 0.400400; 
 169 0.700701; 
 170 0.100100; 
 177 0.100100; 
 178 0.200200; 
 179 0.100100; 
 179 0.500501; 
 180 0.100100; 
 193 12.212212; 
 194 1.001001; 
 195 0.100100; 
 207 0.100100; 
 208 5.405405; 
 209 0.500501; 
 210 0.100100; 
 223 0.800801; 
 224 0.100100; 


Name: Sinapoyl malate
SYNON: $:00in-source
DB#: MetaboBASE1068
InChIKey: DUDGAPSRYCQPBG-UFFNRZRYSA-N
Instrument_type: LC-ESI-TOF
Instrument: impact HD
Ion_mode: N
InChIKey: DUDGAPSRYCQPBG-UFFNRZRYSA-N
Formula: C15H16O9
MW: 340
ExactMass: 340.079432092
Comments: "license=License CC-BY-NC-SA 4.0 International" "author=Plant Biology, The Noble Foundation, Ardmore, OK, US/Dennis Fine, Daniel Wherritt, and Lloyd Sumner" "instrument type=LC-ESI-TOF" "instrument=impact HD" "ionization=ESI" "ionization mode=negative" "peak width=0.016" "date=2013-12-09 22:32:55+01:00" "column=Waters Acquity BEH C18 1.7um x 2.1 x 150 mm" "retention time=296.4" "raw data file=C:\Data\AtW_4_1p13_9Dec_13msms.d" "SMILES=COc1cc(cc(c1O)OC)/C=C/C(=O)O[C@@H](CC(=O)O)C(=O)O" "InChI=InChI=1S/C15H16O9/c1-22-9-5-8(6-10(23-2)14(9)19)3-4-13(18)24-11(15(20)21)7-12(16)17/h3-6,11,19H,7H2,1-2H3,(H,16,17)(H,20,21)/b4-3+/t11-/m0/s1" "InChIKey=DUDGAPSRYCQPBG-UFFNRZRYSA-N" "molecular formula=C15H16O9" "total exact mass=340.079432092" "SMILES=COC1=CC(=CC(=C1O)OC)C=CC(=O)OC(CC(=O)O)C(=O)O"
Num Peaks: 114
 115 2.502503; 
 116 0.100100; 
 121 0.700701; 
 122 0.100100; 
 133 1.301301; 
 134 0.100100; 
 134 0.100100; 
 135 0.200200; 
 147 0.900901; 
 148 0.100100; 
 149 3.303303; 
 150 0.300300; 
 151 0.100100; 
 152 0.100100; 
 163 0.400400; 
 164 11.111111; 
 165 0.100100; 
 165 1.101101; 
 166 0.100100; 
 178 0.100100; 
 179 2.102102; 
 180 0.200200; 
 193 0.500501; 
 193 0.100100; 
 194 0.100100; 
 206 0.100100; 
 207 0.400400; 
 208 3.003003; 
 209 0.300300; 
 222 0.700701; 
 223 0.100100; 
 223 100.000000; 
 224 11.011011; 
 225 0.300300; 
 225 1.401401; 
 226 0.100100; 
 239 0.100100; 
 323 0.100100; 
 338 0.300300; 
 339 9.609610; 
 340 1.501502; 
 341 0.200200; 
 342 0.100100; 
 357 0.300300; 
 358 0.100100; 
 401 0.800801; 
 402 0.100100; 
 427 2.002002; 
 428 0.400400; 
 429 0.100100; 
 439 0.600601; 
 440 0.200200; 
 445 0.300300; 
 446 0.100100; 
 517 1.101101; 
 518 0.200200; 
 519 0.100100; 
 561 0.800801; 
 562 0.200200; 
 579 0.100100; 
 663 0.100100; 
 677 20.220220; 
 678 6.706707; 
 679 7.607608; 
 680 2.002002; 
 681 0.400400; 
 682 0.100100; 
 695 0.700701; 
 696 0.200200; 
 697 0.100100; 
 697 0.100100; 
 699 0.100100; 
 701 0.400400; 
 702 0.100100; 
 732 0.100100; 
 733 0.100100; 
 803 0.100100; 
 1017 1.001001; 
 1018 0.400400; 
 1019 0.800801; 
 1020 0.300300; 
 1021 0.100100; 
 1039 0.100100; 
 1041 0.100100; 
 1051 0.100100; 
 1052 0.100100; 
 1165 0.600601; 
 1166 0.300300; 
 1167 0.100100; 
 1219 0.400400; 
 1220 0.200200; 
 1221 0.100100; 
 1355 0.200200; 
 1356 0.100100; 
 1357 0.300300; 
 1358 0.200200; 
 1359 0.200200; 
 1360 0.100100; 
 1361 0.100100; 
 1529 0.100100; 
 1697 0.200200; 
 1697 0.100100; 
 1698 0.200200; 
 1698 0.100100; 
 1699 0.300300; 
 1699 0.100100; 
 1700 0.100100; 
 1701 0.100100; 
 1867 0.100100; 
 1868 0.100100; 
 1869 0.200200; 
 1869 0.100100; 
 1870 0.100100; 
 1870 0.100100; 


Name: Sinapoyl malate-4'-methyl ester
SYNON: $:00in-source
DB#: MetaboBASE1069
InChIKey: YAPSBOBZXRDEJO-SNAWJCMRSA-N
Spectrum_type: MS2
PrecursorMZ: 223.0493
Instrument_type: LC-ESI-TOF
Instrument: impact HD
Ion_mode: N
Collision_energy: 20.7683
InChIKey: YAPSBOBZXRDEJO-SNAWJCMRSA-N
Formula: C16H18O9
MW: 354
ExactMass: 354.095082156
Comments: "license=License CC-BY-NC-SA 4.0 International" "author=Plant Biology, The Noble Foundation, Ardmore, OK, US/Dennis Fine, Daniel Wherritt, and Lloyd Sumner" "instrument type=LC-ESI-TOF" "instrument=impact HD" "ionization=ESI" "ionization mode=negative" "ms level=MS2" "precursor m/z=223.0493" "collision energy=20.7683" "collision energy 2=34.6138" "peak width=0.019" "date=2013-12-09 22:32:55+01:00" "column=Waters Acquity BEH C18 1.7um x 2.1 x 150 mm" "retention time=478.2" "raw data file=C:\Data\AtW_4_1p13_9Dec_13msms.d" "Last Auto-Curation=1505110998872" "SMILES=c1c(c(c(cc1/C=C/C(=O)OC(CC(=O)OC)C(=O)O)OC)O)OC" "InChI=InChI=1S/C16H18O9/c1-22-10-6-9(7-11(23-2)15(10)19)4-5-13(17)25-12(16(20)21)8-14(18)24-3/h4-7,12,19H,8H2,1-3H3,(H,20,21)/b5-4+" "InChIKey=YAPSBOBZXRDEJO-SNAWJCMRSA-N" "molecular formula=C16H18O9" "total exact mass=354.095082156" "SMILES=[H]OC(=O)C([H])(OC(=O)C([H])=C([H])C=1C([H])=C(OC([H])([H])[H])C(O[H])=C(OC([H])([H])[H])C1[H])C([H])([H])C(=O)OC([H])([H])[H]"
Num Peaks: 42
 101 0.800801; 
 109 1.501502; 
 113 1.101101; 
 119 1.501502; 
 121 70.270270; 
 122 5.505506; 
 123 0.800801; 
 134 1.601602; 
 135 14.014014; 
 136 1.201201; 
 136 1.101101; 
 137 5.505506; 
 147 2.002002; 
 148 1.701702; 
 149 100.000000; 
 150 0.900901; 
 150 10.710711; 
 150 2.502503; 
 151 1.201201; 
 152 11.811812; 
 152 1.501502; 
 163 15.315315; 
 163 1.001001; 
 164 42.442442; 
 165 10.010010; 
 165 1.401401; 
 165 1.201201; 
 166 0.800801; 
 167 1.701702; 
 169 6.406406; 
 179 1.201201; 
 192 1.001001; 
 193 75.475475; 
 194 9.709710; 
 208 29.129129; 
 209 0.900901; 
 223 3.203203; 
 225 0.800801; 
 789 0.900901; 
 1070 0.900901; 
 1618 0.900901; 
 1928 1.401401; 


Name: Sinapoyl malate-4'-methyl ester
SYNON: $:00in-source
DB#: MetaboBASE1070
InChIKey: YAPSBOBZXRDEJO-SNAWJCMRSA-N
Spectrum_type: MS2
PrecursorMZ: 427.0817
Instrument_type: LC-ESI-TOF
Instrument: impact HD
Ion_mode: N
Collision_energy: 30.3328
InChIKey: YAPSBOBZXRDEJO-SNAWJCMRSA-N
Formula: C16H18O9
MW: 354
ExactMass: 354.095082156
Comments: "license=License CC-BY-NC-SA 4.0 International" "author=Plant Biology, The Noble Foundation, Ardmore, OK, US/Dennis Fine, Daniel Wherritt, and Lloyd Sumner" "instrument type=LC-ESI-TOF" "instrument=impact HD" "ionization=ESI" "ionization mode=negative" "ms level=MS2" "precursor m/z=427.0817" "collision energy=30.3328" "collision energy 2=50.5546" "peak width=0.0079" "date=2013-12-09 22:32:55+01:00" "column=Waters Acquity BEH C18 1.7um x 2.1 x 150 mm" "retention time=478.2" "raw data file=C:\Data\AtW_4_1p13_9Dec_13msms.d" "Last Auto-Curation=1505110240330" "SMILES=c1c(c(c(cc1/C=C/C(=O)OC(CC(=O)OC)C(=O)O)OC)O)OC" "InChI=InChI=1S/C16H18O9/c1-22-10-6-9(7-11(23-2)15(10)19)4-5-13(17)25-12(16(20)21)8-14(18)24-3/h4-7,12,19H,8H2,1-3H3,(H,20,21)/b5-4+" "InChIKey=YAPSBOBZXRDEJO-SNAWJCMRSA-N" "molecular formula=C16H18O9" "total exact mass=354.095082156" "SMILES=[H]OC(=O)C([H])(OC(=O)C([H])=C([H])C=1C([H])=C(OC([H])([H])[H])C(O[H])=C(OC([H])([H])[H])C1[H])C([H])([H])C(=O)OC([H])([H])[H]"
Num Peaks: 38
 215 8.008008; 
 215 8.008008; 
 227 7.307307; 
 239 18.418418; 
 243 100.000000; 
 243 10.310310; 
 245 9.409409; 
 251 23.023023; 
 252 6.606607; 
 254 15.815816; 
 267 13.613614; 
 267 52.052052; 
 269 8.708709; 
 279 9.709710; 
 281 17.817818; 
 282 20.720721; 
 310 21.121121; 
 323 17.817818; 
 325 86.286286; 
 340 9.909910; 
 341 7.507508; 
 341 10.810811; 
 353 10.810811; 
 355 17.817818; 
 356 12.512513; 
 369 24.424424; 
 396 8.408408; 
 397 72.472472; 
 398 8.008008; 
 411 8.508509; 
 412 28.028028; 
 412 8.208208; 
 413 6.806807; 
 427 12.912913; 
 473 7.807808; 
 839 8.008008; 
 1913 7.107107; 
 1916 8.708709; 


Name: Sinapoyl malate-4'-methyl ester
SYNON: $:00in-source
DB#: MetaboBASE1071
InChIKey: YAPSBOBZXRDEJO-SNAWJCMRSA-N
Spectrum_type: MS2
PrecursorMZ: 353.0701
Instrument_type: LC-ESI-TOF
Instrument: impact HD
Ion_mode: N
Collision_energy: 26.8632
InChIKey: YAPSBOBZXRDEJO-SNAWJCMRSA-N
Formula: C16H18O9
MW: 354
ExactMass: 354.095082156
Comments: "license=License CC-BY-NC-SA 4.0 International" "author=Plant Biology, The Noble Foundation, Ardmore, OK, US/Dennis Fine, Daniel Wherritt, and Lloyd Sumner" "instrument type=LC-ESI-TOF" "instrument=impact HD" "ionization=ESI" "ionization mode=negative" "ms level=MS2" "precursor m/z=353.0701" "isolation width=5.21447" "collision energy=26.8632" "collision energy 2=44.7721" "peak width=0.015" "date=2013-12-09 22:32:55+01:00" "column=Waters Acquity BEH C18 1.7um x 2.1 x 150 mm" "retention time=478.2" "raw data file=C:\Data\AtW_4_1p13_9Dec_13msms.d" "Last Auto-Curation=1505111569874" "SMILES=c1c(c(c(cc1/C=C/C(=O)OC(CC(=O)OC)C(=O)O)OC)O)OC" "InChI=InChI=1S/C16H18O9/c1-22-10-6-9(7-11(23-2)15(10)19)4-5-13(17)25-12(16(20)21)8-14(18)24-3/h4-7,12,19H,8H2,1-3H3,(H,20,21)/b5-4+" "InChIKey=YAPSBOBZXRDEJO-SNAWJCMRSA-N" "molecular formula=C16H18O9" "total exact mass=354.095082156" "SMILES=[H]OC(=O)C([H])(OC(=O)C([H])=C([H])C=1C([H])=C(OC([H])([H])[H])C(O[H])=C(OC([H])([H])[H])C1[H])C([H])([H])C(=O)OC([H])([H])[H]"
Num Peaks: 10
 129 100.000000; 
 130 7.907908; 
 147 6.006006; 
 149 10.710711; 
 164 8.908909; 
 179 5.305305; 
 190 14.114114; 
 205 17.617618; 
 223 7.207207; 
 272 4.804805; 


Name: Sinapoyl malate-4'-methyl ester
SYNON: $:00in-source
DB#: MetaboBASE1072
InChIKey: YAPSBOBZXRDEJO-SNAWJCMRSA-N
Spectrum_type: MS2
PrecursorMZ: 705.1319
Instrument_type: LC-ESI-TOF
Instrument: impact HD
Ion_mode: N
Collision_energy: 43.3667
InChIKey: YAPSBOBZXRDEJO-SNAWJCMRSA-N
Formula: C16H18O9
MW: 354
ExactMass: 354.095082156
Comments: "license=License CC-BY-NC-SA 4.0 International" "author=Plant Biology, The Noble Foundation, Ardmore, OK, US/Dennis Fine, Daniel Wherritt, and Lloyd Sumner" "instrument type=LC-ESI-TOF" "instrument=impact HD" "ionization=ESI" "ionization mode=negative" "ms level=MS2" "precursor m/z=705.1319" "collision energy=43.3667" "collision energy 2=72.2779" "peak width=0.016" "date=2013-12-09 22:32:55+01:00" "column=Waters Acquity BEH C18 1.7um x 2.1 x 150 mm" "retention time=478.2" "raw data file=C:\Data\AtW_4_1p13_9Dec_13msms.d" "Last Auto-Curation=1505110240614" "SMILES=c1c(c(c(cc1/C=C/C(=O)OC(CC(=O)OC)C(=O)O)OC)O)OC" "InChI=InChI=1S/C16H18O9/c1-22-10-6-9(7-11(23-2)15(10)19)4-5-13(17)25-12(16(20)21)8-14(18)24-3/h4-7,12,19H,8H2,1-3H3,(H,20,21)/b5-4+" "InChIKey=YAPSBOBZXRDEJO-SNAWJCMRSA-N" "molecular formula=C16H18O9" "total exact mass=354.095082156" "SMILES=[H]OC(=O)C([H])(OC(=O)C([H])=C([H])C=1C([H])=C(OC([H])([H])[H])C(O[H])=C(OC([H])([H])[H])C1[H])C([H])([H])C(=O)OC([H])([H])[H]"
Num Peaks: 250
 121 0.700701; 
 124 0.200200; 
 125 0.300300; 
 128 0.300300; 
 129 21.921922; 
 130 1.401401; 
 139 0.200200; 
 147 11.811812; 
 148 0.400400; 
 149 1.501502; 
 151 0.600601; 
 153 1.001001; 
 161 0.300300; 
 163 0.200200; 
 164 1.701702; 
 166 0.700701; 
 170 0.200200; 
 174 0.300300; 
 175 0.500501; 
 175 0.200200; 
 176 0.700701; 
 177 0.300300; 
 179 0.600601; 
 181 1.001001; 
 187 0.400400; 
 188 0.300300; 
 188 0.500501; 
 188 0.700701; 
 189 0.300300; 
 189 2.002002; 
 190 2.602603; 
 190 0.500501; 
 191 0.300300; 
 203 0.500501; 
 205 5.205205; 
 208 0.700701; 
 215 0.300300; 
 216 0.300300; 
 219 0.200200; 
 223 10.210210; 
 224 0.900901; 
 225 0.300300; 
 226 0.300300; 
 227 0.300300; 
 228 0.400400; 
 228 0.800801; 
 229 0.700701; 
 229 0.300300; 
 229 0.400400; 
 232 0.200200; 
 234 0.600601; 
 235 0.400400; 
 235 0.300300; 
 237 0.300300; 
 239 1.201201; 
 240 0.400400; 
 241 0.500501; 
 243 29.129129; 
 243 3.903904; 
 243 0.400400; 
 244 5.605606; 
 244 0.400400; 
 244 0.300300; 
 245 0.300300; 
 245 0.400400; 
 245 0.200200; 
 251 1.001001; 
 252 0.400400; 
 254 0.900901; 
 255 0.300300; 
 256 0.200200; 
 256 0.300300; 
 257 0.500501; 
 257 0.400400; 
 258 17.417417; 
 259 0.600601; 
 259 3.903904; 
 263 0.500501; 
 264 0.200200; 
 265 0.600601; 
 267 5.305305; 
 268 0.500501; 
 270 0.200200; 
 271 0.200200; 
 272 1.401401; 
 273 1.801802; 
 273 0.300300; 
 275 0.300300; 
 276 0.200200; 
 278 0.200200; 
 279 0.500501; 
 280 0.200200; 
 281 0.300300; 
 281 1.101101; 
 282 3.403403; 
 283 0.400400; 
 283 0.300300; 
 284 0.200200; 
 284 0.300300; 
 284 0.200200; 
 286 0.400400; 
 287 0.200200; 
 287 3.303303; 
 288 0.500501; 
 288 0.600601; 
 289 0.300300; 
 290 0.200200; 
 293 0.800801; 
 294 0.500501; 
 295 1.701702; 
 295 0.500501; 
 296 0.500501; 
 296 0.300300; 
 297 0.300300; 
 297 3.303303; 
 298 0.400400; 
 298 0.300300; 
 299 0.400400; 
 300 0.200200; 
 301 0.600601; 
 301 0.200200; 
 303 1.401401; 
 305 0.500501; 
 307 0.300300; 
 308 0.400400; 
 310 3.603604; 
 311 1.101101; 
 311 0.300300; 
 312 1.101101; 
 312 0.300300; 
 313 0.500501; 
 314 0.400400; 
 315 0.200200; 
 316 0.400400; 
 319 0.300300; 
 321 0.700701; 
 321 0.200200; 
 322 0.300300; 
 322 0.400400; 
 323 1.601602; 
 323 0.600601; 
 324 0.400400; 
 324 0.200200; 
 324 0.400400; 
 325 0.300300; 
 325 45.645646; 
 325 0.200200; 
 326 0.300300; 
 326 10.110110; 
 327 3.503504; 
 327 0.200200; 
 328 0.500501; 
 329 1.201201; 
 331 0.300300; 
 331 0.300300; 
 334 0.200200; 
 337 0.700701; 
 337 0.700701; 
 338 2.802803; 
 338 0.400400; 
 339 0.500501; 
 339 0.300300; 
 340 0.200200; 
 340 14.314314; 
 341 4.704705; 
 341 4.504505; 
 342 1.201201; 
 342 2.002002; 
 343 0.400400; 
 343 1.601602; 
 343 0.300300; 
 347 0.400400; 
 347 0.300300; 
 350 0.600601; 
 351 0.300300; 
 352 0.600601; 
 352 0.500501; 
 352 1.101101; 
 353 0.300300; 
 353 1.701702; 
 353 1.601602; 
 353 2.402402; 
 354 0.800801; 
 354 0.300300; 
 355 7.307307; 
 356 0.700701; 
 357 0.500501; 
 357 1.801802; 
 358 0.300300; 
 359 0.400400; 
 365 1.201201; 
 366 0.500501; 
 366 0.500501; 
 367 0.200200; 
 367 0.500501; 
 367 0.500501; 
 367 0.300300; 
 367 0.300300; 
 368 1.501502; 
 369 9.309309; 
 370 0.300300; 
 370 2.502503; 
 375 0.600601; 
 379 0.700701; 
 379 0.200200; 
 380 0.900901; 
 381 1.801802; 
 381 0.300300; 
 381 0.500501; 
 382 1.101101; 
 383 0.200200; 
 383 0.300300; 
 383 0.300300; 
 395 0.800801; 
 396 3.503504; 
 396 1.001001; 
 397 26.326326; 
 398 6.406406; 
 398 0.200200; 
 399 0.700701; 
 411 5.405405; 
 411 0.200200; 
 412 23.923924; 
 412 0.200200; 
 413 5.905906; 
 413 0.200200; 
 414 0.300300; 
 421 0.200200; 
 422 0.700701; 
 423 0.200200; 
 426 1.201201; 
 427 100.000000; 
 428 0.300300; 
 428 22.422422; 
 429 0.300300; 
 429 3.803804; 
 430 0.300300; 
 430 0.200200; 
 439 1.201201; 
 440 0.500501; 
 454 1.001001; 
 454 0.300300; 
 469 1.301301; 
 482 0.200200; 
 483 0.300300; 
 513 0.200200; 
 513 0.400400; 
 630 0.300300; 
 1682 0.300300; 
 1744 0.200200; 


Name: Sinapoyl malate-4'-methyl ester
SYNON: $:00in-source
DB#: MetaboBASE1073
InChIKey: YAPSBOBZXRDEJO-SNAWJCMRSA-N
Instrument_type: LC-ESI-TOF
Instrument: impact HD
Ion_mode: N
InChIKey: YAPSBOBZXRDEJO-SNAWJCMRSA-N
Formula: C16H18O9
MW: 354
ExactMass: 354.095082156
Comments: "license=License CC-BY-NC-SA 4.0 International" "author=Plant Biology, The Noble Foundation, Ardmore, OK, US/Dennis Fine, Daniel Wherritt, and Lloyd Sumner" "instrument type=LC-ESI-TOF" "instrument=impact HD" "ionization=ESI" "ionization mode=negative" "peak width=0.017" "date=2013-12-09 22:32:55+01:00" "column=Waters Acquity BEH C18 1.7um x 2.1 x 150 mm" "retention time=478.2" "raw data file=C:\Data\AtW_4_1p13_9Dec_13msms.d" "Last Auto-Curation=1505110998994" "SMILES=c1c(c(c(cc1/C=C/C(=O)OC(CC(=O)OC)C(=O)O)OC)O)OC" "InChI=InChI=1S/C16H18O9/c1-22-10-6-9(7-11(23-2)15(10)19)4-5-13(17)25-12(16(20)21)8-14(18)24-3/h4-7,12,19H,8H2,1-3H3,(H,20,21)/b5-4+" "InChIKey=YAPSBOBZXRDEJO-SNAWJCMRSA-N" "molecular formula=C16H18O9" "total exact mass=354.095082156" "SMILES=[H]OC(=O)C([H])(OC(=O)C([H])=C([H])C=1C([H])=C(OC([H])([H])[H])C(O[H])=C(OC([H])([H])[H])C1[H])C([H])([H])C(=O)OC([H])([H])[H]"
Num Peaks: 249
 100 0.200200; 
 101 1.201201; 
 113 0.700701; 
 121 2.302302; 
 129 21.021021; 
 130 1.301301; 
 135 0.800801; 
 147 0.100100; 
 147 21.121121; 
 148 0.100100; 
 148 1.101101; 
 149 6.906907; 
 149 0.500501; 
 152 1.601602; 
 161 1.601602; 
 163 0.100100; 
 163 2.202202; 
 164 11.611612; 
 165 1.101101; 
 165 1.101101; 
 175 0.600601; 
 179 0.100100; 
 179 5.105105; 
 179 0.200200; 
 180 0.100100; 
 180 0.600601; 
 190 5.605606; 
 190 0.100100; 
 191 0.600601; 
 193 7.307307; 
 193 0.300300; 
 194 0.600601; 
 205 19.219219; 
 206 2.402402; 
 207 0.600601; 
 207 0.200200; 
 208 20.920921; 
 209 2.802803; 
 221 4.804805; 
 221 0.100100; 
 222 0.400400; 
 222 0.100100; 
 223 0.100100; 
 223 100.000000; 
 223 0.100100; 
 224 11.611612; 
 225 0.100100; 
 225 1.501502; 
 225 0.100100; 
 308 2.502503; 
 309 0.200200; 
 309 0.500501; 
 334 0.700701; 
 352 0.100100; 
 352 29.829830; 
 353 0.500501; 
 353 63.963964; 
 353 5.405405; 
 354 9.709710; 
 354 0.900901; 
 355 1.901902; 
 355 0.100100; 
 363 0.700701; 
 374 0.600601; 
 375 3.303303; 
 375 0.300300; 
 376 0.600601; 
 405 0.100100; 
 405 1.801802; 
 411 0.100100; 
 411 0.100100; 
 411 1.101101; 
 412 0.400400; 
 427 0.100100; 
 427 58.358358; 
 427 0.200200; 
 427 0.300300; 
 428 0.100100; 
 428 11.711712; 
 429 2.002002; 
 429 0.100100; 
 429 0.100100; 
 443 0.400400; 
 445 1.301301; 
 445 0.100100; 
 447 1.101101; 
 452 0.400400; 
 452 0.700701; 
 453 10.410410; 
 453 0.200200; 
 453 0.100100; 
 454 3.003003; 
 455 0.700701; 
 455 0.100100; 
 455 3.403403; 
 456 0.700701; 
 483 0.700701; 
 493 0.200200; 
 493 0.100100; 
 493 0.700701; 
 505 0.100100; 
 505 0.600601; 
 505 0.100100; 
 513 0.100100; 
 513 2.702703; 
 513 0.100100; 
 514 0.800801; 
 515 0.100100; 
 515 0.200200; 
 515 0.200200; 
 515 0.400400; 
 516 0.200200; 
 519 0.400400; 
 543 0.800801; 
 544 1.001001; 
 544 0.200200; 
 544 0.200200; 
 545 0.100100; 
 555 1.201201; 
 556 0.100100; 
 557 0.400400; 
 557 8.108108; 
 557 0.300300; 
 557 0.100100; 
 558 0.100100; 
 558 2.202202; 
 559 0.600601; 
 559 0.100100; 
 563 0.500501; 
 575 7.607608; 
 575 0.100100; 
 576 2.602603; 
 576 2.302302; 
 577 0.200200; 
 577 0.800801; 
 577 0.200200; 
 578 0.100100; 
 597 0.400400; 
 603 2.902903; 
 604 1.001001; 
 605 0.500501; 
 705 65.965966; 
 706 21.421421; 
 706 0.600601; 
 707 8.508509; 
 707 0.300300; 
 707 0.100100; 
 708 2.602603; 
 709 0.100100; 
 713 0.100100; 
 713 0.100100; 
 713 1.601602; 
 714 0.100100; 
 723 0.500501; 
 727 3.003003; 
 728 1.401401; 
 728 0.200200; 
 728 0.100100; 
 729 20.020020; 
 730 6.106106; 
 730 0.100100; 
 731 1.601602; 
 732 0.100100; 
 759 0.100100; 
 759 0.200200; 
 759 0.700701; 
 791 0.900901; 
 791 0.100100; 
 792 0.200200; 
 805 0.500501; 
 805 0.100100; 
 806 0.100100; 
 809 0.200200; 
 809 0.100100; 
 809 0.100100; 
 809 6.706707; 
 809 0.100100; 
 810 0.100100; 
 810 2.902903; 
 811 0.600601; 
 831 0.100100; 
 831 2.302302; 
 832 0.100100; 
 832 0.800801; 
 833 0.100100; 
 852 0.800801; 
 853 0.200200; 
 911 0.100100; 
 911 0.100100; 
 911 1.101101; 
 912 0.100100; 
 912 0.400400; 
 947 0.500501; 
 948 0.100100; 
 974 2.002002; 
 974 0.100100; 
 975 0.400400; 
 975 0.100100; 
 1059 0.800801; 
 1059 0.200200; 
 1059 0.100100; 
 1060 0.100100; 
 1060 0.600601; 
 1061 0.600601; 
 1061 0.100100; 
 1062 0.100100; 
 1062 0.200200; 
 1081 1.301301; 
 1081 0.100100; 
 1081 0.100100; 
 1082 0.300300; 
 1082 0.600601; 
 1083 0.100100; 
 1083 2.002002; 
 1084 0.300300; 
 1084 0.800801; 
 1084 0.100100; 
 1085 0.200200; 
 1099 0.800801; 
 1100 0.200200; 
 1103 0.400400; 
 1103 0.500501; 
 1103 0.100100; 
 1103 0.100100; 
 1104 0.200200; 
 1105 1.201201; 
 1105 0.100100; 
 1106 0.300300; 
 1161 0.300300; 
 1161 0.200200; 
 1161 0.200200; 
 1161 0.800801; 
 1161 0.100100; 
 1161 0.100100; 
 1161 0.100100; 
 1162 0.100100; 
 1162 0.100100; 
 1162 0.600601; 
 1163 0.200200; 
 1163 0.200200; 
 1163 0.100100; 
 1185 0.600601; 
 1186 0.100100; 
 1216 0.400400; 
 1217 0.200200; 
 1468 0.600601; 
 1468 0.100100; 
 1469 0.200200; 
 1469 0.400400; 


Name: Sinapoyl malate-1'-methyl ester
SYNON: $:00in-source
DB#: MetaboBASE1074
InChIKey: UBQMBIFYXNOHMG-SNAWJCMRSA-N
Spectrum_type: MS2
PrecursorMZ: 353.077
Instrument_type: LC-ESI-TOF
Instrument: impact HD
Ion_mode: N
Collision_energy: 26.8638
InChIKey: UBQMBIFYXNOHMG-SNAWJCMRSA-N
Formula: C16H18O9
MW: 354
ExactMass: 354.095082156
Comments: "license=License CC-BY-NC-SA 4.0 International" "author=Plant Biology, The Noble Foundation, Ardmore, OK, US/Dennis Fine, Daniel Wherritt, and Lloyd Sumner" "instrument type=LC-ESI-TOF" "instrument=impact HD" "ionization=ESI" "ionization mode=negative" "ms level=MS2" "precursor m/z=353.077" "collision energy=26.8638" "collision energy 2=44.7731" "peak width=0.019" "date=2013-12-09 22:32:55+01:00" "column=Waters Acquity BEH C18 1.7um x 2.1 x 150 mm" "retention time=498" "raw data file=C:\Data\AtW_4_1p13_9Dec_13msms.d" "Last Auto-Curation=1505111326631" "SMILES=c1c(c(c(cc1/C=C/C(=O)OC(CC(=O)O)C(=O)OC)OC)O)OC" "InChI=InChI=1S/C16H18O9/c1-22-10-6-9(7-11(23-2)15(10)20)4-5-14(19)25-12(8-13(17)18)16(21)24-3/h4-7,12,20H,8H2,1-3H3,(H,17,18)/b5-4+" "InChIKey=UBQMBIFYXNOHMG-SNAWJCMRSA-N" "molecular formula=C16H18O9" "total exact mass=354.095082156" "SMILES=[H]OC(=O)C([H])([H])C([H])(OC(=O)C([H])=C([H])C=1C([H])=C(OC([H])([H])[H])C(O[H])=C(OC([H])([H])[H])C1[H])C(=O)OC([H])([H])[H]"
Num Peaks: 87
 115 2.202202; 
 117 0.800801; 
 119 9.109109; 
 119 0.800801; 
 120 0.800801; 
 120 0.700701; 
 121 9.809810; 
 122 0.500501; 
 128 0.400400; 
 129 2.802803; 
 132 1.301301; 
 133 0.600601; 
 146 0.500501; 
 146 0.600601; 
 147 4.904905; 
 147 19.819820; 
 147 3.103103; 
 148 0.900901; 
 149 36.036036; 
 149 2.002002; 
 150 3.703704; 
 161 0.500501; 
 162 0.700701; 
 164 48.748749; 
 165 0.800801; 
 165 3.603604; 
 165 0.500501; 
 175 31.831832; 
 176 4.904905; 
 178 0.400400; 
 178 0.400400; 
 179 0.400400; 
 179 6.806807; 
 189 1.201201; 
 189 0.500501; 
 190 94.894895; 
 190 0.400400; 
 191 9.309309; 
 193 0.800801; 
 195 0.400400; 
 203 0.500501; 
 205 100.000000; 
 205 0.500501; 
 206 9.909910; 
 207 1.101101; 
 208 0.700701; 
 217 0.600601; 
 218 0.700701; 
 223 16.916917; 
 223 0.800801; 
 224 1.801802; 
 233 0.600601; 
 234 1.201201; 
 235 2.302302; 
 240 0.400400; 
 250 0.400400; 
 250 0.700701; 
 251 9.109109; 
 251 0.500501; 
 252 0.800801; 
 261 1.101101; 
 261 0.300300; 
 263 1.001001; 
 263 0.600601; 
 279 0.500501; 
 279 5.305305; 
 280 0.900901; 
 282 0.500501; 
 286 0.300300; 
 295 2.002002; 
 307 0.500501; 
 309 0.400400; 
 310 0.600601; 
 310 1.201201; 
 322 0.400400; 
 322 1.201201; 
 323 6.806807; 
 324 0.900901; 
 325 0.500501; 
 338 0.600601; 
 338 0.600601; 
 354 0.500501; 
 400 0.800801; 
 673 0.500501; 
 740 0.400400; 
 938 0.400400; 
 1914 0.500501; 


Name: Sinapoyl malate-1'-methyl ester
SYNON: $:00in-source
DB#: MetaboBASE1075
InChIKey: UBQMBIFYXNOHMG-SNAWJCMRSA-N
Instrument_type: LC-ESI-TOF
Instrument: impact HD
Ion_mode: N
InChIKey: UBQMBIFYXNOHMG-SNAWJCMRSA-N
Formula: C16H18O9
MW: 354
ExactMass: 354.095082156
Comments: "license=License CC-BY-NC-SA 4.0 International" "author=Plant Biology, The Noble Foundation, Ardmore, OK, US/Dennis Fine, Daniel Wherritt, and Lloyd Sumner" "instrument type=LC-ESI-TOF" "instrument=impact HD" "ionization=ESI" "ionization mode=negative" "peak width=0.015" "date=2013-12-09 22:32:55+01:00" "column=Waters Acquity BEH C18 1.7um x 2.1 x 150 mm" "retention time=498" "raw data file=C:\Data\AtW_4_1p13_9Dec_13msms.d" "Last Auto-Curation=1505110241459" "SMILES=c1c(c(c(cc1/C=C/C(=O)OC(CC(=O)O)C(=O)OC)OC)O)OC" "InChI=InChI=1S/C16H18O9/c1-22-10-6-9(7-11(23-2)15(10)20)4-5-14(19)25-12(8-13(17)18)16(21)24-3/h4-7,12,20H,8H2,1-3H3,(H,17,18)/b5-4+" "InChIKey=UBQMBIFYXNOHMG-SNAWJCMRSA-N" "molecular formula=C16H18O9" "total exact mass=354.095082156" "SMILES=[H]OC(=O)C([H])([H])C([H])(OC(=O)C([H])=C([H])C=1C([H])=C(OC([H])([H])[H])C(O[H])=C(OC([H])([H])[H])C1[H])C(=O)OC([H])([H])[H]"
Num Peaks: 250
 101 0.200200; 
 113 1.001001; 
 115 1.301301; 
 119 0.200200; 
 121 0.800801; 
 133 0.600601; 
 147 0.200200; 
 147 4.104104; 
 148 0.300300; 
 149 3.303303; 
 149 0.200200; 
 150 0.600601; 
 161 2.102102; 
 164 9.209209; 
 165 0.800801; 
 175 0.400400; 
 179 1.201201; 
 190 6.806807; 
 191 0.900901; 
 193 0.200200; 
 205 18.218218; 
 206 2.402402; 
 221 1.501502; 
 223 27.127127; 
 224 3.103103; 
 225 0.400400; 
 249 0.400400; 
 321 2.702703; 
 322 0.300300; 
 323 0.300300; 
 325 0.200200; 
 341 25.325325; 
 342 4.904905; 
 343 0.100100; 
 343 0.200200; 
 351 1.301301; 
 353 100.000000; 
 354 19.019019; 
 355 3.103103; 
 356 0.400400; 
 369 0.200200; 
 369 0.100100; 
 369 0.600601; 
 371 23.723724; 
 372 4.504505; 
 373 0.400400; 
 376 0.200200; 
 391 0.500501; 
 401 1.301301; 
 402 0.400400; 
 411 13.113113; 
 412 2.202202; 
 413 0.100100; 
 413 0.200200; 
 413 0.500501; 
 427 17.417417; 
 427 0.200200; 
 428 3.703704; 
 429 0.800801; 
 429 0.200200; 
 445 0.300300; 
 451 0.300300; 
 452 0.300300; 
 452 0.200200; 
 453 12.312312; 
 454 2.102102; 
 455 0.600601; 
 461 0.400400; 
 462 0.300300; 
 483 0.600601; 
 487 29.129129; 
 488 7.407407; 
 489 0.300300; 
 489 1.101101; 
 489 0.200200; 
 510 0.100100; 
 510 0.200200; 
 510 0.200200; 
 510 0.100100; 
 517 0.400400; 
 518 0.400400; 
 519 0.700701; 
 527 0.500501; 
 531 0.100100; 
 544 1.001001; 
 544 0.200200; 
 545 0.200200; 
 557 0.200200; 
 557 0.200200; 
 557 0.200200; 
 575 0.400400; 
 576 0.100100; 
 579 0.200200; 
 586 0.200200; 
 586 0.200200; 
 587 1.601602; 
 587 0.500501; 
 587 0.500501; 
 587 2.802803; 
 588 0.800801; 
 588 0.400400; 
 588 1.001001; 
 589 0.500501; 
 623 0.400400; 
 663 2.202202; 
 664 0.900901; 
 665 0.300300; 
 705 37.237237; 
 706 11.711712; 
 707 10.710711; 
 708 2.702703; 
 709 0.600601; 
 713 0.300300; 
 714 0.200200; 
 715 0.200200; 
 727 1.601602; 
 728 0.600601; 
 729 8.208208; 
 730 2.102102; 
 731 0.600601; 
 733 0.800801; 
 734 0.200200; 
 735 0.200200; 
 735 0.500501; 
 735 0.300300; 
 755 0.200200; 
 757 0.200200; 
 757 0.200200; 
 765 0.100100; 
 765 0.500501; 
 805 0.300300; 
 807 0.400400; 
 809 0.200200; 
 809 1.201201; 
 810 0.400400; 
 815 1.001001; 
 815 0.400400; 
 815 0.200200; 
 816 0.700701; 
 817 0.200200; 
 817 0.200200; 
 817 0.200200; 
 831 0.300300; 
 831 0.600601; 
 832 0.300300; 
 832 0.100100; 
 839 0.400400; 
 841 0.800801; 
 842 0.400400; 
 847 0.300300; 
 852 0.300300; 
 863 1.901902; 
 864 1.201201; 
 911 0.200200; 
 911 0.300300; 
 911 2.202202; 
 912 0.200200; 
 912 0.300300; 
 912 0.200200; 
 912 1.301301; 
 913 0.200200; 
 913 0.300300; 
 933 0.200200; 
 933 0.100100; 
 943 0.200200; 
 943 0.200200; 
 943 0.200200; 
 943 2.302302; 
 944 2.002002; 
 945 0.200200; 
 945 0.400400; 
 945 0.100100; 
 965 0.100100; 
 965 0.200200; 
 965 0.100100; 
 966 0.100100; 
 966 0.100100; 
 974 0.500501; 
 975 1.301301; 
 975 1.301301; 
 975 0.300300; 
 975 0.100100; 
 976 0.500501; 
 976 0.700701; 
 977 0.300300; 
 978 0.100100; 
 987 0.100100; 
 997 0.300300; 
 1017 0.200200; 
 1059 0.600601; 
 1060 0.400400; 
 1061 1.001001; 
 1062 0.300300; 
 1081 0.100100; 
 1083 0.600601; 
 1084 0.200200; 
 1099 0.300300; 
 1100 0.300300; 
 1105 0.200200; 
 1106 0.100100; 
 1115 0.300300; 
 1117 0.200200; 
 1119 0.200200; 
 1119 0.400400; 
 1119 0.200200; 
 1119 0.100100; 
 1119 0.200200; 
 1120 0.200200; 
 1151 0.100100; 
 1151 0.400400; 
 1151 0.200200; 
 1151 0.300300; 
 1152 0.500501; 
 1152 0.100100; 
 1153 0.300300; 
 1153 0.100100; 
 1153 0.100100; 
 1161 0.400400; 
 1161 0.600601; 
 1162 0.100100; 
 1162 0.200200; 
 1163 0.200200; 
 1183 0.100100; 
 1193 1.501502; 
 1194 1.201201; 
 1195 0.600601; 
 1389 0.400400; 
 1389 3.003003; 
 1389 3.903904; 
 1389 0.500501; 
 1389 0.400400; 
 1389 0.500501; 
 1389 0.500501; 
 1389 0.300300; 
 1390 1.001001; 
 1390 1.601602; 
 1390 2.302302; 
 1390 0.600601; 
 1391 0.800801; 
 1391 1.201201; 
 1391 1.001001; 
 1391 0.500501; 
 1391 0.300300; 
 1392 0.200200; 
 1468 0.200200; 
 1469 0.200200; 
 1743 0.200200; 
 1743 0.300300; 
 1744 0.200200; 
 1744 0.200200; 


Name: Sinapoyl malate-1'-methyl ester
SYNON: $:00in-source
DB#: MetaboBASE1076
InChIKey: UBQMBIFYXNOHMG-SNAWJCMRSA-N
Spectrum_type: MS2
PrecursorMZ: 705.1342
Instrument_type: LC-ESI-TOF
Instrument: impact HD
Ion_mode: N
Collision_energy: 43.3666
InChIKey: UBQMBIFYXNOHMG-SNAWJCMRSA-N
Formula: C16H18O9
MW: 354
ExactMass: 354.095082156
Comments: "license=License CC-BY-NC-SA 4.0 International" "author=Plant Biology, The Noble Foundation, Ardmore, OK, US/Dennis Fine, Daniel Wherritt, and Lloyd Sumner" "instrument type=LC-ESI-TOF" "instrument=impact HD" "ionization=ESI" "ionization mode=negative" "ms level=MS2" "precursor m/z=705.1342" "collision energy=43.3666" "collision energy 2=72.2777" "peak width=0.019" "date=2013-12-09 22:32:55+01:00" "column=Waters Acquity BEH C18 1.7um x 2.1 x 150 mm" "retention time=498" "raw data file=C:\Data\AtW_4_1p13_9Dec_13msms.d" "Last Auto-Curation=1505110999132" "SMILES=c1c(c(c(cc1/C=C/C(=O)OC(CC(=O)O)C(=O)OC)OC)O)OC" "InChI=InChI=1S/C16H18O9/c1-22-10-6-9(7-11(23-2)15(10)20)4-5-14(19)25-12(8-13(17)18)16(21)24-3/h4-7,12,20H,8H2,1-3H3,(H,17,18)/b5-4+" "InChIKey=UBQMBIFYXNOHMG-SNAWJCMRSA-N" "molecular formula=C16H18O9" "total exact mass=354.095082156" "SMILES=[H]OC(=O)C([H])([H])C([H])(OC(=O)C([H])=C([H])C=1C([H])=C(OC([H])([H])[H])C(O[H])=C(OC([H])([H])[H])C1[H])C(=O)OC([H])([H])[H]"
Num Peaks: 250
 103 0.100100; 
 106 0.200200; 
 115 2.402402; 
 119 0.200200; 
 121 3.703704; 
 124 0.200200; 
 125 0.100100; 
 129 1.501502; 
 132 0.200200; 
 132 0.200200; 
 138 0.300300; 
 138 0.300300; 
 139 0.100100; 
 139 0.300300; 
 139 0.300300; 
 145 0.200200; 
 145 0.200200; 
 147 23.823824; 
 148 1.701702; 
 149 8.708709; 
 150 0.500501; 
 152 0.200200; 
 153 2.302302; 
 161 0.400400; 
 163 0.200200; 
 164 15.315315; 
 165 0.600601; 
 165 0.200200; 
 165 1.001001; 
 166 0.100100; 
 166 0.200200; 
 173 1.401401; 
 174 1.401401; 
 175 3.503504; 
 175 0.700701; 
 176 0.300300; 
 176 0.200200; 
 177 0.100100; 
 179 0.100100; 
 179 1.201201; 
 179 1.601602; 
 180 0.400400; 
 181 0.200200; 
 187 0.300300; 
 187 0.100100; 
 187 0.200200; 
 188 2.502503; 
 189 3.603604; 
 190 26.426426; 
 190 0.800801; 
 191 2.102102; 
 192 0.300300; 
 193 0.200200; 
 203 0.200200; 
 203 1.001001; 
 205 100.000000; 
 205 0.200200; 
 206 10.410410; 
 207 1.501502; 
 208 0.400400; 
 211 0.100100; 
 214 0.200200; 
 215 0.200200; 
 217 0.200200; 
 218 0.400400; 
 223 37.737738; 
 224 3.403403; 
 225 0.200200; 
 226 0.200200; 
 228 0.400400; 
 228 0.200200; 
 229 0.800801; 
 232 0.200200; 
 233 0.400400; 
 234 0.400400; 
 235 0.200200; 
 239 1.101101; 
 240 0.200200; 
 241 0.200200; 
 242 0.200200; 
 243 21.521522; 
 243 3.003003; 
 244 3.803804; 
 244 0.200200; 
 245 0.700701; 
 248 0.100100; 
 248 0.200200; 
 249 0.900901; 
 250 0.300300; 
 251 0.700701; 
 252 0.200200; 
 252 0.200200; 
 253 0.100100; 
 254 0.800801; 
 255 0.100100; 
 256 0.100100; 
 257 1.001001; 
 258 11.311311; 
 259 3.503504; 
 260 0.300300; 
 261 0.200200; 
 262 0.200200; 
 262 0.200200; 
 263 0.200200; 
 264 0.200200; 
 265 0.300300; 
 266 0.200200; 
 266 0.300300; 
 267 3.803804; 
 268 0.700701; 
 269 0.200200; 
 269 0.300300; 
 271 0.200200; 
 273 0.400400; 
 275 0.300300; 
 276 0.200200; 
 277 0.600601; 
 279 0.400400; 
 281 0.600601; 
 282 2.202202; 
 283 0.200200; 
 283 0.700701; 
 284 0.200200; 
 287 0.200200; 
 291 0.200200; 
 292 0.300300; 
 293 0.200200; 
 293 0.300300; 
 294 0.600601; 
 295 2.102102; 
 295 0.200200; 
 296 0.500501; 
 296 0.400400; 
 297 0.400400; 
 297 1.801802; 
 298 0.200200; 
 306 0.200200; 
 307 0.200200; 
 307 0.200200; 
 309 0.200200; 
 309 0.400400; 
 310 0.200200; 
 310 3.003003; 
 310 0.200200; 
 311 1.101101; 
 311 0.200200; 
 312 0.900901; 
 313 0.200200; 
 321 0.200200; 
 321 2.902903; 
 322 0.300300; 
 322 0.800801; 
 323 0.200200; 
 323 1.101101; 
 323 0.200200; 
 324 0.500501; 
 325 34.034034; 
 325 0.200200; 
 326 8.208208; 
 327 3.603604; 
 328 0.100100; 
 328 0.200200; 
 328 0.700701; 
 329 0.600601; 
 333 0.200200; 
 333 0.200200; 
 335 0.200200; 
 336 0.200200; 
 338 0.600601; 
 339 0.300300; 
 339 0.300300; 
 340 9.309309; 
 341 0.100100; 
 341 4.604605; 
 341 5.105105; 
 342 0.400400; 
 342 1.401401; 
 343 1.201201; 
 343 0.200200; 
 344 0.200200; 
 345 0.200200; 
 347 0.200200; 
 348 0.300300; 
 349 0.300300; 
 351 0.400400; 
 351 0.200200; 
 352 0.500501; 
 352 0.200200; 
 353 0.200200; 
 353 0.300300; 
 353 0.200200; 
 353 0.100100; 
 353 5.205205; 
 354 1.001001; 
 354 0.500501; 
 355 0.300300; 
 355 0.200200; 
 355 5.005005; 
 356 1.301301; 
 357 1.101101; 
 357 0.800801; 
 364 0.500501; 
 365 1.501502; 
 366 0.200200; 
 367 0.800801; 
 367 0.200200; 
 367 0.300300; 
 368 0.200200; 
 368 0.800801; 
 369 8.608609; 
 370 1.101101; 
 379 0.800801; 
 380 0.200200; 
 381 1.101101; 
 381 0.200200; 
 382 0.600601; 
 382 0.200200; 
 383 0.100100; 
 383 0.100100; 
 383 0.300300; 
 384 0.200200; 
 395 0.700701; 
 395 0.200200; 
 396 2.102102; 
 396 1.601602; 
 397 20.120120; 
 398 3.103103; 
 399 1.101101; 
 400 0.100100; 
 409 0.200200; 
 411 4.404404; 
 412 24.524525; 
 412 0.200200; 
 413 4.604605; 
 414 0.200200; 
 414 0.700701; 
 425 0.200200; 
 426 0.600601; 
 426 0.300300; 
 426 0.100100; 
 427 0.200200; 
 427 68.368368; 
 427 0.200200; 
 428 0.200200; 
 428 15.215215; 
 429 2.002002; 
 429 0.900901; 
 430 0.700701; 
 430 0.200200; 
 601 0.200200; 


Name: 1-Hydroxy-2-(9Z,12Z-octadecadienoyl)-sn-glycero-3-phosphoethanolamine
SYNON: $:00in-source
DB#: MetaboBASE1077
InChIKey: SVRBKLJIDJHADS-USWSLJGRSA-M
Precursor_type: [M]-
Spectrum_type: MS2
PrecursorMZ: 476.277
Instrument_type: LC-ESI-TOF
Instrument: impact HD
Ion_mode: N
Collision_energy: 36.1656
InChIKey: SVRBKLJIDJHADS-USWSLJGRSA-M
Formula: C23H43NO7P
MW: 476
ExactMass: 476.2782629259093
Comments: "synonym=2-Ammonioethyl (2R)-3-hydroxy-2-[(9Z,12Z)-octadecadienoyloxy]propyl phosphate" "license=License CC-BY-NC-SA 4.0 International" "author=Plant Biology, The Noble Foundation, Ardmore, OK, US/Dennis Fine, Daniel Wherritt, and Lloyd Sumner" "instrument type=LC-ESI-TOF" "instrument=impact HD" "ionization=ESI" "ionization mode=negative" "ms level=MS2" "precursor m/z=476.277" "isolation width=7.82208" "collision energy=36.1656" "collision energy 2=60.2759" "peak width=0.03" "date=2014-11-20 07:21:14+01:00" "column=Waters Acquity BEH C18 1.7um x 2.1 x 150 mm" "retention time=1353.6" "raw data file=C:\Data\2014Nov12_A-17 aerial root MS MSMS\A-17 root better MSMS_1-A,3_01_1296.d" "precursor type=[M]-" "mass accuracy=1.4998540762655264" "mass error=-7.14345999881516E-4" "SMILES=C(C(=O)O[C@H](CO)COP(=O)([O-])OCCN)CCCCCC/C=C\C/C=C\CCCCC" "InChI=InChI=1S/C23H44NO7P/c1-2-3-4-5-6-7-8-9-10-11-12-13-14-15-16-17-23(26)31-22(20-25)21-30-32(27,28)29-19-18-24/h6-7,9-10,22,25H,2-5,8,11-21,24H2,1H3,(H,27,28)/p-1/b7-6-,10-9-/t22-/m1/s1" "InChIKey=SVRBKLJIDJHADS-USWSLJGRSA-M" "molecular formula=C23H43NO7P" "total exact mass=476.2782629259093" "SMILES=C(C(=O)OC(CO)COP(=O)([O-])OCCN)CCCCCCC=CCC=CCCCCC"
Num Peaks: 2
 279 100.000000; 
 280 22.722723; 


Name: 1-Hydroxy-2-(9Z,12Z-octadecadienoyl)-sn-glycero-3-phosphoethanolamine
SYNON: $:00in-source
DB#: MetaboBASE1078
InChIKey: SVRBKLJIDJHADS-USWSLJGRSA-M
Instrument_type: LC-ESI-TOF
Instrument: impact HD
Ion_mode: N
Collision_energy: 10
InChIKey: SVRBKLJIDJHADS-USWSLJGRSA-M
Formula: C23H43NO7P
MW: 476
ExactMass: 476.27826292590925
Comments: "synonym=2-Ammonioethyl (2R)-3-hydroxy-2-[(9Z,12Z)-octadecadienoyloxy]propyl phosphate" "license=License CC-BY-NC-SA 4.0 International" "author=Plant Biology, The Noble Foundation, Ardmore, OK, US/Dennis Fine, Daniel Wherritt, and Lloyd Sumner" "instrument type=LC-ESI-TOF" "instrument=impact HD" "ionization=ESI" "ionization mode=negative" "collision energy=10" "peak width=0.014" "date=2014-11-14 00:11:23+01:00" "column=Waters Acquity BEH C18 1.7um x 2.1 x 150 mm" "retention time=1353.6" "raw data file=C:\Data\2014Nov12_A-17 aerial root MS MSMS\A-17 root MS_1-A,3_01_1226.d" "SMILES=C(C(=O)O[C@H](CO)COP(=O)([O-])OCCN)CCCCCC/C=C\C/C=C\CCCCC" "InChI=InChI=1S/C23H44NO7P/c1-2-3-4-5-6-7-8-9-10-11-12-13-14-15-16-17-23(26)31-22(20-25)21-30-32(27,28)29-19-18-24/h6-7,9-10,22,25H,2-5,8,11-21,24H2,1H3,(H,27,28)/p-1/b7-6-,10-9-/t22-/m1/s1" "InChIKey=SVRBKLJIDJHADS-USWSLJGRSA-M" "molecular formula=C23H43NO7P" "total exact mass=476.27826292590925" "SMILES=C(C(=O)OC(CO)COP(=O)([O-])OCCN)CCCCCCC=CCC=CCCCCC"
Num Peaks: 31
 116 0.600601; 
 128 1.501502; 
 279 6.306306; 
 280 1.301301; 
 295 0.500501; 
 476 100.000000; 
 477 27.227227; 
 478 4.904905; 
 479 0.600601; 
 544 8.308308; 
 545 2.302302; 
 556 2.702703; 
 576 5.905906; 
 577 2.302302; 
 578 1.101101; 
 599 1.201201; 
 606 1.501502; 
 612 1.401401; 
 616 1.001001; 
 627 1.201201; 
 674 0.900901; 
 680 0.900901; 
 953 12.912913; 
 954 6.906907; 
 955 2.202202; 
 975 3.403403; 
 976 1.701702; 
 1043 0.600601; 
 1430 2.202202; 
 1431 1.701702; 
 1452 0.500501; 


Name: 1-Hydroxy-2-(9Z,12Z,15Z-octadecatrienoyl)-sn-glycero-3-phosphoethanolamine
SYNON: $:00in-source
DB#: MetaboBASE1079
InChIKey: JGWWMNVPHKMUCV-WOBXFXBNSA-M
Precursor_type: [M]-
Spectrum_type: MS2
PrecursorMZ: 474.261
Instrument_type: LC-ESI-TOF
Instrument: impact HD
Ion_mode: N
Collision_energy: 36.0522
InChIKey: JGWWMNVPHKMUCV-WOBXFXBNSA-M
Formula: C23H41NO7P
MW: 474
ExactMass: 474.2626128619093
Comments: "license=License CC-BY-NC-SA 4.0 International" "author=Plant Biology, The Noble Foundation, Ardmore, OK, US/Dennis Fine, Daniel Wherritt, and Lloyd Sumner" "instrument type=LC-ESI-TOF" "instrument=impact HD" "ionization=ESI" "ionization mode=negative" "ms level=MS2" "precursor m/z=474.261" "isolation width=7.80695" "collision energy=36.0522" "collision energy 2=60.0869" "peak width=0.027" "date=2014-11-20 07:21:14+01:00" "column=Waters Acquity BEH C18 1.7um x 2.1 x 150 mm" "retention time=1250.4" "raw data file=C:\Data\2014Nov12_A-17 aerial root MS MSMS\A-17 root better MSMS_1-A,3_01_1296.d" "precursor type=[M]-" "mass accuracy=2.2440850077177057" "mass error=-0.0010642819998452069" "SMILES=C(C(=O)O[C@H](CO)COP(=O)([O-])OCCN)CCCCCC/C=C\C/C=C\C/C=C\CC" "InChI=InChI=1S/C23H42NO7P/c1-2-3-4-5-6-7-8-9-10-11-12-13-14-15-16-17-23(26)31-22(20-25)21-30-32(27,28)29-19-18-24/h3-4,6-7,9-10,22,25H,2,5,8,11-21,24H2,1H3,(H,27,28)/p-1/b4-3-,7-6-,10-9-/t22-/m1/s1" "InChIKey=JGWWMNVPHKMUCV-WOBXFXBNSA-M" "molecular formula=C23H41NO7P" "total exact mass=474.2626128619093" "SMILES=C(C(=O)OC(CO)COP(=O)([O-])OCCN)CCCCCCC=CCC=CCC=CCC"
Num Peaks: 1
 277 100.000000; 


Name: 1-Hydroxy-2-(9Z,12Z,15Z-octadecatrienoyl)-sn-glycero-3-phosphoethanolamine
SYNON: $:00in-source
DB#: MetaboBASE1080
InChIKey: JGWWMNVPHKMUCV-WOBXFXBNSA-M
Instrument_type: LC-ESI-TOF
Instrument: impact HD
Ion_mode: N
Collision_energy: 10
InChIKey: JGWWMNVPHKMUCV-WOBXFXBNSA-M
Formula: C23H41NO7P
MW: 474
ExactMass: 474.2626128619093
Comments: "license=License CC-BY-NC-SA 4.0 International" "author=Plant Biology, The Noble Foundation, Ardmore, OK, US/Dennis Fine, Daniel Wherritt, and Lloyd Sumner" "instrument type=LC-ESI-TOF" "instrument=impact HD" "ionization=ESI" "ionization mode=negative" "collision energy=10" "peak width=0.015" "date=2014-11-14 00:11:23+01:00" "column=Waters Acquity BEH C18 1.7um x 2.1 x 150 mm" "retention time=1250.4" "raw data file=C:\Data\2014Nov12_A-17 aerial root MS MSMS\A-17 root MS_1-A,3_01_1226.d" "SMILES=C(C(=O)O[C@H](CO)COP(=O)([O-])OCCN)CCCCCC/C=C\C/C=C\C/C=C\CC" "InChI=InChI=1S/C23H42NO7P/c1-2-3-4-5-6-7-8-9-10-11-12-13-14-15-16-17-23(26)31-22(20-25)21-30-32(27,28)29-19-18-24/h3-4,6-7,9-10,22,25H,2,5,8,11-21,24H2,1H3,(H,27,28)/p-1/b4-3-,7-6-,10-9-/t22-/m1/s1" "InChIKey=JGWWMNVPHKMUCV-WOBXFXBNSA-M" "molecular formula=C23H41NO7P" "total exact mass=474.2626128619093" "SMILES=C(C(=O)OC(CO)COP(=O)([O-])OCCN)CCCCCCC=CCC=CCC=CCC"
Num Peaks: 29
 112 0.300300; 
 116 1.101101; 
 128 2.502503; 
 174 0.100100; 
 277 8.108108; 
 278 1.601602; 
 283 0.600601; 
 293 0.200200; 
 474 100.000000; 
 475 27.527528; 
 476 5.105105; 
 477 0.200200; 
 542 9.709710; 
 543 2.602603; 
 556 4.504505; 
 574 6.806807; 
 575 2.502503; 
 576 1.001001; 
 604 1.701702; 
 610 1.701702; 
 614 1.501502; 
 625 1.301301; 
 672 0.700701; 
 949 8.108108; 
 950 4.204204; 
 951 1.501502; 
 971 2.502503; 
 972 1.101101; 
 1424 0.800801; 


Name: 1-Hydroxy-2-(9Z,12Z,15Z-octadecatrienoyl)-sn-glycero-2-phosphocholine
SYNON: $:00in-source
DB#: MetaboBASE1081
InChIKey: LSUXCWJOIAWGOU-FTJOPAKQSA-N
Precursor_type: [M+FA-H]-
Spectrum_type: MS2
PrecursorMZ: 564.328
Instrument_type: LC-ESI-TOF
Instrument: impact HD
Ion_mode: N
Collision_energy: 39.9123
InChIKey: LSUXCWJOIAWGOU-FTJOPAKQSA-N
Formula: C26H50NO7P
MW: 519
ExactMass: 519.33248957
Comments: "license=License CC-BY-NC-SA 4.0 International" "author=Plant Biology, The Noble Foundation, Ardmore, OK, US/Dennis Fine, Daniel Wherritt, and Lloyd Sumner" "instrument type=LC-ESI-TOF" "instrument=impact HD" "ionization=ESI" "ionization mode=negative" "ms level=MS2" "precursor m/z=564.328" "isolation width=8.25731" "collision energy=39.9123" "collision energy 2=66.5205" "peak width=0.029" "date=2014-11-20 07:21:14+01:00" "column=Waters Acquity BEH C18 1.7um x 2.1 x 150 mm" "retention time=1361.4" "raw data file=C:\Data\2014Nov12_A-17 aerial root MS MSMS\A-17 root better MSMS_1-A,3_01_1296.d" "precursor type=[M+FA-H]-" "mass accuracy=4.767741455371764" "mass error=-0.002690570000027037" "SMILES=C(C(=O)O[C@H](CO)COP(=O)([O-])OCC[N+](C)(C)C)CCCCCC/C=C\C/C=C\CCCCC" "InChI=InChI=1S/C26H50NO7P/c1-5-6-7-8-9-10-11-12-13-14-15-16-17-18-19-20-26(29)34-25(23-28)24-33-35(30,31)32-22-21-27(2,3)4/h9-10,12-13,25,28H,5-8,11,14-24H2,1-4H3/b10-9-,13-12-/t25-/m1/s1" "InChIKey=LSUXCWJOIAWGOU-FTJOPAKQSA-N" "molecular formula=C26H50NO7P" "total exact mass=519.33248957" "SMILES=C(C(=O)OC(CO)COP(=O)([O-])OCC[N+](C)(C)C)CCCCCCC=CCC=CCCCCC"
Num Peaks: 2
 279 100.000000; 
 280 16.616617; 


Name: 1-Hydroxy-2-(9Z,12Z,15Z-octadecatrienoyl)-sn-glycero-2-phosphocholine
SYNON: $:00in-source
DB#: MetaboBASE1082
InChIKey: LSUXCWJOIAWGOU-FTJOPAKQSA-N
Instrument_type: LC-ESI-TOF
Instrument: impact HD
Ion_mode: N
Collision_energy: 10
InChIKey: LSUXCWJOIAWGOU-FTJOPAKQSA-N
Formula: C26H50NO7P
MW: 519
ExactMass: 519.3324895699999
Comments: "license=License CC-BY-NC-SA 4.0 International" "author=Plant Biology, The Noble Foundation, Ardmore, OK, US/Dennis Fine, Daniel Wherritt, and Lloyd Sumner" "instrument type=LC-ESI-TOF" "instrument=impact HD" "ionization=ESI" "ionization mode=negative" "collision energy=10" "peak width=0.015" "date=2014-11-14 00:11:23+01:00" "column=Waters Acquity BEH C18 1.7um x 2.1 x 150 mm" "retention time=1361.4" "raw data file=C:\Data\2014Nov12_A-17 aerial root MS MSMS\A-17 root MS_1-A,3_01_1226.d" "SMILES=C(C(=O)O[C@H](CO)COP(=O)([O-])OCC[N+](C)(C)C)CCCCCC/C=C\C/C=C\CCCCC" "InChI=InChI=1S/C26H50NO7P/c1-5-6-7-8-9-10-11-12-13-14-15-16-17-18-19-20-26(29)34-25(23-28)24-33-35(30,31)32-22-21-27(2,3)4/h9-10,12-13,25,28H,5-8,11,14-24H2,1-4H3/b10-9-,13-12-/t25-/m1/s1" "InChIKey=LSUXCWJOIAWGOU-FTJOPAKQSA-N" "molecular formula=C26H50NO7P" "total exact mass=519.3324895699999" "SMILES=C(C(=O)OC(CO)COP(=O)([O-])OCC[N+](C)(C)C)CCCCCCC=CCC=CCCCCC"
Num Peaks: 46
 112 1.601602; 
 116 0.800801; 
 128 1.901902; 
 174 0.900901; 
 195 0.100100; 
 242 0.400400; 
 248 0.300300; 
 255 0.500501; 
 277 0.100100; 
 438 0.200200; 
 476 0.900901; 
 504 29.529530; 
 505 8.708709; 
 506 1.601602; 
 513 0.100100; 
 554 1.301301; 
 556 3.103103; 
 559 0.500501; 
 564 100.000000; 
 565 32.532533; 
 566 6.906907; 
 567 1.001001; 
 608 0.800801; 
 632 3.403403; 
 633 1.201201; 
 636 6.006006; 
 637 2.502503; 
 638 0.400400; 
 647 4.004004; 
 648 1.401401; 
 700 1.101101; 
 704 0.300300; 
 706 1.501502; 
 707 0.100100; 
 715 0.100100; 
 1083 16.416416; 
 1084 10.010010; 
 1085 3.603604; 
 1086 0.900901; 
 1151 2.802803; 
 1152 1.701702; 
 1155 1.701702; 
 1156 1.001001; 
 1166 1.101101; 
 1167 0.300300; 
 1219 0.800801; 


Name: 1-(9Z,12Z-Octadecadienoyl-2-hydroxy-sn-glycero-3-phosphocholine
SYNON: $:00in-source
DB#: MetaboBASE1083
InChIKey: SPJFYYJXNPEZDW-FTJOPAKQSA-N
Instrument_type: LC-ESI-TOF
Instrument: impact HD
Ion_mode: N
Collision_energy: 10
InChIKey: SPJFYYJXNPEZDW-FTJOPAKQSA-N
Formula: C26H50NO7P
MW: 519
ExactMass: 519.33248957
Comments: "synonym=(2R)-2-Hydroxy-2-[(9Z,12Z)-octadecadienoyloxy]propyl 2-(trimethylammonio)ethyl phosphate" "license=License CC-BY-NC-SA 4.0 International" "author=Plant Biology, The Noble Foundation, Ardmore, OK, US/Dennis Fine, Daniel Wherritt, and Lloyd Sumner" "instrument type=LC-ESI-TOF" "instrument=impact HD" "ionization=ESI" "ionization mode=negative" "collision energy=10" "peak width=0.016" "date=2014-11-14 00:11:23+01:00" "column=Waters Acquity BEH C18 1.7um x 2.1 x 150 mm" "retention time=1397.4" "raw data file=C:\Data\2014Nov12_A-17 aerial root MS MSMS\A-17 root MS_1-A,3_01_1226.d" "SMILES=C([C@H](COP(=O)([O-])OCC[N+](C)(C)C)O)OC(=O)CCCCCCC/C=C\C/C=C\CCCCC" "InChI=InChI=1S/C26H50NO7P/c1-5-6-7-8-9-10-11-12-13-14-15-16-17-18-19-20-26(29)32-23-25(28)24-34-35(30,31)33-22-21-27(2,3)4/h9-10,12-13,25,28H,5-8,11,14-24H2,1-4H3/b10-9-,13-12-/t25-/m1/s1" "InChIKey=SPJFYYJXNPEZDW-FTJOPAKQSA-N" "molecular formula=C26H50NO7P" "total exact mass=519.33248957" "SMILES=C(C(COP(=O)([O-])OCC[N+](C)(C)C)O)OC(CCCCCCCC=CCC=CCCCCC)=O"
Num Peaks: 27
 112 2.502503; 
 116 2.102102; 
 128 5.905906; 
 174 2.102102; 
 195 0.200200; 
 242 0.600601; 
 248 0.500501; 
 255 0.900901; 
 279 0.500501; 
 476 0.300300; 
 504 33.733734; 
 505 10.110110; 
 506 1.401401; 
 554 1.101101; 
 564 100.000000; 
 565 32.732733; 
 566 7.007007; 
 632 4.104104; 
 633 0.600601; 
 636 6.806807; 
 637 3.003003; 
 647 5.405405; 
 648 0.800801; 
 700 0.400400; 
 1083 7.307307; 
 1084 4.504505; 
 1151 0.400400; 


Name: 1-(9Z,12Z-Octadecadienoyl-2-hydroxy-sn-glycero-3-phosphocholine
SYNON: $:00in-source
DB#: MetaboBASE1084
InChIKey: SPJFYYJXNPEZDW-FTJOPAKQSA-N
Precursor_type: [M+FA-H]-
Spectrum_type: MS2
PrecursorMZ: 564.329
Instrument_type: LC-ESI-TOF
Instrument: impact HD
Ion_mode: N
Collision_energy: 39.9124
InChIKey: SPJFYYJXNPEZDW-FTJOPAKQSA-N
Formula: C26H50NO7P
MW: 519
ExactMass: 519.33248957
Comments: "synonym=(2R)-2-Hydroxy-2-[(9Z,12Z)-octadecadienoyloxy]propyl 2-(trimethylammonio)ethyl phosphate" "license=License CC-BY-NC-SA 4.0 International" "author=Plant Biology, The Noble Foundation, Ardmore, OK, US/Dennis Fine, Daniel Wherritt, and Lloyd Sumner" "instrument type=LC-ESI-TOF" "instrument=impact HD" "ionization=ESI" "ionization mode=negative" "ms level=MS2" "precursor m/z=564.329" "isolation width=8.25732" "collision energy=39.9124" "collision energy 2=66.5206" "peak width=0.029" "date=2014-11-20 07:21:14+01:00" "column=Waters Acquity BEH C18 1.7um x 2.1 x 150 mm" "retention time=1397.4" "raw data file=C:\Data\2014Nov12_A-17 aerial root MS MSMS\A-17 root better MSMS_1-A,3_01_1296.d" "precursor type=[M+FA-H]-" "mass accuracy=2.995717037491754" "mass error=-0.001690570000050684" "SMILES=C([C@H](COP(=O)([O-])OCC[N+](C)(C)C)O)OC(=O)CCCCCCC/C=C\C/C=C\CCCCC" "InChI=InChI=1S/C26H50NO7P/c1-5-6-7-8-9-10-11-12-13-14-15-16-17-18-19-20-26(29)32-23-25(28)24-34-35(30,31)33-22-21-27(2,3)4/h9-10,12-13,25,28H,5-8,11,14-24H2,1-4H3/b10-9-,13-12-/t25-/m1/s1" "InChIKey=SPJFYYJXNPEZDW-FTJOPAKQSA-N" "molecular formula=C26H50NO7P" "total exact mass=519.33248957" "SMILES=C(C(COP(=O)([O-])OCC[N+](C)(C)C)O)OC(CCCCCCCC=CCC=CCCCCC)=O"
Num Peaks: 5
 224 12.412412; 
 242 2.502503; 
 279 100.000000; 
 280 17.117117; 
 504 3.503504; 


Name: 1-(9Z,12Z-Octadecadienoyl)-2-hydroxy-sn-glycero-3-phosphoethanolamine
SYNON: $:00in-source
DB#: MetaboBASE1085
InChIKey: DBHKHNGBVGWQJE-USWSLJGRSA-M
Precursor_type: [M]-
Spectrum_type: MS2
PrecursorMZ: 476.277
Instrument_type: LC-ESI-TOF
Instrument: impact HD
Ion_mode: N
Collision_energy: 36.1656
InChIKey: DBHKHNGBVGWQJE-USWSLJGRSA-M
Formula: C23H43NO7P
MW: 476
ExactMass: 476.2782629259093
Comments: "license=License CC-BY-NC-SA 4.0 International" "author=Plant Biology, The Noble Foundation, Ardmore, OK, US/Dennis Fine, Daniel Wherritt, and Lloyd Sumner" "instrument type=LC-ESI-TOF" "instrument=impact HD" "ionization=ESI" "ionization mode=negative" "ms level=MS2" "precursor m/z=476.277" "isolation width=7.82208" "collision energy=36.1656" "collision energy 2=60.276" "peak width=0.029" "date=2014-11-20 07:21:14+01:00" "column=Waters Acquity BEH C18 1.7um x 2.1 x 150 mm" "retention time=1389.6" "raw data file=C:\Data\2014Nov12_A-17 aerial root MS MSMS\A-17 root better MSMS_1-A,3_01_1296.d" "precursor type=[M]-" "mass accuracy=1.4998540762655264" "mass error=-7.14345999881516E-4" "SMILES=C([C@H](COP(=O)([O-])OCCN)O)OC(=O)CCCCCCC/C=C\C/C=C\CCCCC" "InChI=InChI=1S/C23H44NO7P/c1-2-3-4-5-6-7-8-9-10-11-12-13-14-15-16-17-23(26)29-20-22(25)21-31-32(27,28)30-19-18-24/h6-7,9-10,22,25H,2-5,8,11-21,24H2,1H3,(H,27,28)/p-1/b7-6-,10-9-/t22-/m1/s1" "InChIKey=DBHKHNGBVGWQJE-USWSLJGRSA-M" "molecular formula=C23H43NO7P" "total exact mass=476.2782629259093" "SMILES=C(C(COP(=O)([O-])OCCN)O)OC(CCCCCCCC=CCC=CCCCCC)=O"
Num Peaks: 3
 196 6.506507; 
 279 100.000000; 
 280 20.620621; 


Name: 1-(9Z,12Z-Octadecadienoyl)-2-hydroxy-sn-glycero-3-phosphoethanolamine
SYNON: $:00in-source
DB#: MetaboBASE1086
InChIKey: DBHKHNGBVGWQJE-USWSLJGRSA-M
Instrument_type: LC-ESI-TOF
Instrument: impact HD
Ion_mode: N
Collision_energy: 10
InChIKey: DBHKHNGBVGWQJE-USWSLJGRSA-M
Formula: C23H43NO7P
MW: 476
ExactMass: 476.2782629259093
Comments: "license=License CC-BY-NC-SA 4.0 International" "author=Plant Biology, The Noble Foundation, Ardmore, OK, US/Dennis Fine, Daniel Wherritt, and Lloyd Sumner" "instrument type=LC-ESI-TOF" "instrument=impact HD" "ionization=ESI" "ionization mode=negative" "collision energy=10" "peak width=0.015" "date=2014-11-14 00:11:23+01:00" "column=Waters Acquity BEH C18 1.7um x 2.1 x 150 mm" "retention time=1389.6" "raw data file=C:\Data\2014Nov12_A-17 aerial root MS MSMS\A-17 root MS_1-A,3_01_1226.d" "SMILES=C([C@H](COP(=O)([O-])OCCN)O)OC(=O)CCCCCCC/C=C\C/C=C\CCCCC" "InChI=InChI=1S/C23H44NO7P/c1-2-3-4-5-6-7-8-9-10-11-12-13-14-15-16-17-23(26)29-20-22(25)21-31-32(27,28)30-19-18-24/h6-7,9-10,22,25H,2-5,8,11-21,24H2,1H3,(H,27,28)/p-1/b7-6-,10-9-/t22-/m1/s1" "InChIKey=DBHKHNGBVGWQJE-USWSLJGRSA-M" "molecular formula=C23H43NO7P" "total exact mass=476.2782629259093" "SMILES=C(C(COP(=O)([O-])OCCN)O)OC(CCCCCCCC=CCC=CCCCCC)=O"
Num Peaks: 34
 112 0.100100; 
 116 1.501502; 
 128 3.903904; 
 174 0.100100; 
 255 0.100100; 
 279 1.901902; 
 304 0.100100; 
 464 1.801802; 
 473 0.300300; 
 476 100.000000; 
 477 26.326326; 
 478 4.904905; 
 479 0.200200; 
 544 10.010010; 
 545 2.802803; 
 547 1.401401; 
 548 0.400400; 
 556 5.505506; 
 559 0.200200; 
 560 0.100100; 
 576 5.905906; 
 577 2.302302; 
 578 0.400400; 
 606 0.800801; 
 612 2.002002; 
 616 0.700701; 
 627 1.701702; 
 628 0.600601; 
 680 0.200200; 
 953 5.905906; 
 954 3.403403; 
 955 0.500501; 
 975 1.401401; 
 976 0.400400; 


Name: 1-Hydroxy-2-(9Z,12Z,15Z-octadecatrienoyl)-sn-glycero-3-phosphocholine
SYNON: $:00in-source
DB#: MetaboBASE1087
InChIKey: WVUARHUSWJUGTE-YVHLTTHBSA-N
Precursor_type: [M+FA-H]-
Spectrum_type: MS2
PrecursorMZ: 562.313
Instrument_type: LC-ESI-TOF
Instrument: impact HD
Ion_mode: N
Collision_energy: 39.8367
InChIKey: WVUARHUSWJUGTE-YVHLTTHBSA-N
Formula: C26H48NO7P
MW: 517
ExactMass: 517.316839506
Comments: "license=License CC-BY-NC-SA 4.0 International" "author=Plant Biology, The Noble Foundation, Ardmore, OK, US/Dennis Fine, Daniel Wherritt, and Lloyd Sumner" "instrument type=LC-ESI-TOF" "instrument=impact HD" "ionization=ESI" "ionization mode=negative" "ms level=MS2" "precursor m/z=562.313" "isolation width=8.24925" "collision energy=39.8367" "collision energy 2=66.3945" "peak width=0.028" "date=2014-11-20 07:21:14+01:00" "column=Waters Acquity BEH C18 1.7um x 2.1 x 150 mm" "retention time=1257.6" "raw data file=C:\Data\2014Nov12_A-17 aerial root MS MSMS\A-17 root better MSMS_1-A,3_01_1296.d" "precursor type=[M+FA-H]-" "mass accuracy=3.6287725874335672" "mass error=-0.0020405059999575315" "SMILES=C(C(=O)O[C@H](CO)COP(=O)([O-])OCC[N+](C)(C)C)CCCCCC/C=C\C/C=C\C/C=C\CC" "InChI=InChI=1S/C26H48NO7P/c1-5-6-7-8-9-10-11-12-13-14-15-16-17-18-19-20-26(29)34-25(23-28)24-33-35(30,31)32-22-21-27(2,3)4/h6-7,9-10,12-13,25,28H,5,8,11,14-24H2,1-4H3/b7-6-,10-9-,13-12-/t25-/m1/s1" "InChIKey=WVUARHUSWJUGTE-YVHLTTHBSA-N" "molecular formula=C26H48NO7P" "total exact mass=517.316839506" "SMILES=C(C(=O)OC(CO)COP(=O)([O-])OCC[N+](C)(C)C)CCCCCCC=CCC=CCC=CCC"
Num Peaks: 2
 277 100.000000; 
 278 22.022022; 


Name: 1-Hydroxy-2-(9Z,12Z,15Z-octadecatrienoyl)-sn-glycero-3-phosphocholine
SYNON: $:00in-source
DB#: MetaboBASE1088
InChIKey: WVUARHUSWJUGTE-YVHLTTHBSA-N
Instrument_type: LC-ESI-TOF
Instrument: impact HD
Ion_mode: N
Collision_energy: 10
InChIKey: WVUARHUSWJUGTE-YVHLTTHBSA-N
Formula: C26H48NO7P
MW: 517
ExactMass: 517.316839506
Comments: "license=License CC-BY-NC-SA 4.0 International" "author=Plant Biology, The Noble Foundation, Ardmore, OK, US/Dennis Fine, Daniel Wherritt, and Lloyd Sumner" "instrument type=LC-ESI-TOF" "instrument=impact HD" "ionization=ESI" "ionization mode=negative" "collision energy=10" "peak width=0.015" "date=2014-11-14 00:11:23+01:00" "column=Waters Acquity BEH C18 1.7um x 2.1 x 150 mm" "retention time=1257.6" "raw data file=C:\Data\2014Nov12_A-17 aerial root MS MSMS\A-17 root MS_1-A,3_01_1226.d" "SMILES=C(C(=O)O[C@H](CO)COP(=O)([O-])OCC[N+](C)(C)C)CCCCCC/C=C\C/C=C\C/C=C\CC" "InChI=InChI=1S/C26H48NO7P/c1-5-6-7-8-9-10-11-12-13-14-15-16-17-18-19-20-26(29)34-25(23-28)24-33-35(30,31)32-22-21-27(2,3)4/h6-7,9-10,12-13,25,28H,5,8,11,14-24H2,1-4H3/b7-6-,10-9-,13-12-/t25-/m1/s1" "InChIKey=WVUARHUSWJUGTE-YVHLTTHBSA-N" "molecular formula=C26H48NO7P" "total exact mass=517.316839506" "SMILES=C(C(=O)OC(CO)COP(=O)([O-])OCC[N+](C)(C)C)CCCCCCC=CCC=CCC=CCC"
Num Peaks: 41
 112 1.701702; 
 116 1.101101; 
 128 2.602603; 
 174 1.201201; 
 180 0.100100; 
 195 0.300300; 
 242 0.300300; 
 248 0.100100; 
 255 0.500501; 
 474 0.100100; 
 502 34.334334; 
 503 9.709710; 
 504 1.801802; 
 552 1.301301; 
 556 4.304304; 
 557 0.200200; 
 562 100.000000; 
 563 31.731732; 
 564 6.706707; 
 565 1.201201; 
 606 0.100100; 
 630 3.703704; 
 631 0.500501; 
 634 6.806807; 
 635 2.702703; 
 636 0.600601; 
 645 3.903904; 
 646 0.800801; 
 666 0.100100; 
 698 1.401401; 
 702 0.500501; 
 704 1.801802; 
 705 0.200200; 
 766 0.200200; 
 1079 12.312312; 
 1080 7.207207; 
 1081 2.702703; 
 1147 2.502503; 
 1148 1.601602; 
 1151 1.401401; 
 1152 0.400400; 


Name: 1-(9Z,12Z,15Z-Octadecatrienoyl)-2-hydroxy-sn-glycero-3-phosphocholine
SYNON: $:00in-source
DB#: MetaboBASE1089
InChIKey: WKQNRCYKYCKESD-YVHLTTHBSA-N
Instrument_type: LC-ESI-TOF
Instrument: impact HD
Ion_mode: N
Collision_energy: 10
InChIKey: WKQNRCYKYCKESD-YVHLTTHBSA-N
Formula: C26H48NO7P
MW: 517
ExactMass: 517.316839506
Comments: "license=License CC-BY-NC-SA 4.0 International" "author=Plant Biology, The Noble Foundation, Ardmore, OK, US/Dennis Fine, Daniel Wherritt, and Lloyd Sumner" "instrument type=LC-ESI-TOF" "instrument=impact HD" "ionization=ESI" "ionization mode=negative" "collision energy=10" "peak width=0.017" "date=2014-11-14 00:11:23+01:00" "column=Waters Acquity BEH C18 1.7um x 2.1 x 150 mm" "retention time=1293.6" "raw data file=C:\Data\2014Nov12_A-17 aerial root MS MSMS\A-17 root MS_1-A,3_01_1226.d" "SMILES=C([C@H](COP(=O)([O-])OCC[N+](C)(C)C)O)OC(=O)CCCCCCC/C=C\C/C=C\C/C=C\CC" "InChI=InChI=1S/C26H48NO7P/c1-5-6-7-8-9-10-11-12-13-14-15-16-17-18-19-20-26(29)32-23-25(28)24-34-35(30,31)33-22-21-27(2,3)4/h6-7,9-10,12-13,25,28H,5,8,11,14-24H2,1-4H3/b7-6-,10-9-,13-12-/t25-/m1/s1" "InChIKey=WKQNRCYKYCKESD-YVHLTTHBSA-N" "molecular formula=C26H48NO7P" "total exact mass=517.316839506" "SMILES=C(C(COP(=O)([O-])OCC[N+](C)(C)C)O)OC(CCCCCCCC=CCC=CCC=CCC)=O"
Num Peaks: 22
 112 3.103103; 
 116 3.103103; 
 128 7.107107; 
 174 2.702703; 
 242 0.400400; 
 255 1.101101; 
 304 0.500501; 
 371 0.600601; 
 502 39.639640; 
 503 10.910911; 
 504 0.600601; 
 556 11.011011; 
 557 0.400400; 
 562 100.000000; 
 563 31.531532; 
 564 6.506507; 
 630 3.503504; 
 634 6.806807; 
 635 3.303303; 
 645 4.404404; 
 1079 5.105105; 
 1080 3.303303; 


Name: 1-(9Z,12Z,15Z-Octadecatrienoyl)-2-hydroxy-sn-glycero-3-phosphocholine
SYNON: $:00in-source
DB#: MetaboBASE1090
InChIKey: WKQNRCYKYCKESD-YVHLTTHBSA-N
Precursor_type: [M+FA-H]-
Spectrum_type: MS2
PrecursorMZ: 562.313
Instrument_type: LC-ESI-TOF
Instrument: impact HD
Ion_mode: N
Collision_energy: 39.8368
InChIKey: WKQNRCYKYCKESD-YVHLTTHBSA-N
Formula: C26H48NO7P
MW: 517
ExactMass: 517.316839506
Comments: "license=License CC-BY-NC-SA 4.0 International" "author=Plant Biology, The Noble Foundation, Ardmore, OK, US/Dennis Fine, Daniel Wherritt, and Lloyd Sumner" "instrument type=LC-ESI-TOF" "instrument=impact HD" "ionization=ESI" "ionization mode=negative" "ms level=MS2" "precursor m/z=562.313" "isolation width=8.24925" "collision energy=39.8368" "collision energy 2=66.3946" "peak width=0.029" "date=2014-11-20 07:21:14+01:00" "column=Waters Acquity BEH C18 1.7um x 2.1 x 150 mm" "retention time=1293.6" "raw data file=C:\Data\2014Nov12_A-17 aerial root MS MSMS\A-17 root better MSMS_1-A,3_01_1296.d" "precursor type=[M+FA-H]-" "mass accuracy=3.6287725874335672" "mass error=-0.0020405059999575315" "SMILES=C([C@H](COP(=O)([O-])OCC[N+](C)(C)C)O)OC(=O)CCCCCCC/C=C\C/C=C\C/C=C\CC" "InChI=InChI=1S/C26H48NO7P/c1-5-6-7-8-9-10-11-12-13-14-15-16-17-18-19-20-26(29)32-23-25(28)24-34-35(30,31)33-22-21-27(2,3)4/h6-7,9-10,12-13,25,28H,5,8,11,14-24H2,1-4H3/b7-6-,10-9-,13-12-/t25-/m1/s1" "InChIKey=WKQNRCYKYCKESD-YVHLTTHBSA-N" "molecular formula=C26H48NO7P" "total exact mass=517.316839506" "SMILES=C(C(COP(=O)([O-])OCC[N+](C)(C)C)O)OC(CCCCCCCC=CCC=CCC=CCC)=O"
Num Peaks: 3
 224 9.609610; 
 277 100.000000; 
 278 22.522523; 


Name: 9Z,12Z-Linoleic acid
SYNON: $:00in-source
DB#: MetaboBASE1091
InChIKey: OYHQOLUKZRVURQ-HZJYTTRNSA-N
Instrument_type: LC-ESI-TOF
Instrument: impact HD
Ion_mode: N
Collision_energy: 10
InChIKey: OYHQOLUKZRVURQ-HZJYTTRNSA-N
Formula: C18H32O2
MW: 280
ExactMass: 280.240230264
Comments: "license=License CC-BY-NC-SA 4.0 International" "author=Plant Biology, The Noble Foundation, Ardmore, OK, US/Dennis Fine, Daniel Wherritt, and Lloyd Sumner" "instrument type=LC-ESI-TOF" "instrument=impact HD" "ionization=ESI" "ionization mode=negative" "collision energy=10" "peak width=0.013" "date=2014-11-25 22:28:26+01:00" "column=Waters Acquity BEH C18 1.7um x 2.1 x 150 mm" "retention time=1791.6" "raw data file=C:\Data\Confirmed standards 25_Nov_2014\9Z,12Z-Linoleic acid vial 399_1-A,2_01_1327.d" "SMILES=OC(=O)CCCCCCC/C=C\C/C=C\CCCCC" "InChI=InChI=1S/C18H32O2/c1-2-3-4-5-6-7-8-9-10-11-12-13-14-15-16-17-18(19)20/h6-7,9-10H,2-5,8,11-17H2,1H3,(H,19,20)/b7-6-,10-9-" "InChIKey=OYHQOLUKZRVURQ-HZJYTTRNSA-N" "molecular formula=C18H32O2" "total exact mass=280.240230264" "SMILES=OC(CCCCCCCC=CCC=CCCCCC)=O"
Num Peaks: 14
 279 100.000000; 
 280 22.222222; 
 281 2.602603; 
 347 2.702703; 
 379 5.405405; 
 380 1.801802; 
 430 1.001001; 
 556 6.606607; 
 557 0.800801; 
 581 9.509510; 
 582 3.803804; 
 583 0.900901; 
 643 0.700701; 
 649 0.900901; 


Name: 9Z,12Z-Linoleic acid
SYNON: $:00in-source
DB#: MetaboBASE1092
InChIKey: OYHQOLUKZRVURQ-HZJYTTRNSA-N
Instrument_type: LC-ESI-TOF
Instrument: impact HD
Ion_mode: N
InChIKey: OYHQOLUKZRVURQ-HZJYTTRNSA-N
Formula: C18H32O2
MW: 280
ExactMass: 280.240230264
Comments: "license=License CC-BY-NC-SA 4.0 International" "author=Plant Biology, The Noble Foundation, Ardmore, OK, US/Dennis Fine, Daniel Wherritt, and Lloyd Sumner" "instrument type=LC-ESI-TOF" "instrument=impact HD" "ionization=ESI" "ionization mode=negative" "peak width=0.017" "date=2014-11-25 23:09:26+01:00" "column=Waters Acquity BEH C18 1.7um x 2.1 x 150 mm" "retention time=1791.6" "raw data file=C:\Data\Confirmed standards 25_Nov_2014\9Z,12Z-Linoleic acid v399 MSMS_1-A,2_01_1328.d" "SMILES=OC(=O)CCCCCCC/C=C\C/C=C\CCCCC" "InChI=InChI=1S/C18H32O2/c1-2-3-4-5-6-7-8-9-10-11-12-13-14-15-16-17-18(19)20/h6-7,9-10H,2-5,8,11-17H2,1H3,(H,19,20)/b7-6-,10-9-" "InChIKey=OYHQOLUKZRVURQ-HZJYTTRNSA-N" "molecular formula=C18H32O2" "total exact mass=280.240230264" "SMILES=OC(CCCCCCCC=CCC=CCCCCC)=O"
Num Peaks: 33
 116 1.801802; 
 128 3.603604; 
 248 1.301301; 
 279 3.903904; 
 279 100.000000; 
 280 17.417417; 
 281 2.002002; 
 285 1.901902; 
 347 6.706707; 
 347 1.501502; 
 348 1.501502; 
 353 1.301301; 
 379 4.704705; 
 380 1.601602; 
 409 1.701702; 
 415 1.601602; 
 430 1.401401; 
 430 2.102102; 
 556 29.729730; 
 557 3.803804; 
 581 5.505506; 
 582 2.502503; 
 643 1.301301; 
 649 1.901902; 
 655 1.501502; 
 666 11.411411; 
 667 1.901902; 
 683 1.401401; 
 732 1.201201; 
 737 1.301301; 
 749 1.101101; 
 877 1.201201; 
 883 1.401401; 


Name: 9Z,12Z-Linoleic acid
SYNON: $:00in-source
DB#: MetaboBASE1093
InChIKey: OYHQOLUKZRVURQ-HZJYTTRNSA-N
Precursor_type: [M-H]-
Spectrum_type: MS2
PrecursorMZ: 279.233
Instrument_type: LC-ESI-TOF
Instrument: impact HD
Ion_mode: N
Collision_energy: 10
InChIKey: OYHQOLUKZRVURQ-HZJYTTRNSA-N
Formula: C18H32O2
MW: 280
ExactMass: 280.240230264
Comments: "license=License CC-BY-NC-SA 4.0 International" "author=Plant Biology, The Noble Foundation, Ardmore, OK, US/Dennis Fine, Daniel Wherritt, and Lloyd Sumner" "instrument type=LC-ESI-TOF" "instrument=impact HD" "ionization=ESI" "ionization mode=negative" "ms level=MS2" "precursor m/z=279.233" "isolation width=5" "collision energy=10" "peak width=0.016" "date=2014-11-25 23:09:26+01:00" "column=Waters Acquity BEH C18 1.7um x 2.1 x 150 mm" "retention time=1791.6" "raw data file=C:\Data\Confirmed standards 25_Nov_2014\9Z,12Z-Linoleic acid v399 MSMS_1-A,2_01_1328.d" "precursor type=[M-H]-" "mass accuracy=0.16379152895297566" "mass error=4.5736000004126254E-5" "SMILES=OC(=O)CCCCCCC/C=C\C/C=C\CCCCC" "InChI=InChI=1S/C18H32O2/c1-2-3-4-5-6-7-8-9-10-11-12-13-14-15-16-17-18(19)20/h6-7,9-10H,2-5,8,11-17H2,1H3,(H,19,20)/b7-6-,10-9-" "InChIKey=OYHQOLUKZRVURQ-HZJYTTRNSA-N" "molecular formula=C18H32O2" "total exact mass=280.240230264" "SMILES=OC(CCCCCCCC=CCC=CCCCCC)=O"
Num Peaks: 3
 279 100.000000; 
 280 15.315315; 
 281 0.800801; 


Name: 9Z,12Z-Linoleic acid
SYNON: $:00in-source
DB#: MetaboBASE1094
InChIKey: OYHQOLUKZRVURQ-HZJYTTRNSA-N
Precursor_type: [M-H]-
Spectrum_type: MS2
PrecursorMZ: 279.2328
Instrument_type: LC-ESI-TOF
Instrument: impact HD
Ion_mode: N
Collision_energy: 20
InChIKey: OYHQOLUKZRVURQ-HZJYTTRNSA-N
Formula: C18H32O2
MW: 280
ExactMass: 280.240230264
Comments: "license=License CC-BY-NC-SA 4.0 International" "author=Plant Biology, The Noble Foundation, Ardmore, OK, US/Dennis Fine, Daniel Wherritt, and Lloyd Sumner" "instrument type=LC-ESI-TOF" "instrument=impact HD" "ionization=ESI" "ionization mode=negative" "ms level=MS2" "precursor m/z=279.2328" "isolation width=5" "collision energy=20" "peak width=0.016" "date=2014-11-25 23:09:26+01:00" "column=Waters Acquity BEH C18 1.7um x 2.1 x 150 mm" "retention time=1791.6" "raw data file=C:\Data\Confirmed standards 25_Nov_2014\9Z,12Z-Linoleic acid v399 MSMS_1-A,2_01_1328.d" "precursor type=[M-H]-" "mass accuracy=0.55245658820351" "mass error=-1.5426400000251306E-4" "SMILES=OC(=O)CCCCCCC/C=C\C/C=C\CCCCC" "InChI=InChI=1S/C18H32O2/c1-2-3-4-5-6-7-8-9-10-11-12-13-14-15-16-17-18(19)20/h6-7,9-10H,2-5,8,11-17H2,1H3,(H,19,20)/b7-6-,10-9-" "InChIKey=OYHQOLUKZRVURQ-HZJYTTRNSA-N" "molecular formula=C18H32O2" "total exact mass=280.240230264" "SMILES=OC(CCCCCCCC=CCC=CCCCCC)=O"
Num Peaks: 9
 128 0.200200; 
 261 0.600601; 
 279 100.000000; 
 279 0.300300; 
 280 16.216216; 
 281 0.900901; 
 1121 0.100100; 
 1211 0.200200; 
 1323 0.100100; 


Name: 9Z,12Z-Linoleic acid
SYNON: $:00in-source
DB#: MetaboBASE1095
InChIKey: OYHQOLUKZRVURQ-HZJYTTRNSA-N
Precursor_type: [M-H]-
Spectrum_type: MS2
PrecursorMZ: 279.23
Instrument_type: LC-ESI-TOF
Instrument: impact HD
Ion_mode: N
Collision_energy: 30
InChIKey: OYHQOLUKZRVURQ-HZJYTTRNSA-N
Formula: C18H32O2
MW: 280
ExactMass: 280.240230264
Comments: "license=License CC-BY-NC-SA 4.0 International" "author=Plant Biology, The Noble Foundation, Ardmore, OK, US/Dennis Fine, Daniel Wherritt, and Lloyd Sumner" "instrument type=LC-ESI-TOF" "instrument=impact HD" "ionization=ESI" "ionization mode=negative" "ms level=MS2" "precursor m/z=279.23" "isolation width=5" "collision energy=30" "peak width=0.017" "date=2014-11-25 23:09:26+01:00" "column=Waters Acquity BEH C18 1.7um x 2.1 x 150 mm" "retention time=1791.6" "raw data file=C:\Data\Confirmed standards 25_Nov_2014\9Z,12Z-Linoleic acid v399 MSMS_1-A,2_01_1328.d" "precursor type=[M-H]-" "mass accuracy=10.58003796147182" "mass error=-0.0029542639999817766" "SMILES=OC(=O)CCCCCCC/C=C\C/C=C\CCCCC" "InChI=InChI=1S/C18H32O2/c1-2-3-4-5-6-7-8-9-10-11-12-13-14-15-16-17-18(19)20/h6-7,9-10H,2-5,8,11-17H2,1H3,(H,19,20)/b7-6-,10-9-" "InChIKey=OYHQOLUKZRVURQ-HZJYTTRNSA-N" "molecular formula=C18H32O2" "total exact mass=280.240230264" "SMILES=OC(CCCCCCCC=CCC=CCCCCC)=O"
Num Peaks: 2
 279 100.000000; 
 280 14.414414; 


Name: a-Linolenic acid
SYNON: $:00in-source
DB#: MetaboBASE1096
InChIKey: DTOSIQBPPRVQHS-PDBXOOCHSA-N
Precursor_type: [M-H]-
Spectrum_type: MS2
PrecursorMZ: 277.2183
Instrument_type: LC-ESI-TOF
Instrument: impact HD
Ion_mode: N
Collision_energy: 10
InChIKey: DTOSIQBPPRVQHS-PDBXOOCHSA-N
Formula: C18H30O2
MW: 278
ExactMass: 278.2245802
Comments: "license=License CC-BY-NC-SA 4.0 International" "author=Plant Biology, The Noble Foundation, Ardmore, OK, US/Dennis Fine, Daniel Wherritt, and Lloyd Sumner" "instrument type=LC-ESI-TOF" "instrument=impact HD" "ionization=ESI" "ionization mode=negative" "ms level=MS2" "precursor m/z=277.2183" "isolation width=5" "collision energy=10" "peak width=0.011" "date=2014-10-08 11:39:15+02:00" "column=Waters Acquity BEH C18 1.7um x 2.1 x 150 mm" "retention time=1672.2" "raw data file=C:\Data\Confirmed standards 6_Oct_2014\a-Linoleic acid vial 388 MSMS_1-C,2_01_967.d" "precursor type=[M-H]-" "mass accuracy=3.592114950558191" "mass error=9.957999999983258E-4" "SMILES=OC(=O)CCCCCCC/C=C\C/C=C\C/C=C\CC" "InChI=InChI=1S/C18H30O2/c1-2-3-4-5-6-7-8-9-10-11-12-13-14-15-16-17-18(19)20/h3-4,6-7,9-10H,2,5,8,11-17H2,1H3,(H,19,20)/b4-3-,7-6-,10-9-" "InChIKey=DTOSIQBPPRVQHS-PDBXOOCHSA-N" "molecular formula=C18H30O2" "total exact mass=278.2245802" "SMILES=OC(CCCCCCCC=CCC=CCC=CCC)=O"
Num Peaks: 2
 277 100.000000; 
 278 14.314314; 


Name: a-Linolenic acid
SYNON: $:00in-source
DB#: MetaboBASE1097
InChIKey: DTOSIQBPPRVQHS-PDBXOOCHSA-N
Instrument_type: LC-ESI-TOF
Instrument: impact HD
Ion_mode: N
InChIKey: DTOSIQBPPRVQHS-PDBXOOCHSA-N
Formula: C18H30O2
MW: 278
ExactMass: 278.2245802
Comments: "license=License CC-BY-NC-SA 4.0 International" "author=Plant Biology, The Noble Foundation, Ardmore, OK, US/Dennis Fine, Daniel Wherritt, and Lloyd Sumner" "instrument type=LC-ESI-TOF" "instrument=impact HD" "ionization=ESI" "ionization mode=negative" "peak width=0.017" "date=2014-10-08 11:39:15+02:00" "column=Waters Acquity BEH C18 1.7um x 2.1 x 150 mm" "retention time=1672.2" "raw data file=C:\Data\Confirmed standards 6_Oct_2014\a-Linoleic acid vial 388 MSMS_1-C,2_01_967.d" "SMILES=OC(=O)CCCCCCC/C=C\C/C=C\C/C=C\CC" "InChI=InChI=1S/C18H30O2/c1-2-3-4-5-6-7-8-9-10-11-12-13-14-15-16-17-18(19)20/h3-4,6-7,9-10H,2,5,8,11-17H2,1H3,(H,19,20)/b4-3-,7-6-,10-9-" "InChIKey=DTOSIQBPPRVQHS-PDBXOOCHSA-N" "molecular formula=C18H30O2" "total exact mass=278.2245802" "SMILES=OC(CCCCCCCC=CCC=CCC=CCC)=O"
Num Peaks: 6
 277 100.000000; 
 278 17.517518; 
 285 4.204204; 
 345 6.706707; 
 556 4.604605; 
 577 7.107107; 


Name: a-Linolenic acid
SYNON: $:00in-source
DB#: MetaboBASE1098
InChIKey: DTOSIQBPPRVQHS-PDBXOOCHSA-N
Precursor_type: [M-H]-
Spectrum_type: MS2
PrecursorMZ: 277.218
Instrument_type: LC-ESI-TOF
Instrument: impact HD
Ion_mode: N
Collision_energy: 20
InChIKey: DTOSIQBPPRVQHS-PDBXOOCHSA-N
Formula: C18H30O2
MW: 278
ExactMass: 278.2245802
Comments: "license=License CC-BY-NC-SA 4.0 International" "author=Plant Biology, The Noble Foundation, Ardmore, OK, US/Dennis Fine, Daniel Wherritt, and Lloyd Sumner" "instrument type=LC-ESI-TOF" "instrument=impact HD" "ionization=ESI" "ionization mode=negative" "ms level=MS2" "precursor m/z=277.218" "isolation width=5" "collision energy=20" "peak width=0.013" "date=2014-10-08 11:39:15+02:00" "column=Waters Acquity BEH C18 1.7um x 2.1 x 150 mm" "retention time=1672.2" "raw data file=C:\Data\Confirmed standards 6_Oct_2014\a-Linoleic acid vial 388 MSMS_1-C,2_01_967.d" "precursor type=[M-H]-" "mass accuracy=2.5099380271727973" "mass error=6.958000000167885E-4" "SMILES=OC(=O)CCCCCCC/C=C\C/C=C\C/C=C\CC" "InChI=InChI=1S/C18H30O2/c1-2-3-4-5-6-7-8-9-10-11-12-13-14-15-16-17-18(19)20/h3-4,6-7,9-10H,2,5,8,11-17H2,1H3,(H,19,20)/b4-3-,7-6-,10-9-" "InChIKey=DTOSIQBPPRVQHS-PDBXOOCHSA-N" "molecular formula=C18H30O2" "total exact mass=278.2245802" "SMILES=OC(CCCCCCCC=CCC=CCC=CCC)=O"
Num Peaks: 2
 277 100.000000; 
 278 16.316316; 


Name: a-Linolenic acid
SYNON: $:00in-source
DB#: MetaboBASE1099
InChIKey: DTOSIQBPPRVQHS-PDBXOOCHSA-N
Precursor_type: [M-H]-
Spectrum_type: MS2
PrecursorMZ: 277.2187
Instrument_type: LC-ESI-TOF
Instrument: impact HD
Ion_mode: N
Collision_energy: 30
InChIKey: DTOSIQBPPRVQHS-PDBXOOCHSA-N
Formula: C18H30O2
MW: 278
ExactMass: 278.2245802
Comments: "license=License CC-BY-NC-SA 4.0 International" "author=Plant Biology, The Noble Foundation, Ardmore, OK, US/Dennis Fine, Daniel Wherritt, and Lloyd Sumner" "instrument type=LC-ESI-TOF" "instrument=impact HD" "ionization=ESI" "ionization mode=negative" "ms level=MS2" "precursor m/z=277.2187" "isolation width=5" "collision energy=30" "peak width=0.014" "date=2014-10-08 11:39:15+02:00" "column=Waters Acquity BEH C18 1.7um x 2.1 x 150 mm" "retention time=1672.2" "raw data file=C:\Data\Confirmed standards 6_Oct_2014\a-Linoleic acid vial 388 MSMS_1-C,2_01_967.d" "precursor type=[M-H]-" "mass accuracy=5.035013871761192" "mass error=0.0013958000000116044" "SMILES=OC(=O)CCCCCCC/C=C\C/C=C\C/C=C\CC" "InChI=InChI=1S/C18H30O2/c1-2-3-4-5-6-7-8-9-10-11-12-13-14-15-16-17-18(19)20/h3-4,6-7,9-10H,2,5,8,11-17H2,1H3,(H,19,20)/b4-3-,7-6-,10-9-" "InChIKey=DTOSIQBPPRVQHS-PDBXOOCHSA-N" "molecular formula=C18H30O2" "total exact mass=278.2245802" "SMILES=OC(CCCCCCCC=CCC=CCC=CCC)=O"
Num Peaks: 2
 277 100.000000; 
 278 26.926927; 


Name: a-Linolenic acid
SYNON: $:00in-source
DB#: MetaboBASE1100
InChIKey: DTOSIQBPPRVQHS-PDBXOOCHSA-N
Instrument_type: LC-ESI-TOF
Instrument: impact HD
Ion_mode: N
Collision_energy: 10
InChIKey: DTOSIQBPPRVQHS-PDBXOOCHSA-N
Formula: C18H30O2
MW: 278
ExactMass: 278.2245802
Comments: "license=License CC-BY-NC-SA 4.0 International" "author=Plant Biology, The Noble Foundation, Ardmore, OK, US/Dennis Fine, Daniel Wherritt, and Lloyd Sumner" "instrument type=LC-ESI-TOF" "instrument=impact HD" "ionization=ESI" "ionization mode=negative" "collision energy=10" "peak width=0.013" "date=2014-10-07 00:17:28+02:00" "column=Waters Acquity BEH C18 1.7um x 2.1 x 150 mm" "retention time=1672.2" "raw data file=C:\Data\Confirmed standards 6_Oct_2014\a-Linoleic acid vial 388_1-C,2_01_932.d" "SMILES=OC(=O)CCCCCCC/C=C\C/C=C\C/C=C\CC" "InChI=InChI=1S/C18H30O2/c1-2-3-4-5-6-7-8-9-10-11-12-13-14-15-16-17-18(19)20/h3-4,6-7,9-10H,2,5,8,11-17H2,1H3,(H,19,20)/b4-3-,7-6-,10-9-" "InChIKey=DTOSIQBPPRVQHS-PDBXOOCHSA-N" "molecular formula=C18H30O2" "total exact mass=278.2245802" "SMILES=OC(CCCCCCCC=CCC=CCC=CCC)=O"
Num Peaks: 48
 116 0.200200; 
 128 0.300300; 
 271 0.200200; 
 277 100.000000; 
 278 21.521522; 
 279 2.502503; 
 280 0.100100; 
 311 0.200200; 
 345 1.901902; 
 346 0.400400; 
 375 0.600601; 
 377 10.410410; 
 378 3.203203; 
 379 0.900901; 
 407 0.100100; 
 428 0.500501; 
 556 4.004004; 
 557 0.500501; 
 561 0.100100; 
 577 10.010010; 
 578 4.004004; 
 579 0.900901; 
 645 0.900901; 
 646 0.400400; 
 717 0.100100; 
 728 1.001001; 
 729 0.400400; 
 871 1.001001; 
 872 0.600601; 
 877 3.603604; 
 878 2.102102; 
 879 0.600601; 
 889 0.400400; 
 890 0.200200; 
 945 0.300300; 
 946 0.100100; 
 1028 0.600601; 
 1029 0.300300; 
 1171 0.600601; 
 1172 0.200200; 
 1177 1.301301; 
 1178 1.101101; 
 1179 0.300300; 
 1328 0.100100; 
 1472 0.100100; 
 1473 0.100100; 
 1478 0.500501; 
 1479 0.600601; 


Name: Palmitic acid
SYNON: $:00in-source
DB#: MetaboBASE1101
InChIKey: IPCSVZSSVZVIGE-UHFFFAOYSA-N
Instrument_type: LC-ESI-TOF
Instrument: impact HD
Ion_mode: N
InChIKey: IPCSVZSSVZVIGE-UHFFFAOYSA-N
Formula: C16H32O2
MW: 256
ExactMass: 256.240230264
Comments: "license=License CC-BY-NC-SA 4.0 International" "author=Plant Biology, The Noble Foundation, Ardmore, OK, US/Dennis Fine, Daniel Wherritt, and Lloyd Sumner" "instrument type=LC-ESI-TOF" "instrument=impact HD" "ionization=ESI" "ionization mode=negative" "peak width=0.011" "date=2014-08-22 01:58:09+02:00" "column=Waters Acquity BEH C18 1.7um x 2.1 x 150 mm" "retention time=1881.6" "raw data file=C:\Data\Confirmed standards 21_Aug_2014\Palmitic acid vial 206_1-D,2_01_685.d" "SMILES=OC(=O)CCCCCCCCCCCCCCC" "InChI=InChI=1S/C16H32O2/c1-2-3-4-5-6-7-8-9-10-11-12-13-14-15-16(17)18/h2-15H2,1H3,(H,17,18)" "InChIKey=IPCSVZSSVZVIGE-UHFFFAOYSA-N" "molecular formula=C16H32O2" "total exact mass=256.240230264" "SMILES=OC(CCCCCCCCCCCCCCC)=O"
Num Peaks: 6
 255 100.000000; 
 256 14.714715; 
 257 1.401401; 
 355 5.105105; 
 356 1.401401; 
 533 1.901902; 


Name: Palmitic acid
SYNON: $:00in-source
DB#: MetaboBASE1102
InChIKey: IPCSVZSSVZVIGE-UHFFFAOYSA-N
Precursor_type: [M-H]-
Spectrum_type: MS2
PrecursorMZ: 255.2317
Instrument_type: LC-ESI-TOF
Instrument: impact HD
Ion_mode: N
Collision_energy: 30
InChIKey: IPCSVZSSVZVIGE-UHFFFAOYSA-N
Formula: C16H32O2
MW: 256
ExactMass: 256.240230264
Comments: "license=License CC-BY-NC-SA 4.0 International" "author=Plant Biology, The Noble Foundation, Ardmore, OK, US/Dennis Fine, Daniel Wherritt, and Lloyd Sumner" "instrument type=LC-ESI-TOF" "instrument=impact HD" "ionization=ESI" "ionization mode=negative" "ms level=MS2" "precursor m/z=255.2317" "isolation width=5" "collision energy=30" "peak width=0.017" "date=2014-08-26 17:16:25+02:00" "column=Waters Acquity BEH C18 1.7um x 2.1 x 150 mm" "retention time=1881.6" "raw data file=C:\Data\Confirmed standards 21_Aug_2014\Palmitic acid vial 206_1-A,2_01_703.d" "precursor type=[M-H]-" "mass accuracy=4.914217160370783" "mass error=-0.0012542640000106076" "SMILES=OC(=O)CCCCCCCCCCCCCCC" "InChI=InChI=1S/C16H32O2/c1-2-3-4-5-6-7-8-9-10-11-12-13-14-15-16(17)18/h2-15H2,1H3,(H,17,18)" "InChIKey=IPCSVZSSVZVIGE-UHFFFAOYSA-N" "molecular formula=C16H32O2" "total exact mass=256.240230264" "SMILES=OC(CCCCCCCCCCCCCCC)=O"
Num Peaks: 3
 237 5.805806; 
 255 100.000000; 
 256 12.812813; 


Name: Palmitic acid
SYNON: $:00in-source
DB#: MetaboBASE1103
InChIKey: IPCSVZSSVZVIGE-UHFFFAOYSA-N
Precursor_type: [M-H]-
Spectrum_type: MS2
PrecursorMZ: 255.2333
Instrument_type: LC-ESI-TOF
Instrument: impact HD
Ion_mode: N
Collision_energy: 10
InChIKey: IPCSVZSSVZVIGE-UHFFFAOYSA-N
Formula: C16H32O2
MW: 256
ExactMass: 256.240230264
Comments: "license=License CC-BY-NC-SA 4.0 International" "author=Plant Biology, The Noble Foundation, Ardmore, OK, US/Dennis Fine, Daniel Wherritt, and Lloyd Sumner" "instrument type=LC-ESI-TOF" "instrument=impact HD" "ionization=ESI" "ionization mode=negative" "ms level=MS2" "precursor m/z=255.2333" "isolation width=5" "collision energy=10" "peak width=0.012" "date=2014-08-26 17:16:25+02:00" "column=Waters Acquity BEH C18 1.7um x 2.1 x 150 mm" "retention time=1881.6" "raw data file=C:\Data\Confirmed standards 21_Aug_2014\Palmitic acid vial 206_1-A,2_01_703.d" "precursor type=[M-H]-" "mass accuracy=1.3545881356942264" "mass error=3.457360000140852E-4" "SMILES=OC(=O)CCCCCCCCCCCCCCC" "InChI=InChI=1S/C16H32O2/c1-2-3-4-5-6-7-8-9-10-11-12-13-14-15-16(17)18/h2-15H2,1H3,(H,17,18)" "InChIKey=IPCSVZSSVZVIGE-UHFFFAOYSA-N" "molecular formula=C16H32O2" "total exact mass=256.240230264" "SMILES=OC(CCCCCCCCCCCCCCC)=O"
Num Peaks: 3
 255 100.000000; 
 256 11.211211; 
 257 0.600601; 


Name: Palmitic acid
SYNON: $:00in-source
DB#: MetaboBASE1104
InChIKey: IPCSVZSSVZVIGE-UHFFFAOYSA-N
Precursor_type: [M-H]-
Spectrum_type: MS2
PrecursorMZ: 255.2331
Instrument_type: LC-ESI-TOF
Instrument: impact HD
Ion_mode: N
Collision_energy: 20
InChIKey: IPCSVZSSVZVIGE-UHFFFAOYSA-N
Formula: C16H32O2
MW: 256
ExactMass: 256.240230264
Comments: "license=License CC-BY-NC-SA 4.0 International" "author=Plant Biology, The Noble Foundation, Ardmore, OK, US/Dennis Fine, Daniel Wherritt, and Lloyd Sumner" "instrument type=LC-ESI-TOF" "instrument=impact HD" "ionization=ESI" "ionization mode=negative" "ms level=MS2" "precursor m/z=255.2331" "isolation width=5" "collision energy=20" "peak width=0.013" "date=2014-08-26 17:16:25+02:00" "column=Waters Acquity BEH C18 1.7um x 2.1 x 150 mm" "retention time=1881.6" "raw data file=C:\Data\Confirmed standards 21_Aug_2014\Palmitic acid vial 206_1-A,2_01_703.d" "precursor type=[M-H]-" "mass accuracy=0.5709917718644091" "mass error=1.457360000074459E-4" "SMILES=OC(=O)CCCCCCCCCCCCCCC" "InChI=InChI=1S/C16H32O2/c1-2-3-4-5-6-7-8-9-10-11-12-13-14-15-16(17)18/h2-15H2,1H3,(H,17,18)" "InChIKey=IPCSVZSSVZVIGE-UHFFFAOYSA-N" "molecular formula=C16H32O2" "total exact mass=256.240230264" "SMILES=OC(CCCCCCCCCCCCCCC)=O"
Num Peaks: 5
 237 0.400400; 
 238 0.100100; 
 255 100.000000; 
 256 12.612613; 
 257 0.600601; 


Name: Palmitic acid
SYNON: $:00in-source
DB#: MetaboBASE1105
InChIKey: IPCSVZSSVZVIGE-UHFFFAOYSA-N
Instrument_type: LC-ESI-TOF
Instrument: impact HD
Ion_mode: N
InChIKey: IPCSVZSSVZVIGE-UHFFFAOYSA-N
Formula: C16H32O2
MW: 256
ExactMass: 256.240230264
Comments: "license=License CC-BY-NC-SA 4.0 International" "author=Plant Biology, The Noble Foundation, Ardmore, OK, US/Dennis Fine, Daniel Wherritt, and Lloyd Sumner" "instrument type=LC-ESI-TOF" "instrument=impact HD" "ionization=ESI" "ionization mode=negative" "peak width=0.018" "date=2014-08-26 17:16:25+02:00" "column=Waters Acquity BEH C18 1.7um x 2.1 x 150 mm" "retention time=1877.4" "raw data file=C:\Data\Confirmed standards 21_Aug_2014\Palmitic acid vial 206_1-A,2_01_703.d" "SMILES=OC(=O)CCCCCCCCCCCCCCC" "InChI=InChI=1S/C16H32O2/c1-2-3-4-5-6-7-8-9-10-11-12-13-14-15-16(17)18/h2-15H2,1H3,(H,17,18)" "InChIKey=IPCSVZSSVZVIGE-UHFFFAOYSA-N" "molecular formula=C16H32O2" "total exact mass=256.240230264" "SMILES=OC(CCCCCCCCCCCCCCC)=O"
Num Peaks: 17
 116 1.401401; 
 128 1.601602; 
 255 100.000000; 
 256 14.714715; 
 257 1.401401; 
 267 1.101101; 
 279 4.404404; 
 323 1.201201; 
 355 14.214214; 
 356 3.803804; 
 430 5.605606; 
 431 1.701702; 
 533 2.502503; 
 556 3.703704; 
 587 1.801802; 
 666 1.601602; 
 747 1.301301; 


Name: 4'-O-(2'-E-Coumaroyl GluA)(1-2)GluA) Apigenin
SYNON: $:00in-source
DB#: MetaboBASE1106
InChIKey: NCJNNMWJQIKYLO-FRVSQPBBSA-N
Spectrum_type: MS2
PrecursorMZ: 769.1555
Instrument_type: LC-ESI-TOF
Instrument: impact HD
Ion_mode: N
Collision_energy: 32.3054
InChIKey: NCJNNMWJQIKYLO-FRVSQPBBSA-N
Formula: C36H32O19
MW: 768
ExactMass: 768.153778804
Comments: "license=License CC-BY-NC-SA 4.0 International" "author=Plant Biology, The Noble Foundation, Ardmore, OK, US/Dennis Fine, Daniel Wherritt, and Lloyd Sumner" "instrument type=LC-ESI-TOF" "instrument=impact HD" "ionization=ESI" "ionization mode=negative" "ms level=MS2" "precursor m/z=769.1555" "isolation width=9.07652" "collision energy=32.3054" "collision energy 2=53.8424" "peak width=0.015" "date=2014-09-25 17:23:44+02:00" "column=Waters Acquity BEH C18 1.7um x 2.1 x 150 mm" "retention time=458.4" "raw data file=C:\Data\Kota Kera\A-17 aerial extr dil MSMS pos _1-E,7_01_887.d" "Last Auto-Curation=1505110249327" "SMILES=c1(cc(c2c(c1)oc(cc2=O)c1ccc(cc1)O[C@@H]1O[C@@H]([C@H]([C@@H]([C@H]1O[C@H]1[C@@H]([C@H]([C@@H]([C@H](O1)C(=O)O)O)O)OC(=O)/C=C/c1ccc(cc1)O)O)O)C(=O)O)O)O" "InChI=InChI=1S/C36H32O19/c37-16-6-1-14(2-7-16)3-10-23(41)52-31-27(44)25(42)30(34(48)49)54-36(31)55-32-28(45)26(43)29(33(46)47)53-35(32)50-18-8-4-15(5-9-18)21-13-20(40)24-19(39)11-17(38)12-22(24)51-21/h1-13,25-32,35-39,42-45H,(H,46,47)(H,48,49)/b10-3+/t25-,26-,27-,28-,29-,30-,31+,32+,35+,36-/m0/s1" "InChIKey=NCJNNMWJQIKYLO-FRVSQPBBSA-N" "molecular formula=C36H32O19" "total exact mass=768.153778804" "SMILES=[H]OC(=O)C1([H])OC([H])(OC=2C([H])=C([H])C(=C([H])C2[H])C=3OC=4C([H])=C(O[H])C([H])=C(O[H])C4C(=O)C3[H])C([H])(OC5([H])OC([H])(C(=O)O[H])C([H])(O[H])C([H])(O[H])C5([H])OC(=O)C([H])=C([H])C6=C([H])C([H])=C(O[H])C([H])=C6[H])C([H])(O[H])C1([H])O[H]"
Num Peaks: 12
 230 8.008008; 
 259 2.502503; 
 269 3.103103; 
 271 100.000000; 
 272 15.415415; 
 305 4.804805; 
 323 13.813814; 
 324 1.801802; 
 447 7.307307; 
 447 1.701702; 
 448 2.502503; 
 769 1.801802; 


Name: 4'-O-(2'-E-Coumaroyl GluA)(1-2)GluA) Apigenin
SYNON: $:00in-source
DB#: MetaboBASE1107
InChIKey: NCJNNMWJQIKYLO-FRVSQPBBSA-N
Spectrum_type: MS2
PrecursorMZ: 269.045
Instrument_type: LC-ESI-TOF
Instrument: impact HD
Ion_mode: N
Collision_energy: 24.509
InChIKey: NCJNNMWJQIKYLO-FRVSQPBBSA-N
Formula: C36H32O19
MW: 768
ExactMass: 768.153778804
Comments: "license=License CC-BY-NC-SA 4.0 International" "author=Plant Biology, The Noble Foundation, Ardmore, OK, US/Dennis Fine, Daniel Wherritt, and Lloyd Sumner" "instrument type=LC-ESI-TOF" "instrument=impact HD" "ionization=ESI" "ionization mode=negative" "ms level=MS2" "precursor m/z=269.045" "collision energy=24.509" "collision energy 2=40.8483" "peak width=0.017" "date=2014-12-12 20:57:07+01:00" "column=Waters Acquity BEH C18 1.7um x 2.1 x 150 mm" "retention time=458.4" "raw data file=C:\Data\Noble-Bruker MS libr eval complex mix\2014Dec_A17 aer rt mix MSMS_1-A,2_01_1447.d" "Last Auto-Curation=1505111608258" "SMILES=c1(cc(c2c(c1)oc(cc2=O)c1ccc(cc1)O[C@@H]1O[C@@H]([C@H]([C@@H]([C@H]1O[C@H]1[C@@H]([C@H]([C@@H]([C@H](O1)C(=O)O)O)O)OC(=O)/C=C/c1ccc(cc1)O)O)O)C(=O)O)O)O" "InChI=InChI=1S/C36H32O19/c37-16-6-1-14(2-7-16)3-10-23(41)52-31-27(44)25(42)30(34(48)49)54-36(31)55-32-28(45)26(43)29(33(46)47)53-35(32)50-18-8-4-15(5-9-18)21-13-20(40)24-19(39)11-17(38)12-22(24)51-21/h1-13,25-32,35-39,42-45H,(H,46,47)(H,48,49)/b10-3+/t25-,26-,27-,28-,29-,30-,31+,32+,35+,36-/m0/s1" "InChIKey=NCJNNMWJQIKYLO-FRVSQPBBSA-N" "molecular formula=C36H32O19" "total exact mass=768.153778804" "SMILES=[H]OC(=O)C1([H])OC([H])(OC=2C([H])=C([H])C(=C([H])C2[H])C=3OC=4C([H])=C(O[H])C([H])=C(O[H])C4C(=O)C3[H])C([H])(OC5([H])OC([H])(C(=O)O[H])C([H])(O[H])C([H])(O[H])C5([H])OC(=O)C([H])=C([H])C6=C([H])C([H])=C(O[H])C([H])=C6[H])C([H])(O[H])C1([H])O[H]"
Num Peaks: 13
 107 1.601602; 
 117 22.522523; 
 118 0.300300; 
 121 0.200200; 
 149 3.103103; 
 151 3.603604; 
 224 0.300300; 
 225 5.505506; 
 227 1.401401; 
 267 0.500501; 
 269 100.000000; 
 270 13.313313; 
 875 0.200200; 


Name: 4'-O-(2'-E-Coumaroyl GluA)(1-2)GluA) Apigenin
SYNON: $:00in-source
DB#: MetaboBASE1108
InChIKey: NCJNNMWJQIKYLO-FRVSQPBBSA-N
Instrument_type: LC-ESI-TOF
Instrument: impact HD
Ion_mode: N
Collision_energy: 10
InChIKey: NCJNNMWJQIKYLO-FRVSQPBBSA-N
Formula: C36H32O19
MW: 768
ExactMass: 768.153778804
Comments: "license=License CC-BY-NC-SA 4.0 International" "author=Plant Biology, The Noble Foundation, Ardmore, OK, US/Dennis Fine, Daniel Wherritt, and Lloyd Sumner" "instrument type=LC-ESI-TOF" "instrument=impact HD" "ionization=ESI" "ionization mode=negative" "collision energy=10" "peak width=0.016" "date=2014-09-03 23:40:07+02:00" "column=Waters Acquity BEH C18 1.7um x 2.1 x 150 mm" "retention time=458.4" "raw data file=C:\Data\Kota Kera\Kota Kera QToF 2Sept2014\A-17 aerial extr dil positive_1-F,1_01_732.d" "Last Auto-Curation=1505110249699" "SMILES=c1(cc(c2c(c1)oc(cc2=O)c1ccc(cc1)O[C@@H]1O[C@@H]([C@H]([C@@H]([C@H]1O[C@H]1[C@@H]([C@H]([C@@H]([C@H](O1)C(=O)O)O)O)OC(=O)/C=C/c1ccc(cc1)O)O)O)C(=O)O)O)O" "InChI=InChI=1S/C36H32O19/c37-16-6-1-14(2-7-16)3-10-23(41)52-31-27(44)25(42)30(34(48)49)54-36(31)55-32-28(45)26(43)29(33(46)47)53-35(32)50-18-8-4-15(5-9-18)21-13-20(40)24-19(39)11-17(38)12-22(24)51-21/h1-13,25-32,35-39,42-45H,(H,46,47)(H,48,49)/b10-3+/t25-,26-,27-,28-,29-,30-,31+,32+,35+,36-/m0/s1" "InChIKey=NCJNNMWJQIKYLO-FRVSQPBBSA-N" "molecular formula=C36H32O19" "total exact mass=768.153778804" "SMILES=[H]OC(=O)C1([H])OC([H])(OC=2C([H])=C([H])C(=C([H])C2[H])C=3OC=4C([H])=C(O[H])C([H])=C(O[H])C4C(=O)C3[H])C([H])(OC5([H])OC([H])(C(=O)O[H])C([H])(O[H])C([H])(O[H])C5([H])OC(=O)C([H])=C([H])C6=C([H])C([H])=C(O[H])C([H])=C6[H])C([H])(O[H])C1([H])O[H]"
Num Peaks: 12
 271 4.104104; 
 323 1.501502; 
 447 2.602603; 
 447 1.501502; 
 467 1.801802; 
 489 1.301301; 
 769 100.000000; 
 770 39.839840; 
 771 11.611612; 
 772 2.302302; 
 791 3.403403; 
 792 1.401401; 


Name: 4'-O-(2'-E-Coumaroyl GluA)(1-2)GluA) Apigenin
SYNON: $:00in-source
DB#: MetaboBASE1109
InChIKey: NCJNNMWJQIKYLO-FRVSQPBBSA-N
Instrument_type: LC-ESI-TOF
Instrument: impact HD
Ion_mode: N
InChIKey: NCJNNMWJQIKYLO-FRVSQPBBSA-N
Formula: C36H32O19
MW: 768
ExactMass: 768.153778804
Comments: "license=License CC-BY-NC-SA 4.0 International" "author=Plant Biology, The Noble Foundation, Ardmore, OK, US/Dennis Fine, Daniel Wherritt, and Lloyd Sumner" "instrument type=LC-ESI-TOF" "instrument=impact HD" "ionization=ESI" "ionization mode=negative" "peak width=0.031" "date=2014-12-12 20:57:07+01:00" "column=Waters Acquity BEH C18 1.7um x 2.1 x 150 mm" "retention time=458.4" "raw data file=C:\Data\Noble-Bruker MS libr eval complex mix\2014Dec_A17 aer rt mix MSMS_1-A,2_01_1447.d" "Last Auto-Curation=1505110249993" "SMILES=c1(cc(c2c(c1)oc(cc2=O)c1ccc(cc1)O[C@@H]1O[C@@H]([C@H]([C@@H]([C@H]1O[C@H]1[C@@H]([C@H]([C@@H]([C@H](O1)C(=O)O)O)O)OC(=O)/C=C/c1ccc(cc1)O)O)O)C(=O)O)O)O" "InChI=InChI=1S/C36H32O19/c37-16-6-1-14(2-7-16)3-10-23(41)52-31-27(44)25(42)30(34(48)49)54-36(31)55-32-28(45)26(43)29(33(46)47)53-35(32)50-18-8-4-15(5-9-18)21-13-20(40)24-19(39)11-17(38)12-22(24)51-21/h1-13,25-32,35-39,42-45H,(H,46,47)(H,48,49)/b10-3+/t25-,26-,27-,28-,29-,30-,31+,32+,35+,36-/m0/s1" "InChIKey=NCJNNMWJQIKYLO-FRVSQPBBSA-N" "molecular formula=C36H32O19" "total exact mass=768.153778804" "SMILES=[H]OC(=O)C1([H])OC([H])(OC=2C([H])=C([H])C(=C([H])C2[H])C=3OC=4C([H])=C(O[H])C([H])=C(O[H])C4C(=O)C3[H])C([H])(OC5([H])OC([H])(C(=O)O[H])C([H])(O[H])C([H])(O[H])C5([H])OC(=O)C([H])=C([H])C6=C([H])C([H])=C(O[H])C([H])=C6[H])C([H])(O[H])C1([H])O[H]"
Num Peaks: 18
 119 1.901902; 
 269 28.028028; 
 270 4.904905; 
 299 1.201201; 
 333 3.003003; 
 351 1.801802; 
 383 1.201201; 
 497 17.117117; 
 498 4.004004; 
 767 100.000000; 
 767 3.903904; 
 768 40.840841; 
 769 12.612613; 
 770 2.702703; 
 789 6.206206; 
 790 2.502503; 
 793 1.201201; 
 794 1.201201; 


Name: 4'-O-(2'-E-Coumaroyl GluA)(1-2)GluA) Apigenin
SYNON: $:00in-source
DB#: MetaboBASE1110
InChIKey: NCJNNMWJQIKYLO-FRVSQPBBSA-N
Spectrum_type: MS2
PrecursorMZ: 767.146
Instrument_type: LC-ESI-TOF
Instrument: impact HD
Ion_mode: N
Collision_energy: 47.5185
InChIKey: NCJNNMWJQIKYLO-FRVSQPBBSA-N
Formula: C36H32O19
MW: 768
ExactMass: 768.153778804
Comments: "license=License CC-BY-NC-SA 4.0 International" "author=Plant Biology, The Noble Foundation, Ardmore, OK, US/Dennis Fine, Daniel Wherritt, and Lloyd Sumner" "instrument type=LC-ESI-TOF" "instrument=impact HD" "ionization=ESI" "ionization mode=negative" "ms level=MS2" "precursor m/z=767.146" "collision energy=47.5185" "collision energy 2=79.1974" "peak width=0.018" "date=2014-12-12 20:57:07+01:00" "column=Waters Acquity BEH C18 1.7um x 2.1 x 150 mm" "retention time=458.4" "raw data file=C:\Data\Noble-Bruker MS libr eval complex mix\2014Dec_A17 aer rt mix MSMS_1-A,2_01_1447.d" "Last Auto-Curation=1505111328072" "SMILES=c1(cc(c2c(c1)oc(cc2=O)c1ccc(cc1)O[C@@H]1O[C@@H]([C@H]([C@@H]([C@H]1O[C@H]1[C@@H]([C@H]([C@@H]([C@H](O1)C(=O)O)O)O)OC(=O)/C=C/c1ccc(cc1)O)O)O)C(=O)O)O)O" "InChI=InChI=1S/C36H32O19/c37-16-6-1-14(2-7-16)3-10-23(41)52-31-27(44)25(42)30(34(48)49)54-36(31)55-32-28(45)26(43)29(33(46)47)53-35(32)50-18-8-4-15(5-9-18)21-13-20(40)24-19(39)11-17(38)12-22(24)51-21/h1-13,25-32,35-39,42-45H,(H,46,47)(H,48,49)/b10-3+/t25-,26-,27-,28-,29-,30-,31+,32+,35+,36-/m0/s1" "InChIKey=NCJNNMWJQIKYLO-FRVSQPBBSA-N" "molecular formula=C36H32O19" "total exact mass=768.153778804" "SMILES=[H]OC(=O)C1([H])OC([H])(OC=2C([H])=C([H])C(=C([H])C2[H])C=3OC=4C([H])=C(O[H])C([H])=C(O[H])C4C(=O)C3[H])C([H])(OC5([H])OC([H])(C(=O)O[H])C([H])(O[H])C([H])(O[H])C5([H])OC(=O)C([H])=C([H])C6=C([H])C([H])=C(O[H])C([H])=C6[H])C([H])(O[H])C1([H])O[H]"
Num Peaks: 44
 99 13.713714; 
 100 0.200200; 
 111 0.600601; 
 113 23.623624; 
 114 0.300300; 
 115 2.102102; 
 117 1.101101; 
 119 23.423423; 
 120 1.201201; 
 129 0.700701; 
 133 0.700701; 
 139 0.300300; 
 145 3.003003; 
 149 0.400400; 
 151 0.200200; 
 157 3.703704; 
 163 73.673674; 
 164 5.705706; 
 175 11.011011; 
 193 3.503504; 
 201 0.200200; 
 217 0.300300; 
 225 0.400400; 
 225 0.200200; 
 229 1.701702; 
 268 1.601602; 
 269 100.000000; 
 270 15.615616; 
 271 4.404404; 
 289 4.504505; 
 311 0.200200; 
 315 1.001001; 
 321 0.600601; 
 333 34.234234; 
 334 3.503504; 
 335 0.400400; 
 339 0.400400; 
 351 15.015015; 
 352 0.800801; 
 427 1.001001; 
 435 0.200200; 
 497 5.705706; 
 498 0.400400; 
 1129 0.200200; 


Name: 4'-O-(2'-E-Feruloyl GluA(1-2)GluA) Apigenin
SYNON: $:00in-source
DB#: MetaboBASE1111
InChIKey: LNCLTICCQWMCNS-OJBICJBZSA-N
Spectrum_type: MS2
PrecursorMZ: 799.1725
Instrument_type: LC-ESI-TOF
Instrument: impact HD
Ion_mode: N
Collision_energy: 32.9807
InChIKey: LNCLTICCQWMCNS-OJBICJBZSA-N
Formula: C37H34O20
MW: 798
ExactMass: 798.164343488
Comments: "license=License CC-BY-NC-SA 4.0 International" "author=Plant Biology, The Noble Foundation, Ardmore, OK, US/Dennis Fine, Daniel Wherritt, and Lloyd Sumner" "instrument type=LC-ESI-TOF" "instrument=impact HD" "ionization=ESI" "ionization mode=negative" "ms level=MS2" "precursor m/z=799.1725" "isolation width=9.19656" "collision energy=32.9807" "collision energy 2=54.9678" "peak width=0.014" "date=2014-09-25 17:23:44+02:00" "column=Waters Acquity BEH C18 1.7um x 2.1 x 150 mm" "retention time=466.8" "raw data file=C:\Data\Kota Kera\A-17 aerial extr dil MSMS pos _1-E,7_01_887.d" "Last Auto-Curation=1505111001910" "SMILES=c1(cc(c2c(c1)oc(cc2=O)c1ccc(cc1)O[C@@H]1O[C@@H]([C@H]([C@@H]([C@H]1O[C@H]1[C@@H]([C@H]([C@@H]([C@H](O1)C(=O)O)O)O)OC(=O)/C=C/c1ccc(c(c1)OC)O)O)O)C(=O)O)O)O" "InChI=InChI=1S/C37H34O20/c1-51-22-10-14(2-8-18(22)39)3-9-24(42)54-32-28(45)26(43)31(35(49)50)56-37(32)57-33-29(46)27(44)30(34(47)48)55-36(33)52-17-6-4-15(5-7-17)21-13-20(41)25-19(40)11-16(38)12-23(25)53-21/h2-13,26-33,36-40,43-46H,1H3,(H,47,48)(H,49,50)/b9-3+/t26-,27-,28-,29-,30-,31-,32+,33+,36+,37-/m0/s1" "InChIKey=LNCLTICCQWMCNS-OJBICJBZSA-N" "molecular formula=C37H34O20" "total exact mass=798.164343488" "SMILES=[H]OC(=O)C1([H])OC([H])(OC=2C([H])=C([H])C(=C([H])C2[H])C=3OC=4C([H])=C(O[H])C([H])=C(O[H])C4C(=O)C3[H])C([H])(OC5([H])OC([H])(C(=O)O[H])C([H])(O[H])C([H])(O[H])C5([H])OC(=O)C([H])=C([H])C6=C([H])C([H])=C(O[H])C(OC([H])([H])[H])=C6[H])C([H])(O[H])C1([H])O[H]"
Num Peaks: 14
 260 23.223223; 
 261 4.504505; 
 271 100.000000; 
 272 13.713714; 
 273 2.202202; 
 299 2.102102; 
 335 5.405405; 
 336 1.501502; 
 353 16.616617; 
 354 2.502503; 
 447 11.111111; 
 448 2.502503; 
 799 2.702703; 
 800 1.101101; 


Name: 4'-O-(2'-E-Feruloyl GluA(1-2)GluA) Apigenin
SYNON: $:00in-source
DB#: MetaboBASE1112
InChIKey: LNCLTICCQWMCNS-OJBICJBZSA-N
Instrument_type: LC-ESI-TOF
Instrument: impact HD
Ion_mode: N
Collision_energy: 10
InChIKey: LNCLTICCQWMCNS-OJBICJBZSA-N
Formula: C37H34O20
MW: 798
ExactMass: 798.164343488
Comments: "license=License CC-BY-NC-SA 4.0 International" "author=Plant Biology, The Noble Foundation, Ardmore, OK, US/Dennis Fine, Daniel Wherritt, and Lloyd Sumner" "instrument type=LC-ESI-TOF" "instrument=impact HD" "ionization=ESI" "ionization mode=negative" "collision energy=10" "peak width=0.016" "date=2014-09-03 23:40:07+02:00" "column=Waters Acquity BEH C18 1.7um x 2.1 x 150 mm" "retention time=466.8" "raw data file=C:\Data\Kota Kera\Kota Kera QToF 2Sept2014\A-17 aerial extr dil positive_1-F,1_01_732.d" "Last Auto-Curation=1505110250940" "SMILES=c1(cc(c2c(c1)oc(cc2=O)c1ccc(cc1)O[C@@H]1O[C@@H]([C@H]([C@@H]([C@H]1O[C@H]1[C@@H]([C@H]([C@@H]([C@H](O1)C(=O)O)O)O)OC(=O)/C=C/c1ccc(c(c1)OC)O)O)O)C(=O)O)O)O" "InChI=InChI=1S/C37H34O20/c1-51-22-10-14(2-8-18(22)39)3-9-24(42)54-32-28(45)26(43)31(35(49)50)56-37(32)57-33-29(46)27(44)30(34(47)48)55-36(33)52-17-6-4-15(5-7-17)21-13-20(41)25-19(40)11-16(38)12-23(25)53-21/h2-13,26-33,36-40,43-46H,1H3,(H,47,48)(H,49,50)/b9-3+/t26-,27-,28-,29-,30-,31-,32+,33+,36+,37-/m0/s1" "InChIKey=LNCLTICCQWMCNS-OJBICJBZSA-N" "molecular formula=C37H34O20" "total exact mass=798.164343488" "SMILES=[H]OC(=O)C1([H])OC([H])(OC=2C([H])=C([H])C(=C([H])C2[H])C=3OC=4C([H])=C(O[H])C([H])=C(O[H])C4C(=O)C3[H])C([H])(OC5([H])OC([H])(C(=O)O[H])C([H])(O[H])C([H])(O[H])C5([H])OC(=O)C([H])=C([H])C6=C([H])C([H])=C(O[H])C(OC([H])([H])[H])=C6[H])C([H])(O[H])C1([H])O[H]"
Num Peaks: 17
 271 2.802803; 
 287 1.601602; 
 353 1.601602; 
 447 2.002002; 
 467 1.101101; 
 517 1.901902; 
 535 1.501502; 
 557 1.801802; 
 649 4.104104; 
 650 1.601602; 
 723 1.401401; 
 799 100.000000; 
 800 40.440440; 
 801 12.112112; 
 802 2.702703; 
 821 2.302302; 
 933 1.701702; 


Name: 4'-O-(2'-E-Feruloyl GluA(1-2)GluA) Apigenin
SYNON: $:00in-source
DB#: MetaboBASE1113
InChIKey: LNCLTICCQWMCNS-OJBICJBZSA-N
Instrument_type: LC-ESI-TOF
Instrument: impact HD
Ion_mode: N
InChIKey: LNCLTICCQWMCNS-OJBICJBZSA-N
Formula: C37H34O20
MW: 798
ExactMass: 798.164343488
Comments: "license=License CC-BY-NC-SA 4.0 International" "author=Plant Biology, The Noble Foundation, Ardmore, OK, US/Dennis Fine, Daniel Wherritt, and Lloyd Sumner" "instrument type=LC-ESI-TOF" "instrument=impact HD" "ionization=ESI" "ionization mode=negative" "peak width=0.012" "date=2014-12-12 20:57:07+01:00" "column=Waters Acquity BEH C18 1.7um x 2.1 x 150 mm" "retention time=466.8" "raw data file=C:\Data\Noble-Bruker MS libr eval complex mix\2014Dec_A17 aer rt mix MSMS_1-A,2_01_1447.d" "Last Auto-Curation=1505111487970" "SMILES=c1(cc(c2c(c1)oc(cc2=O)c1ccc(cc1)O[C@@H]1O[C@@H]([C@H]([C@@H]([C@H]1O[C@H]1[C@@H]([C@H]([C@@H]([C@H](O1)C(=O)O)O)O)OC(=O)/C=C/c1ccc(c(c1)OC)O)O)O)C(=O)O)O)O" "InChI=InChI=1S/C37H34O20/c1-51-22-10-14(2-8-18(22)39)3-9-24(42)54-32-28(45)26(43)31(35(49)50)56-37(32)57-33-29(46)27(44)30(34(47)48)55-36(33)52-17-6-4-15(5-7-17)21-13-20(41)25-19(40)11-16(38)12-23(25)53-21/h2-13,26-33,36-40,43-46H,1H3,(H,47,48)(H,49,50)/b9-3+/t26-,27-,28-,29-,30-,31-,32+,33+,36+,37-/m0/s1" "InChIKey=LNCLTICCQWMCNS-OJBICJBZSA-N" "molecular formula=C37H34O20" "total exact mass=798.164343488" "SMILES=[H]OC(=O)C1([H])OC([H])(OC=2C([H])=C([H])C(=C([H])C2[H])C=3OC=4C([H])=C(O[H])C([H])=C(O[H])C4C(=O)C3[H])C([H])(OC5([H])OC([H])(C(=O)O[H])C([H])(O[H])C([H])(O[H])C5([H])OC(=O)C([H])=C([H])C6=C([H])C([H])=C(O[H])C(OC([H])([H])[H])=C6[H])C([H])(O[H])C1([H])O[H]"
Num Peaks: 61
 134 1.001001; 
 193 1.101101; 
 269 12.512513; 
 270 2.302302; 
 271 0.100100; 
 333 1.401401; 
 351 0.900901; 
 398 0.900901; 
 398 0.400400; 
 420 0.800801; 
 420 0.400400; 
 463 1.401401; 
 464 0.100100; 
 527 11.411411; 
 528 2.902903; 
 529 0.200200; 
 781 1.001001; 
 782 0.300300; 
 797 0.100100; 
 797 100.000000; 
 797 0.200200; 
 797 0.100100; 
 797 0.500501; 
 798 0.200200; 
 798 41.941942; 
 798 0.100100; 
 799 13.613614; 
 800 2.902903; 
 801 0.300300; 
 816 1.001001; 
 816 0.900901; 
 817 0.200200; 
 819 9.309309; 
 819 0.200200; 
 820 4.004004; 
 821 1.301301; 
 822 0.100100; 
 823 0.200200; 
 823 1.301301; 
 824 1.101101; 
 824 0.500501; 
 825 0.300300; 
 897 3.003003; 
 898 1.401401; 
 899 0.500501; 
 1181 1.101101; 
 1181 1.501502; 
 1182 1.101101; 
 1182 0.600601; 
 1183 0.200200; 
 1196 4.704705; 
 1196 6.006006; 
 1197 4.504505; 
 1197 2.302302; 
 1198 1.001001; 
 1198 0.300300; 
 1207 1.001001; 
 1207 1.301301; 
 1208 1.001001; 
 1208 0.500501; 
 1209 0.100100; 


Name: 4'-O-(2'-E-Feruloyl GluA(1-2)GluA) Apigenin
SYNON: $:00in-source
DB#: MetaboBASE1114
InChIKey: LNCLTICCQWMCNS-OJBICJBZSA-N
Spectrum_type: MS2
PrecursorMZ: 797.1556
Instrument_type: LC-ESI-TOF
Instrument: impact HD
Ion_mode: N
Collision_energy: 48.6439
InChIKey: LNCLTICCQWMCNS-OJBICJBZSA-N
Formula: C37H34O20
MW: 798
ExactMass: 798.164343488
Comments: "license=License CC-BY-NC-SA 4.0 International" "author=Plant Biology, The Noble Foundation, Ardmore, OK, US/Dennis Fine, Daniel Wherritt, and Lloyd Sumner" "instrument type=LC-ESI-TOF" "instrument=impact HD" "ionization=ESI" "ionization mode=negative" "ms level=MS2" "precursor m/z=797.1556" "collision energy=48.6439" "collision energy 2=81.0731" "peak width=0.018" "date=2014-12-12 20:57:07+01:00" "column=Waters Acquity BEH C18 1.7um x 2.1 x 150 mm" "retention time=466.8" "raw data file=C:\Data\Noble-Bruker MS libr eval complex mix\2014Dec_A17 aer rt mix MSMS_1-A,2_01_1447.d" "Last Auto-Curation=1505110251316" "SMILES=c1(cc(c2c(c1)oc(cc2=O)c1ccc(cc1)O[C@@H]1O[C@@H]([C@H]([C@@H]([C@H]1O[C@H]1[C@@H]([C@H]([C@@H]([C@H](O1)C(=O)O)O)O)OC(=O)/C=C/c1ccc(c(c1)OC)O)O)O)C(=O)O)O)O" "InChI=InChI=1S/C37H34O20/c1-51-22-10-14(2-8-18(22)39)3-9-24(42)54-32-28(45)26(43)31(35(49)50)56-37(32)57-33-29(46)27(44)30(34(47)48)55-36(33)52-17-6-4-15(5-7-17)21-13-20(41)25-19(40)11-16(38)12-23(25)53-21/h2-13,26-33,36-40,43-46H,1H3,(H,47,48)(H,49,50)/b9-3+/t26-,27-,28-,29-,30-,31-,32+,33+,36+,37-/m0/s1" "InChIKey=LNCLTICCQWMCNS-OJBICJBZSA-N" "molecular formula=C37H34O20" "total exact mass=798.164343488" "SMILES=[H]OC(=O)C1([H])OC([H])(OC=2C([H])=C([H])C(=C([H])C2[H])C=3OC=4C([H])=C(O[H])C([H])=C(O[H])C4C(=O)C3[H])C([H])(OC5([H])OC([H])(C(=O)O[H])C([H])(O[H])C([H])(O[H])C5([H])OC(=O)C([H])=C([H])C6=C([H])C([H])=C(O[H])C(OC([H])([H])[H])=C6[H])C([H])(O[H])C1([H])O[H]"
Num Peaks: 68
 99 13.113113; 
 100 0.100100; 
 101 0.200200; 
 103 0.700701; 
 109 0.100100; 
 111 0.900901; 
 112 0.100100; 
 113 0.100100; 
 113 28.028028; 
 114 1.301301; 
 115 2.302302; 
 117 0.200200; 
 117 2.502503; 
 129 0.700701; 
 131 0.300300; 
 131 0.200200; 
 133 1.801802; 
 134 0.200200; 
 134 25.725726; 
 135 1.901902; 
 137 0.100100; 
 141 0.200200; 
 149 0.400400; 
 149 3.903904; 
 150 0.100100; 
 151 0.500501; 
 157 4.204204; 
 160 0.500501; 
 175 11.811812; 
 176 0.200200; 
 176 0.300300; 
 178 1.001001; 
 193 71.171171; 
 194 7.707708; 
 195 0.300300; 
 201 0.200200; 
 217 1.001001; 
 225 1.701702; 
 227 0.300300; 
 235 0.200200; 
 243 0.400400; 
 245 0.300300; 
 259 1.601602; 
 263 0.600601; 
 268 2.702703; 
 269 100.000000; 
 270 15.515516; 
 271 4.704705; 
 272 0.100100; 
 289 4.004004; 
 290 0.200200; 
 311 0.100100; 
 315 1.801802; 
 333 34.434434; 
 334 3.703704; 
 351 10.510511; 
 352 1.501502; 
 367 0.100100; 
 369 2.402402; 
 370 0.100100; 
 383 0.300300; 
 384 0.100100; 
 427 1.201201; 
 428 0.200200; 
 527 4.004004; 
 528 0.700701; 
 603 0.300300; 
 1143 0.100100; 


Name: 4'-O-(2'-Z-Feruloyl GluA(1-2)GluA) Apigenin
SYNON: $:00in-source
DB#: MetaboBASE1115
InChIKey: LNCLTICCQWMCNS-LDTVNHGTSA-N
Instrument_type: LC-ESI-TOF
Instrument: impact HD
Ion_mode: N
Collision_energy: 10
InChIKey: LNCLTICCQWMCNS-LDTVNHGTSA-N
Formula: C37H34O20
MW: 798
ExactMass: 798.164343488
Comments: "license=License CC-BY-NC-SA 4.0 International" "author=Plant Biology, The Noble Foundation, Ardmore, OK, US/Dennis Fine, Daniel Wherritt, and Lloyd Sumner" "instrument type=LC-ESI-TOF" "instrument=impact HD" "ionization=ESI" "ionization mode=negative" "collision energy=10" "peak width=0.018" "date=2014-09-03 23:40:07+02:00" "column=Waters Acquity BEH C18 1.7um x 2.1 x 150 mm" "retention time=540.6" "raw data file=C:\Data\Kota Kera\Kota Kera QToF 2Sept2014\A-17 aerial extr dil positive_1-F,1_01_732.d" "Last Auto-Curation=1505110251666" "SMILES=c1(cc(c2c(c1)oc(cc2=O)c1ccc(cc1)O[C@@H]1O[C@@H]([C@H]([C@@H]([C@H]1O[C@H]1[C@@H]([C@H]([C@@H]([C@H](O1)C(=O)O)O)O)OC(=O)/C=C\c1cc(c(cc1)O)OC)O)O)C(=O)O)O)O" "InChI=InChI=1S/C37H34O20/c1-51-22-10-14(2-8-18(22)39)3-9-24(42)54-32-28(45)26(43)31(35(49)50)56-37(32)57-33-29(46)27(44)30(34(47)48)55-36(33)52-17-6-4-15(5-7-17)21-13-20(41)25-19(40)11-16(38)12-23(25)53-21/h2-13,26-33,36-40,43-46H,1H3,(H,47,48)(H,49,50)/b9-3-/t26-,27-,28-,29-,30-,31-,32+,33+,36+,37-/m0/s1" "InChIKey=LNCLTICCQWMCNS-LDTVNHGTSA-N" "molecular formula=C37H34O20" "total exact mass=798.164343488" "SMILES=[H]OC(=O)C1([H])OC([H])(OC=2C([H])=C([H])C(=C([H])C2[H])C=3OC=4C([H])=C(O[H])C([H])=C(O[H])C4C(=O)C3[H])C([H])(OC5([H])OC([H])(C(=O)O[H])C([H])(O[H])C([H])(O[H])C5([H])OC(=O)C([H])=C([H])C6=C([H])C([H])=C(O[H])C(OC([H])([H])[H])=C6[H])C([H])(O[H])C1([H])O[H]"
Num Peaks: 17
 271 7.507508; 
 489 1.301301; 
 519 1.501502; 
 519 1.201201; 
 557 1.301301; 
 557 3.603604; 
 629 6.006006; 
 660 3.703704; 
 679 4.904905; 
 751 2.302302; 
 799 100.000000; 
 800 42.242242; 
 801 12.812813; 
 802 1.301301; 
 829 2.602603; 
 899 3.603604; 
 917 4.504505; 


Name: 4'-O-(2'-Z-Feruloyl GluA(1-2)GluA) Apigenin
SYNON: $:00in-source
DB#: MetaboBASE1116
InChIKey: LNCLTICCQWMCNS-LDTVNHGTSA-N
Instrument_type: LC-ESI-TOF
Instrument: impact HD
Ion_mode: N
InChIKey: LNCLTICCQWMCNS-LDTVNHGTSA-N
Formula: C37H34O20
MW: 798
ExactMass: 798.164343488
Comments: "license=License CC-BY-NC-SA 4.0 International" "author=Plant Biology, The Noble Foundation, Ardmore, OK, US/Dennis Fine, Daniel Wherritt, and Lloyd Sumner" "instrument type=LC-ESI-TOF" "instrument=impact HD" "ionization=ESI" "ionization mode=negative" "peak width=0.014" "date=2014-09-03 22:58:48+02:00" "column=Waters Acquity BEH C18 1.7um x 2.1 x 150 mm" "retention time=540.6" "raw data file=C:\Data\Kota Kera\A-17 aerial extr dil MSMS_1-F,1_01_731.d" "Last Auto-Curation=1505111328315" "SMILES=c1(cc(c2c(c1)oc(cc2=O)c1ccc(cc1)O[C@@H]1O[C@@H]([C@H]([C@@H]([C@H]1O[C@H]1[C@@H]([C@H]([C@@H]([C@H](O1)C(=O)O)O)O)OC(=O)/C=C\c1cc(c(cc1)O)OC)O)O)C(=O)O)O)O" "InChI=InChI=1S/C37H34O20/c1-51-22-10-14(2-8-18(22)39)3-9-24(42)54-32-28(45)26(43)31(35(49)50)56-37(32)57-33-29(46)27(44)30(34(47)48)55-36(33)52-17-6-4-15(5-7-17)21-13-20(41)25-19(40)11-16(38)12-23(25)53-21/h2-13,26-33,36-40,43-46H,1H3,(H,47,48)(H,49,50)/b9-3-/t26-,27-,28-,29-,30-,31-,32+,33+,36+,37-/m0/s1" "InChIKey=LNCLTICCQWMCNS-LDTVNHGTSA-N" "molecular formula=C37H34O20" "total exact mass=798.164343488" "SMILES=[H]OC(=O)C1([H])OC([H])(OC=2C([H])=C([H])C(=C([H])C2[H])C=3OC=4C([H])=C(O[H])C([H])=C(O[H])C4C(=O)C3[H])C([H])(OC5([H])OC([H])(C(=O)O[H])C([H])(O[H])C([H])(O[H])C5([H])OC(=O)C([H])=C([H])C6=C([H])C([H])=C(O[H])C(OC([H])([H])[H])=C6[H])C([H])(O[H])C1([H])O[H]"
Num Peaks: 30
 409 2.202202; 
 451 9.309309; 
 485 2.502503; 
 527 7.807808; 
 528 2.102102; 
 545 2.702703; 
 561 10.610611; 
 562 3.103103; 
 611 3.303303; 
 617 2.302302; 
 665 3.203203; 
 677 3.503504; 
 694 2.102102; 
 707 2.402402; 
 709 2.502503; 
 797 100.000000; 
 798 43.043043; 
 799 13.713714; 
 799 4.204204; 
 800 3.203203; 
 819 10.710711; 
 820 4.804805; 
 839 3.403403; 
 895 3.203203; 
 897 2.202202; 
 971 5.305305; 
 972 2.902903; 
 1005 2.202202; 
 1235 4.504505; 
 1236 3.103103; 


Name: 4'-O-(2'-Z-Feruloyl GluA(1-2)GluA) Apigenin
SYNON: $:00in-source
DB#: MetaboBASE1117
InChIKey: LNCLTICCQWMCNS-LDTVNHGTSA-N
Instrument_type: LC-ESI-TOF
Instrument: impact HD
Ion_mode: N
InChIKey: LNCLTICCQWMCNS-LDTVNHGTSA-N
Formula: C37H34O20
MW: 798
ExactMass: 798.164343488
Comments: "license=License CC-BY-NC-SA 4.0 International" "author=Plant Biology, The Noble Foundation, Ardmore, OK, US/Dennis Fine, Daniel Wherritt, and Lloyd Sumner" "instrument type=LC-ESI-TOF" "instrument=impact HD" "ionization=ESI" "ionization mode=negative" "peak width=0.015" "date=2014-12-12 20:57:07+01:00" "column=Waters Acquity BEH C18 1.7um x 2.1 x 150 mm" "retention time=540.6" "raw data file=C:\Data\Noble-Bruker MS libr eval complex mix\2014Dec_A17 aer rt mix MSMS_1-A,2_01_1447.d" "Last Auto-Curation=1505110252089" "SMILES=c1(cc(c2c(c1)oc(cc2=O)c1ccc(cc1)O[C@@H]1O[C@@H]([C@H]([C@@H]([C@H]1O[C@H]1[C@@H]([C@H]([C@@H]([C@H](O1)C(=O)O)O)O)OC(=O)/C=C\c1cc(c(cc1)O)OC)O)O)C(=O)O)O)O" "InChI=InChI=1S/C37H34O20/c1-51-22-10-14(2-8-18(22)39)3-9-24(42)54-32-28(45)26(43)31(35(49)50)56-37(32)57-33-29(46)27(44)30(34(47)48)55-36(33)52-17-6-4-15(5-7-17)21-13-20(41)25-19(40)11-16(38)12-23(25)53-21/h2-13,26-33,36-40,43-46H,1H3,(H,47,48)(H,49,50)/b9-3-/t26-,27-,28-,29-,30-,31-,32+,33+,36+,37-/m0/s1" "InChIKey=LNCLTICCQWMCNS-LDTVNHGTSA-N" "molecular formula=C37H34O20" "total exact mass=798.164343488" "SMILES=[H]OC(=O)C1([H])OC([H])(OC=2C([H])=C([H])C(=C([H])C2[H])C=3OC=4C([H])=C(O[H])C([H])=C(O[H])C4C(=O)C3[H])C([H])(OC5([H])OC([H])(C(=O)O[H])C([H])(O[H])C([H])(O[H])C5([H])OC(=O)C([H])=C([H])C6=C([H])C([H])=C(O[H])C(OC([H])([H])[H])=C6[H])C([H])(O[H])C1([H])O[H]"
Num Peaks: 37
 269 12.112112; 
 269 7.007007; 
 270 0.300300; 
 270 0.100100; 
 285 25.625626; 
 286 4.704705; 
 311 1.101101; 
 527 7.607608; 
 528 0.400400; 
 556 0.900901; 
 557 0.100100; 
 593 2.002002; 
 687 2.002002; 
 781 4.004004; 
 781 0.200200; 
 782 1.001001; 
 787 1.501502; 
 788 0.100100; 
 797 100.000000; 
 798 41.141141; 
 799 11.811812; 
 799 1.101101; 
 800 1.301301; 
 819 13.413413; 
 820 6.006006; 
 821 0.200200; 
 821 1.601602; 
 821 0.700701; 
 827 2.902903; 
 828 0.100100; 
 828 0.800801; 
 829 0.100100; 
 897 3.103103; 
 897 0.200200; 
 898 0.700701; 
 909 1.501502; 
 909 0.900901; 


Name: 4'-O-(2'-Z-Feruloyl GluA(1-2)GluA) Apigenin
SYNON: $:00in-source
DB#: MetaboBASE1118
InChIKey: LNCLTICCQWMCNS-LDTVNHGTSA-N
Spectrum_type: MS2
PrecursorMZ: 797.1788
Instrument_type: LC-ESI-TOF
Instrument: impact HD
Ion_mode: N
Collision_energy: 48.6454
InChIKey: LNCLTICCQWMCNS-LDTVNHGTSA-N
Formula: C37H34O20
MW: 798
ExactMass: 798.164343488
Comments: "license=License CC-BY-NC-SA 4.0 International" "author=Plant Biology, The Noble Foundation, Ardmore, OK, US/Dennis Fine, Daniel Wherritt, and Lloyd Sumner" "instrument type=LC-ESI-TOF" "instrument=impact HD" "ionization=ESI" "ionization mode=negative" "ms level=MS2" "precursor m/z=797.1788" "collision energy=48.6454" "collision energy 2=81.0756" "peak width=0.018" "date=2014-12-12 20:57:07+01:00" "column=Waters Acquity BEH C18 1.7um x 2.1 x 150 mm" "retention time=540.6" "raw data file=C:\Data\Noble-Bruker MS libr eval complex mix\2014Dec_A17 aer rt mix MSMS_1-A,2_01_1447.d" "Last Auto-Curation=1505110252460" "SMILES=c1(cc(c2c(c1)oc(cc2=O)c1ccc(cc1)O[C@@H]1O[C@@H]([C@H]([C@@H]([C@H]1O[C@H]1[C@@H]([C@H]([C@@H]([C@H](O1)C(=O)O)O)O)OC(=O)/C=C\c1cc(c(cc1)O)OC)O)O)C(=O)O)O)O" "InChI=InChI=1S/C37H34O20/c1-51-22-10-14(2-8-18(22)39)3-9-24(42)54-32-28(45)26(43)31(35(49)50)56-37(32)57-33-29(46)27(44)30(34(47)48)55-36(33)52-17-6-4-15(5-7-17)21-13-20(41)25-19(40)11-16(38)12-23(25)53-21/h2-13,26-33,36-40,43-46H,1H3,(H,47,48)(H,49,50)/b9-3-/t26-,27-,28-,29-,30-,31-,32+,33+,36+,37-/m0/s1" "InChIKey=LNCLTICCQWMCNS-LDTVNHGTSA-N" "molecular formula=C37H34O20" "total exact mass=798.164343488" "SMILES=[H]OC(=O)C1([H])OC([H])(OC=2C([H])=C([H])C(=C([H])C2[H])C=3OC=4C([H])=C(O[H])C([H])=C(O[H])C4C(=O)C3[H])C([H])(OC5([H])OC([H])(C(=O)O[H])C([H])(O[H])C([H])(O[H])C5([H])OC(=O)C([H])=C([H])C6=C([H])C([H])=C(O[H])C(OC([H])([H])[H])=C6[H])C([H])(O[H])C1([H])O[H]"
Num Peaks: 17
 95 4.604605; 
 99 15.615616; 
 113 31.231231; 
 134 23.623624; 
 135 3.903904; 
 149 4.304304; 
 175 9.609610; 
 175 4.304304; 
 193 53.153153; 
 194 3.903904; 
 269 100.000000; 
 270 16.516517; 
 271 4.704705; 
 289 7.407407; 
 333 33.033033; 
 351 11.211211; 
 527 5.605606; 


Name: 4'-O-(2'-Z-Feruloyl GluA(1-2)GluA) Apigenin
SYNON: $:00in-source
DB#: MetaboBASE1119
InChIKey: LNCLTICCQWMCNS-LDTVNHGTSA-N
Spectrum_type: MS2
PrecursorMZ: 799.1398
Instrument_type: LC-ESI-TOF
Instrument: impact HD
Ion_mode: N
Collision_energy: 32.9806
InChIKey: LNCLTICCQWMCNS-LDTVNHGTSA-N
Formula: C37H34O20
MW: 798
ExactMass: 798.164343488
Comments: "license=License CC-BY-NC-SA 4.0 International" "author=Plant Biology, The Noble Foundation, Ardmore, OK, US/Dennis Fine, Daniel Wherritt, and Lloyd Sumner" "instrument type=LC-ESI-TOF" "instrument=impact HD" "ionization=ESI" "ionization mode=negative" "ms level=MS2" "precursor m/z=799.1398" "isolation width=9.19656" "collision energy=32.9806" "collision energy 2=54.9677" "peak width=0.015" "date=2014-09-25 17:23:44+02:00" "column=Waters Acquity BEH C18 1.7um x 2.1 x 150 mm" "retention time=540.6" "raw data file=C:\Data\Kota Kera\A-17 aerial extr dil MSMS pos _1-E,7_01_887.d" "Last Auto-Curation=1505111570276" "SMILES=c1(cc(c2c(c1)oc(cc2=O)c1ccc(cc1)O[C@@H]1O[C@@H]([C@H]([C@@H]([C@H]1O[C@H]1[C@@H]([C@H]([C@@H]([C@H](O1)C(=O)O)O)O)OC(=O)/C=C\c1cc(c(cc1)O)OC)O)O)C(=O)O)O)O" "InChI=InChI=1S/C37H34O20/c1-51-22-10-14(2-8-18(22)39)3-9-24(42)54-32-28(45)26(43)31(35(49)50)56-37(32)57-33-29(46)27(44)30(34(47)48)55-36(33)52-17-6-4-15(5-7-17)21-13-20(41)25-19(40)11-16(38)12-23(25)53-21/h2-13,26-33,36-40,43-46H,1H3,(H,47,48)(H,49,50)/b9-3-/t26-,27-,28-,29-,30-,31-,32+,33+,36+,37-/m0/s1" "InChIKey=LNCLTICCQWMCNS-LDTVNHGTSA-N" "molecular formula=C37H34O20" "total exact mass=798.164343488" "SMILES=[H]OC(=O)C1([H])OC([H])(OC=2C([H])=C([H])C(=C([H])C2[H])C=3OC=4C([H])=C(O[H])C([H])=C(O[H])C4C(=O)C3[H])C([H])(OC5([H])OC([H])(C(=O)O[H])C([H])(O[H])C([H])(O[H])C5([H])OC(=O)C([H])=C([H])C6=C([H])C([H])=C(O[H])C(OC([H])([H])[H])=C6[H])C([H])(O[H])C1([H])O[H]"
Num Peaks: 5
 260 17.817818; 
 271 100.000000; 
 272 17.417417; 
 353 9.909910; 
 447 6.906907; 


Name: 4'-O-(Glucuronyl-(1-3)-2'-E-Feruloyl-O-glucuronyl)-(1-2)-glucuronyl Apigenin
SYNON: $:00in-source
DB#: MetaboBASE1120
InChIKey: DZQSHMPRUIQXPF-LDHFKLKISA-N
Spectrum_type: MS2
PrecursorMZ: 975.1663
Instrument_type: LC-ESI-TOF
Instrument: impact HD
Ion_mode: N
Collision_energy: 36.9412
InChIKey: DZQSHMPRUIQXPF-LDHFKLKISA-N
Formula: C43H42O26
MW: 974
ExactMass: 974.1964314639999
Comments: "license=License CC-BY-NC-SA 4.0 International" "author=Plant Biology, The Noble Foundation, Ardmore, OK, US/Dennis Fine, Daniel Wherritt, and Lloyd Sumner" "instrument type=LC-ESI-TOF" "instrument=impact HD" "ionization=ESI" "ionization mode=negative" "ms level=MS2" "precursor m/z=975.1663" "isolation width=9.90067" "collision energy=36.9412" "collision energy 2=61.5687" "peak width=0.015" "date=2014-09-25 17:23:44+02:00" "column=Waters Acquity BEH C18 1.7um x 2.1 x 150 mm" "retention time=410.4" "raw data file=C:\Data\Kota Kera\A-17 aerial extr dil MSMS pos _1-E,7_01_887.d" "Last Auto-Curation=1505110252971" "SMILES=c1(cc(c2c(c1)oc(cc2=O)c1ccc(cc1)O[C@@H]1O[C@@H]([C@H]([C@@H]([C@H]1O[C@H]1[C@@H]([C@H]([C@@H]([C@H](O1)C(=O)O)O)O[C@H]1[C@@H]([C@H]([C@@H]([C@H](O1)C(=O)O)O)O)O)OC(=O)/C=C/c1ccc(c(c1)OC)O)O)O)C(=O)O)O)O" "InChI=InChI=1S/C43H42O26/c1-61-22-10-14(2-8-18(22)45)3-9-24(48)64-37-32(65-41-30(53)26(49)27(50)33(66-41)38(55)56)31(54)35(40(59)60)68-43(37)69-36-29(52)28(51)34(39(57)58)67-42(36)62-17-6-4-15(5-7-17)21-13-20(47)25-19(46)11-16(44)12-23(25)63-21/h2-13,26-37,41-46,49-54H,1H3,(H,55,56)(H,57,58)(H,59,60)/b9-3+/t26-,27-,28-,29-,30+,31-,32-,33-,34-,35-,36+,37+,41+,42+,43-/m0/s1" "InChIKey=DZQSHMPRUIQXPF-LDHFKLKISA-N" "molecular formula=C43H42O26" "total exact mass=974.1964314639999" "SMILES=[H]OC(=O)C1([H])OC([H])(OC2([H])C([H])(O[H])C([H])(OC([H])(OC3([H])C([H])(OC=4C([H])=C([H])C(=C([H])C4[H])C=5OC=6C([H])=C(O[H])C([H])=C(O[H])C6C(=O)C5[H])OC([H])(C(=O)O[H])C([H])(O[H])C3([H])O[H])C2([H])OC(=O)C([H])=C([H])C7=C([H])C([H])=C(O[H])C(OC([H])([H])[H])=C7[H])C(=O)O[H])C([H])(O[H])C([H])(O[H])C1([H])O[H]"
Num Peaks: 8
 260 43.743744; 
 271 100.000000; 
 272 17.717718; 
 335 15.515516; 
 353 40.940941; 
 447 21.521522; 
 529 9.809810; 
 799 17.517518; 


Name: 4'-O-(Glucuronyl-(1-3)-2'-E-Feruloyl-O-glucuronyl)-(1-2)-glucuronyl Apigenin
SYNON: $:00in-source
DB#: MetaboBASE1121
InChIKey: DZQSHMPRUIQXPF-LDHFKLKISA-N
Instrument_type: LC-ESI-TOF
Instrument: impact HD
Ion_mode: N
Collision_energy: 10
InChIKey: DZQSHMPRUIQXPF-LDHFKLKISA-N
Formula: C43H42O26
MW: 974
ExactMass: 974.1964314639999
Comments: "license=License CC-BY-NC-SA 4.0 International" "author=Plant Biology, The Noble Foundation, Ardmore, OK, US/Dennis Fine, Daniel Wherritt, and Lloyd Sumner" "instrument type=LC-ESI-TOF" "instrument=impact HD" "ionization=ESI" "ionization mode=negative" "collision energy=10" "peak width=0.017" "date=2014-09-03 23:40:07+02:00" "column=Waters Acquity BEH C18 1.7um x 2.1 x 150 mm" "retention time=410.4" "raw data file=C:\Data\Kota Kera\Kota Kera QToF 2Sept2014\A-17 aerial extr dil positive_1-F,1_01_732.d" "Last Auto-Curation=1505111002559" "SMILES=c1(cc(c2c(c1)oc(cc2=O)c1ccc(cc1)O[C@@H]1O[C@@H]([C@H]([C@@H]([C@H]1O[C@H]1[C@@H]([C@H]([C@@H]([C@H](O1)C(=O)O)O)O[C@H]1[C@@H]([C@H]([C@@H]([C@H](O1)C(=O)O)O)O)O)OC(=O)/C=C/c1ccc(c(c1)OC)O)O)O)C(=O)O)O)O" "InChI=InChI=1S/C43H42O26/c1-61-22-10-14(2-8-18(22)45)3-9-24(48)64-37-32(65-41-30(53)26(49)27(50)33(66-41)38(55)56)31(54)35(40(59)60)68-43(37)69-36-29(52)28(51)34(39(57)58)67-42(36)62-17-6-4-15(5-7-17)21-13-20(47)25-19(46)11-16(44)12-23(25)63-21/h2-13,26-37,41-46,49-54H,1H3,(H,55,56)(H,57,58)(H,59,60)/b9-3+/t26-,27-,28-,29-,30+,31-,32-,33-,34-,35-,36+,37+,41+,42+,43-/m0/s1" "InChIKey=DZQSHMPRUIQXPF-LDHFKLKISA-N" "molecular formula=C43H42O26" "total exact mass=974.1964314639999" "SMILES=[H]OC(=O)C1([H])OC([H])(OC2([H])C([H])(O[H])C([H])(OC([H])(OC3([H])C([H])(OC=4C([H])=C([H])C(=C([H])C4[H])C=5OC=6C([H])=C(O[H])C([H])=C(O[H])C6C(=O)C5[H])OC([H])(C(=O)O[H])C([H])(O[H])C3([H])O[H])C2([H])OC(=O)C([H])=C([H])C7=C([H])C([H])=C(O[H])C(OC([H])([H])[H])=C7[H])C(=O)O[H])C([H])(O[H])C([H])(O[H])C1([H])O[H]"
Num Peaks: 46
 271 4.804805; 
 271 1.301301; 
 343 1.101101; 
 360 1.001001; 
 360 10.810811; 
 415 7.207207; 
 416 1.401401; 
 441 8.308308; 
 442 2.002002; 
 447 6.906907; 
 455 4.604605; 
 463 1.701702; 
 471 1.201201; 
 495 2.802803; 
 524 1.201201; 
 559 3.003003; 
 563 1.101101; 
 589 11.011011; 
 590 3.703704; 
 619 7.407407; 
 624 1.601602; 
 629 4.204204; 
 630 1.501502; 
 659 4.404404; 
 659 1.701702; 
 667 3.203203; 
 668 1.801802; 
 674 1.201201; 
 681 3.803804; 
 799 2.602603; 
 800 1.401401; 
 945 12.412412; 
 946 5.705706; 
 947 1.901902; 
 961 7.507508; 
 962 1.901902; 
 967 1.201201; 
 975 100.000000; 
 976 48.748749; 
 977 16.716717; 
 978 4.204204; 
 997 7.807808; 
 998 1.101101; 
 998 2.302302; 
 1028 3.903904; 
 1029 1.901902; 


Name: 4'-O-(Glucuronyl-(1-3)-2'-E-Feruloyl-O-glucuronyl)-(1-2)-glucuronyl Apigenin
SYNON: $:00in-source
DB#: MetaboBASE1122
InChIKey: DZQSHMPRUIQXPF-LDHFKLKISA-N
Spectrum_type: MS2
PrecursorMZ: 973.2698
Instrument_type: LC-ESI-TOF
Instrument: impact HD
Ion_mode: N
Collision_energy: 55.247
InChIKey: DZQSHMPRUIQXPF-LDHFKLKISA-N
Formula: C43H42O26
MW: 974
ExactMass: 974.1964314639999
Comments: "license=License CC-BY-NC-SA 4.0 International" "author=Plant Biology, The Noble Foundation, Ardmore, OK, US/Dennis Fine, Daniel Wherritt, and Lloyd Sumner" "instrument type=LC-ESI-TOF" "instrument=impact HD" "ionization=ESI" "ionization mode=negative" "ms level=MS2" "precursor m/z=973.2698" "collision energy=55.247" "collision energy 2=92.0782" "peak width=0.018" "date=2014-09-03 22:58:48+02:00" "column=Waters Acquity BEH C18 1.7um x 2.1 x 150 mm" "retention time=410.4" "raw data file=C:\Data\Kota Kera\A-17 aerial extr dil MSMS_1-F,1_01_731.d" "Last Auto-Curation=1505111328598" "SMILES=c1(cc(c2c(c1)oc(cc2=O)c1ccc(cc1)O[C@@H]1O[C@@H]([C@H]([C@@H]([C@H]1O[C@H]1[C@@H]([C@H]([C@@H]([C@H](O1)C(=O)O)O)O[C@H]1[C@@H]([C@H]([C@@H]([C@H](O1)C(=O)O)O)O)O)OC(=O)/C=C/c1ccc(c(c1)OC)O)O)O)C(=O)O)O)O" "InChI=InChI=1S/C43H42O26/c1-61-22-10-14(2-8-18(22)45)3-9-24(48)64-37-32(65-41-30(53)26(49)27(50)33(66-41)38(55)56)31(54)35(40(59)60)68-43(37)69-36-29(52)28(51)34(39(57)58)67-42(36)62-17-6-4-15(5-7-17)21-13-20(47)25-19(46)11-16(44)12-23(25)63-21/h2-13,26-37,41-46,49-54H,1H3,(H,55,56)(H,57,58)(H,59,60)/b9-3+/t26-,27-,28-,29-,30+,31-,32-,33-,34-,35-,36+,37+,41+,42+,43-/m0/s1" "InChIKey=DZQSHMPRUIQXPF-LDHFKLKISA-N" "molecular formula=C43H42O26" "total exact mass=974.1964314639999" "SMILES=[H]OC(=O)C1([H])OC([H])(OC2([H])C([H])(O[H])C([H])(OC([H])(OC3([H])C([H])(OC=4C([H])=C([H])C(=C([H])C4[H])C=5OC=6C([H])=C(O[H])C([H])=C(O[H])C6C(=O)C5[H])OC([H])(C(=O)O[H])C([H])(O[H])C3([H])O[H])C2([H])OC(=O)C([H])=C([H])C7=C([H])C([H])=C(O[H])C(OC([H])([H])[H])=C7[H])C(=O)O[H])C([H])(O[H])C([H])(O[H])C1([H])O[H]"
Num Peaks: 33
 95 2.202202; 
 99 11.811812; 
 101 2.202202; 
 103 4.104104; 
 113 37.637638; 
 114 2.502503; 
 131 2.202202; 
 133 2.102102; 
 134 3.603604; 
 139 2.602603; 
 157 8.408408; 
 175 9.109109; 
 193 19.219219; 
 269 43.743744; 
 270 5.105105; 
 289 5.205205; 
 333 11.011011; 
 351 31.731732; 
 352 4.604605; 
 393 3.103103; 
 447 4.904905; 
 465 8.308308; 
 483 2.102102; 
 491 2.002002; 
 509 100.000000; 
 510 18.918919; 
 511 4.104104; 
 527 28.628629; 
 528 5.405405; 
 529 2.002002; 
 703 19.319319; 
 704 5.205205; 
 779 4.404404; 


Name: 4'-O-(2'-Z-Coumaroyl GluA)(1-2)GluA) Apigenin
SYNON: $:00in-source
DB#: MetaboBASE1123
InChIKey: NCJNNMWJQIKYLO-WYFUIKBSSA-N
Spectrum_type: MS2
PrecursorMZ: 269.0446
Instrument_type: LC-ESI-TOF
Instrument: impact HD
Ion_mode: N
Collision_energy: 24.5091
InChIKey: NCJNNMWJQIKYLO-WYFUIKBSSA-N
Formula: C36H32O19
MW: 768
ExactMass: 768.153778804
Comments: "license=License CC-BY-NC-SA 4.0 International" "author=Plant Biology, The Noble Foundation, Ardmore, OK, US/Dennis Fine, Daniel Wherritt, and Lloyd Sumner" "instrument type=LC-ESI-TOF" "instrument=impact HD" "ionization=ESI" "ionization mode=negative" "ms level=MS2" "precursor m/z=269.0446" "collision energy=24.5091" "collision energy 2=40.8485" "peak width=0.013" "date=2014-12-12 20:57:07+01:00" "column=Waters Acquity BEH C18 1.7um x 2.1 x 150 mm" "retention time=517.8" "raw data file=C:\Data\Noble-Bruker MS libr eval complex mix\2014Dec_A17 aer rt mix MSMS_1-A,2_01_1447.d" "Last Auto-Curation=1505110253939" "SMILES=c1(cc(c2c(c1)oc(cc2=O)c1ccc(cc1)O[C@@H]1O[C@@H]([C@H]([C@@H]([C@H]1O[C@H]1[C@@H]([C@H]([C@@H]([C@H](O1)C(=O)O)O)O)OC(=O)/C=C\c1ccc(cc1)O)O)O)C(=O)O)O)O" "InChI=InChI=1S/C36H32O19/c37-16-6-1-14(2-7-16)3-10-23(41)52-31-27(44)25(42)30(34(48)49)54-36(31)55-32-28(45)26(43)29(33(46)47)53-35(32)50-18-8-4-15(5-9-18)21-13-20(40)24-19(39)11-17(38)12-22(24)51-21/h1-13,25-32,35-39,42-45H,(H,46,47)(H,48,49)/b10-3-/t25-,26-,27-,28-,29-,30-,31+,32+,35+,36-/m0/s1" "InChIKey=NCJNNMWJQIKYLO-WYFUIKBSSA-N" "molecular formula=C36H32O19" "total exact mass=768.153778804" "SMILES=[H]OC(=O)C1([H])OC([H])(OC=2C([H])=C([H])C(=C([H])C2[H])C=3OC=4C([H])=C(O[H])C([H])=C(O[H])C4C(=O)C3[H])C([H])(OC5([H])OC([H])(C(=O)O[H])C([H])(O[H])C([H])(O[H])C5([H])OC(=O)C([H])=C([H])C6=C([H])C([H])=C(O[H])C([H])=C6[H])C([H])(O[H])C1([H])O[H]"
Num Peaks: 3
 117 6.306306; 
 269 100.000000; 
 1107 3.803804; 


Name: 4'-O-(2'-Z-Coumaroyl GluA)(1-2)GluA) Apigenin
SYNON: $:00in-source
DB#: MetaboBASE1124
InChIKey: NCJNNMWJQIKYLO-WYFUIKBSSA-N
Spectrum_type: MS2
PrecursorMZ: 767.1554
Instrument_type: LC-ESI-TOF
Instrument: impact HD
Ion_mode: N
Collision_energy: 47.5199
InChIKey: NCJNNMWJQIKYLO-WYFUIKBSSA-N
Formula: C36H32O19
MW: 768
ExactMass: 768.153778804
Comments: "license=License CC-BY-NC-SA 4.0 International" "author=Plant Biology, The Noble Foundation, Ardmore, OK, US/Dennis Fine, Daniel Wherritt, and Lloyd Sumner" "instrument type=LC-ESI-TOF" "instrument=impact HD" "ionization=ESI" "ionization mode=negative" "ms level=MS2" "precursor m/z=767.1554" "collision energy=47.5199" "collision energy 2=79.1998" "peak width=0.016" "date=2014-12-12 20:57:07+01:00" "column=Waters Acquity BEH C18 1.7um x 2.1 x 150 mm" "retention time=517.8" "raw data file=C:\Data\Noble-Bruker MS libr eval complex mix\2014Dec_A17 aer rt mix MSMS_1-A,2_01_1447.d" "Last Auto-Curation=1505111002784" "SMILES=c1(cc(c2c(c1)oc(cc2=O)c1ccc(cc1)O[C@@H]1O[C@@H]([C@H]([C@@H]([C@H]1O[C@H]1[C@@H]([C@H]([C@@H]([C@H](O1)C(=O)O)O)O)OC(=O)/C=C\c1ccc(cc1)O)O)O)C(=O)O)O)O" "InChI=InChI=1S/C36H32O19/c37-16-6-1-14(2-7-16)3-10-23(41)52-31-27(44)25(42)30(34(48)49)54-36(31)55-32-28(45)26(43)29(33(46)47)53-35(32)50-18-8-4-15(5-9-18)21-13-20(40)24-19(39)11-17(38)12-22(24)51-21/h1-13,25-32,35-39,42-45H,(H,46,47)(H,48,49)/b10-3-/t25-,26-,27-,28-,29-,30-,31+,32+,35+,36-/m0/s1" "InChIKey=NCJNNMWJQIKYLO-WYFUIKBSSA-N" "molecular formula=C36H32O19" "total exact mass=768.153778804" "SMILES=[H]OC(=O)C1([H])OC([H])(OC=2C([H])=C([H])C(=C([H])C2[H])C=3OC=4C([H])=C(O[H])C([H])=C(O[H])C4C(=O)C3[H])C([H])(OC5([H])OC([H])(C(=O)O[H])C([H])(O[H])C([H])(O[H])C5([H])OC(=O)C([H])=C([H])C6=C([H])C([H])=C(O[H])C([H])=C6[H])C([H])(O[H])C1([H])O[H]"
Num Peaks: 8
 99 19.519520; 
 113 25.825826; 
 119 31.731732; 
 163 55.755756; 
 269 100.000000; 
 270 14.314314; 
 333 28.728729; 
 351 17.717718; 


Name: 4'-O-(2'-Z-Coumaroyl GluA)(1-2)GluA) Apigenin
SYNON: $:00in-source
DB#: MetaboBASE1125
InChIKey: NCJNNMWJQIKYLO-WYFUIKBSSA-N
Instrument_type: LC-ESI-TOF
Instrument: impact HD
Ion_mode: N
InChIKey: NCJNNMWJQIKYLO-WYFUIKBSSA-N
Formula: C36H32O19
MW: 768
ExactMass: 768.153778804
Comments: "license=License CC-BY-NC-SA 4.0 International" "author=Plant Biology, The Noble Foundation, Ardmore, OK, US/Dennis Fine, Daniel Wherritt, and Lloyd Sumner" "instrument type=LC-ESI-TOF" "instrument=impact HD" "ionization=ESI" "ionization mode=negative" "peak width=0.015" "date=2014-12-12 20:57:07+01:00" "column=Waters Acquity BEH C18 1.7um x 2.1 x 150 mm" "retention time=517.8" "raw data file=C:\Data\Noble-Bruker MS libr eval complex mix\2014Dec_A17 aer rt mix MSMS_1-A,2_01_1447.d" "Last Auto-Curation=1505110254366" "SMILES=c1(cc(c2c(c1)oc(cc2=O)c1ccc(cc1)O[C@@H]1O[C@@H]([C@H]([C@@H]([C@H]1O[C@H]1[C@@H]([C@H]([C@@H]([C@H](O1)C(=O)O)O)O)OC(=O)/C=C\c1ccc(cc1)O)O)O)C(=O)O)O)O" "InChI=InChI=1S/C36H32O19/c37-16-6-1-14(2-7-16)3-10-23(41)52-31-27(44)25(42)30(34(48)49)54-36(31)55-32-28(45)26(43)29(33(46)47)53-35(32)50-18-8-4-15(5-9-18)21-13-20(40)24-19(39)11-17(38)12-22(24)51-21/h1-13,25-32,35-39,42-45H,(H,46,47)(H,48,49)/b10-3-/t25-,26-,27-,28-,29-,30-,31+,32+,35+,36-/m0/s1" "InChIKey=NCJNNMWJQIKYLO-WYFUIKBSSA-N" "molecular formula=C36H32O19" "total exact mass=768.153778804" "SMILES=[H]OC(=O)C1([H])OC([H])(OC=2C([H])=C([H])C(=C([H])C2[H])C=3OC=4C([H])=C(O[H])C([H])=C(O[H])C4C(=O)C3[H])C([H])(OC5([H])OC([H])(C(=O)O[H])C([H])(O[H])C([H])(O[H])C5([H])OC(=O)C([H])=C([H])C6=C([H])C([H])=C(O[H])C([H])=C6[H])C([H])(O[H])C1([H])O[H]"
Num Peaks: 39
 116 0.800801; 
 269 34.534535; 
 270 5.605606; 
 271 0.100100; 
 313 0.900901; 
 333 4.004004; 
 343 1.001001; 
 343 0.600601; 
 351 2.902903; 
 352 0.100100; 
 371 1.701702; 
 405 2.702703; 
 405 0.500501; 
 406 0.100100; 
 413 0.200200; 
 413 1.601602; 
 497 8.008008; 
 497 0.100100; 
 498 0.500501; 
 529 1.201201; 
 561 1.701702; 
 562 0.100100; 
 585 1.301301; 
 586 0.100100; 
 767 100.000000; 
 767 0.200200; 
 768 40.240240; 
 768 0.100100; 
 769 12.212212; 
 770 3.103103; 
 789 14.114114; 
 790 6.206206; 
 791 1.001001; 
 799 1.301301; 
 800 0.200200; 
 867 4.504505; 
 868 1.601602; 
 1103 2.302302; 
 1104 0.100100; 


Name: 4'-O-(2'-Z-Coumaroyl GluA)(1-2)GluA) Apigenin
SYNON: $:00in-source
DB#: MetaboBASE1126
InChIKey: NCJNNMWJQIKYLO-WYFUIKBSSA-N
Instrument_type: LC-ESI-TOF
Instrument: impact HD
Ion_mode: N
InChIKey: NCJNNMWJQIKYLO-WYFUIKBSSA-N
Formula: C36H32O19
MW: 768
ExactMass: 768.153778804
Comments: "license=License CC-BY-NC-SA 4.0 International" "author=Plant Biology, The Noble Foundation, Ardmore, OK, US/Dennis Fine, Daniel Wherritt, and Lloyd Sumner" "instrument type=LC-ESI-TOF" "instrument=impact HD" "ionization=ESI" "ionization mode=negative" "peak width=0.0082" "date=2014-09-03 22:58:48+02:00" "column=Waters Acquity BEH C18 1.7um x 2.1 x 150 mm" "retention time=517.8" "raw data file=C:\Data\Kota Kera\A-17 aerial extr dil MSMS_1-F,1_01_731.d" "Last Auto-Curation=1505111488183" "SMILES=c1(cc(c2c(c1)oc(cc2=O)c1ccc(cc1)O[C@@H]1O[C@@H]([C@H]([C@@H]([C@H]1O[C@H]1[C@@H]([C@H]([C@@H]([C@H](O1)C(=O)O)O)O)OC(=O)/C=C\c1ccc(cc1)O)O)O)C(=O)O)O)O" "InChI=InChI=1S/C36H32O19/c37-16-6-1-14(2-7-16)3-10-23(41)52-31-27(44)25(42)30(34(48)49)54-36(31)55-32-28(45)26(43)29(33(46)47)53-35(32)50-18-8-4-15(5-9-18)21-13-20(40)24-19(39)11-17(38)12-22(24)51-21/h1-13,25-32,35-39,42-45H,(H,46,47)(H,48,49)/b10-3-/t25-,26-,27-,28-,29-,30-,31+,32+,35+,36-/m0/s1" "InChIKey=NCJNNMWJQIKYLO-WYFUIKBSSA-N" "molecular formula=C36H32O19" "total exact mass=768.153778804" "SMILES=[H]OC(=O)C1([H])OC([H])(OC=2C([H])=C([H])C(=C([H])C2[H])C=3OC=4C([H])=C(O[H])C([H])=C(O[H])C4C(=O)C3[H])C([H])(OC5([H])OC([H])(C(=O)O[H])C([H])(O[H])C([H])(O[H])C5([H])OC(=O)C([H])=C([H])C6=C([H])C([H])=C(O[H])C([H])=C6[H])C([H])(O[H])C1([H])O[H]"
Num Peaks: 25
 269 43.743744; 
 270 7.407407; 
 357 24.924925; 
 358 5.605606; 
 431 6.106106; 
 467 13.313313; 
 497 9.009009; 
 509 5.805806; 
 513 5.105105; 
 517 16.616617; 
 518 5.005005; 
 556 12.612613; 
 559 9.709710; 
 561 40.140140; 
 562 14.214214; 
 680 34.734735; 
 681 28.828829; 
 682 10.710711; 
 703 20.320320; 
 704 8.908909; 
 724 5.305305; 
 767 100.000000; 
 768 38.538539; 
 769 12.712713; 
 789 9.509510; 


Name: 7-O-(2'-Feruloylglucuronyl)-(1-2)-glucuronyl Apigenin
SYNON: $:00in-source
DB#: MetaboBASE1127
InChIKey: TVHAXOXLQDESPI-OJBICJBZSA-N
Instrument_type: LC-ESI-TOF
Instrument: impact HD
Ion_mode: N
Collision_energy: 10
InChIKey: TVHAXOXLQDESPI-OJBICJBZSA-N
Formula: C37H34O20
MW: 798
ExactMass: 798.164343488
Comments: "license=License CC-BY-NC-SA 4.0 International" "author=Plant Biology, The Noble Foundation, Ardmore, OK, US/Dennis Fine, Daniel Wherritt, and Lloyd Sumner" "instrument type=LC-ESI-TOF" "instrument=impact HD" "ionization=ESI" "ionization mode=negative" "collision energy=10" "peak width=0.0085" "date=2014-01-23 23:40:08+01:00" "column=Waters Acquity BEH C18 1.7um x 2.1 x 150 mm" "retention time=414" "raw data file=C:\Data\Chan Man Ha\CCR1 20634 leaf Homo-1.d" "Last Auto-Curation=1505111002984" "SMILES=O=c1c2c(oc(c1)c1ccc(cc1)O)cc(cc2O)O[C@@H]1O[C@@H]([C@H]([C@@H]([C@H]1O[C@H]1[C@@H]([C@H]([C@@H]([C@H](O1)C(=O)O)O)O)OC(=O)/C=C/c1ccc(c(c1)OC)O)O)O)C(=O)O" "InChI=InChI=1S/C37H34O20/c1-51-22-10-14(2-8-18(22)39)3-9-24(42)54-32-28(45)26(43)31(35(49)50)56-37(32)57-33-29(46)27(44)30(34(47)48)55-36(33)52-17-11-19(40)25-20(41)13-21(53-23(25)12-17)15-4-6-16(38)7-5-15/h2-13,26-33,36-40,43-46H,1H3,(H,47,48)(H,49,50)/b9-3+/t26-,27-,28-,29-,30-,31-,32+,33+,36+,37-/m0/s1" "InChIKey=TVHAXOXLQDESPI-OJBICJBZSA-N" "molecular formula=C37H34O20" "total exact mass=798.164343488" "SMILES=[H]OC(=O)C1([H])OC([H])(OC2=C([H])C(O[H])=C3C(=O)C([H])=C(OC3=C2[H])C=4C([H])=C([H])C(O[H])=C([H])C4[H])C([H])(OC5([H])OC([H])(C(=O)O[H])C([H])(O[H])C([H])(O[H])C5([H])OC(=O)C([H])=C([H])C6=C([H])C([H])=C(O[H])C(OC([H])([H])[H])=C6[H])C([H])(O[H])C1([H])O[H]"
Num Peaks: 15
 269 2.302302; 
 527 3.403403; 
 528 0.700701; 
 556 1.001001; 
 597 1.401401; 
 767 3.003003; 
 768 1.001001; 
 781 0.700701; 
 796 0.600601; 
 797 100.000000; 
 798 40.240240; 
 799 11.311311; 
 800 1.901902; 
 819 2.202202; 
 820 0.800801; 


Name: 3-(Rha(1-2)Glu(1-2)Glu-28-Glu oleanolic acid
SYNON: $:00in-source
DB#: MetaboBASE1128
InChIKey: NQRGKZPCORAPOM-LRUKXMSVSA-N
Precursor_type: [M-H]-
Spectrum_type: MS2
PrecursorMZ: 1087.639
Instrument_type: LC-ESI-TOF
Instrument: impact HD
Ion_mode: N
Collision_energy: 59.5365
InChIKey: NQRGKZPCORAPOM-LRUKXMSVSA-N
Formula: C54H88O22
MW: 1088
ExactMass: 1088.576724456
Comments: "license=License CC-BY-NC-SA 4.0 International" "author=Plant Biology, The Noble Foundation, Ardmore, OK, US/Dennis Fine, Daniel Wherritt, and Lloyd Sumner" "instrument type=LC-ESI-TOF" "instrument=impact HD" "ionization=ESI" "ionization mode=negative" "ms level=MS2" "precursor m/z=1087.639" "isolation width=10.8764" "collision energy=59.5365" "collision energy 2=99.2274" "peak width=0.018" "date=2014-06-03 20:53:11+02:00" "column=Waters Acquity BEH C18 1.7um x 2.1 x 150 mm" "retention time=861.6" "raw data file=C:\Data\BWatson\14Jun03_BW_HR1-D_MSMS_2-A,1_01_198.d" "precursor type=[M-H]-" "mass accuracy=63.94726926855151" "mass error=0.0695515439999781" "SMILES=C1[C@@H](C(C2[C@](C1)(C1[C@@](CC2)([C@]2(C(=CC1)[C@H]1[C@@](CC2)(CCC(C1)(C)C)C(=O)O[C@H]1[C@@H]([C@H]([C@@H]([C@H](O1)CO)O)O)O)C)C)C)(C)C)O[C@@H]1O[C@@H]([C@H]([C@@H]([C@H]1O[C@@H]1O[C@@H]([C@H]([C@@H]([C@H]1O[C@@H]1O[C@H]([C@@H]([C@H]([C@H]1O)O)O)C)O)O)CO)O)O)CO" "InChI=InChI=1S/C54H88O22/c1-23-32(58)36(62)40(66)44(69-23)74-43-39(65)35(61)28(22-57)72-47(43)75-42-38(64)34(60)27(21-56)71-46(42)73-31-12-13-51(6)29(50(31,4)5)11-14-53(8)30(51)10-9-24-25-19-49(2,3)15-17-54(25,18-16-52(24,53)7)48(68)76-45-41(67)37(63)33(59)26(20-55)70-45/h9,23,25-47,55-67H,10-22H2,1-8H3/t23-,25-,26+,27+,28+,29?,30?,31-,32-,33+,34+,35+,36+,37-,38-,39-,40+,41+,42+,43+,44-,45-,46-,47-,51-,52+,53+,54-/m0/s1" "InChIKey=NQRGKZPCORAPOM-LRUKXMSVSA-N" "molecular formula=C54H88O22" "total exact mass=1088.576724456" "SMILES=C1C(C(C2C(C1)(C3C(CC2)(C4(C(=CC3)C5C(CC4)(CCC(C5)(C)C)C(OC6C(C(C(C(O6)CO)O)O)O)=O)C)C)C)(C)C)OC7OC(C(C(C7OC8OC(C(C(C8OC9OC(C(C(C9O)O)O)C)O)O)CO)O)O)CO"
Num Peaks: 3
 617 80.280280; 
 779 89.989990; 
 925 100.000000; 


Name: 3-(Rha(1-2)Glu(1-2)Glu-28-Glu oleanolic acid
SYNON: $:00in-source
DB#: MetaboBASE1129
InChIKey: NQRGKZPCORAPOM-LRUKXMSVSA-N
Instrument_type: LC-ESI-TOF
Instrument: impact HD
Ion_mode: N
Collision_energy: 10
InChIKey: NQRGKZPCORAPOM-LRUKXMSVSA-N
Formula: C54H88O22
MW: 1088
ExactMass: 1088.576724456
Comments: "license=License CC-BY-NC-SA 4.0 International" "author=Plant Biology, The Noble Foundation, Ardmore, OK, US/Dennis Fine, Daniel Wherritt, and Lloyd Sumner" "instrument type=LC-ESI-TOF" "instrument=impact HD" "ionization=ESI" "ionization mode=negative" "collision energy=10" "peak width=0.016" "date=2014-11-14 00:11:23+01:00" "column=Waters Acquity BEH C18 1.7um x 2.1 x 150 mm" "retention time=861.6" "raw data file=C:\Data\2014Nov12_A-17 aerial root MS MSMS\A-17 root MS_1-A,3_01_1226.d" "SMILES=C1[C@@H](C(C2[C@](C1)(C1[C@@](CC2)([C@]2(C(=CC1)[C@H]1[C@@](CC2)(CCC(C1)(C)C)C(=O)O[C@H]1[C@@H]([C@H]([C@@H]([C@H](O1)CO)O)O)O)C)C)C)(C)C)O[C@@H]1O[C@@H]([C@H]([C@@H]([C@H]1O[C@@H]1O[C@@H]([C@H]([C@@H]([C@H]1O[C@@H]1O[C@H]([C@@H]([C@H]([C@H]1O)O)O)C)O)O)CO)O)O)CO" "InChI=InChI=1S/C54H88O22/c1-23-32(58)36(62)40(66)44(69-23)74-43-39(65)35(61)28(22-57)72-47(43)75-42-38(64)34(60)27(21-56)71-46(42)73-31-12-13-51(6)29(50(31,4)5)11-14-53(8)30(51)10-9-24-25-19-49(2,3)15-17-54(25,18-16-52(24,53)7)48(68)76-45-41(67)37(63)33(59)26(20-55)70-45/h9,23,25-47,55-67H,10-22H2,1-8H3/t23-,25-,26+,27+,28+,29?,30?,31-,32-,33+,34+,35+,36+,37-,38-,39-,40+,41+,42+,43+,44-,45-,46-,47-,51-,52+,53+,54-/m0/s1" "InChIKey=NQRGKZPCORAPOM-LRUKXMSVSA-N" "molecular formula=C54H88O22" "total exact mass=1088.576724456" "SMILES=C1C(C(C2C(C1)(C3C(CC2)(C4(C(=CC3)C5C(CC4)(CCC(C5)(C)C)C(OC6C(C(C(C(O6)CO)O)O)O)=O)C)C)C)(C)C)OC7OC(C(C(C7OC8OC(C(C(C8OC9OC(C(C(C9O)O)O)C)O)O)CO)O)O)CO"
Num Peaks: 52
 112 0.700701; 
 116 1.501502; 
 128 2.202202; 
 174 1.301301; 
 462 0.700701; 
 556 7.607608; 
 566 21.421421; 
 566 12.712713; 
 567 5.305305; 
 589 5.805806; 
 589 3.603604; 
 765 1.001001; 
 865 7.007007; 
 866 3.403403; 
 867 0.900901; 
 925 8.708709; 
 926 5.305305; 
 927 2.002002; 
 928 1.001001; 
 955 20.520521; 
 955 1.101101; 
 956 11.211211; 
 957 4.204204; 
 971 1.301301; 
 973 10.110110; 
 974 5.005005; 
 998 0.900901; 
 998 2.002002; 
 1021 2.602603; 
 1022 2.902903; 
 1030 0.900901; 
 1031 1.901902; 
 1044 4.404404; 
 1045 4.804805; 
 1045 1.801802; 
 1087 23.123123; 
 1088 14.014014; 
 1089 5.205205; 
 1110 4.504505; 
 1111 5.505506; 
 1111 3.803804; 
 1112 0.900901; 
 1123 4.204204; 
 1124 1.501502; 
 1125 2.502503; 
 1133 100.000000; 
 1134 5.005005; 
 1134 62.462462; 
 1135 0.900901; 
 1135 25.225225; 
 1136 6.906907; 
 1137 1.201201; 


Name: 3-(Rha(1-2)Glu(1-2)Glu-28-Glu oleanolic acid
SYNON: $:00in-source
DB#: MetaboBASE1130
InChIKey: NQRGKZPCORAPOM-LRUKXMSVSA-N
Instrument_type: LC-ESI-TOF
Instrument: impact HD
Ion_mode: N
InChIKey: NQRGKZPCORAPOM-LRUKXMSVSA-N
Formula: C54H88O22
MW: 1088
ExactMass: 1088.576724456
Comments: "license=License CC-BY-NC-SA 4.0 International" "author=Plant Biology, The Noble Foundation, Ardmore, OK, US/Dennis Fine, Daniel Wherritt, and Lloyd Sumner" "instrument type=LC-ESI-TOF" "instrument=impact HD" "ionization=ESI" "ionization mode=negative" "peak width=0.016" "date=2014-06-03 20:53:11+02:00" "column=Waters Acquity BEH C18 1.7um x 2.1 x 150 mm" "retention time=861.6" "raw data file=C:\Data\BWatson\14Jun03_BW_HR1-D_MSMS_2-A,1_01_198.d" "SMILES=C1[C@@H](C(C2[C@](C1)(C1[C@@](CC2)([C@]2(C(=CC1)[C@H]1[C@@](CC2)(CCC(C1)(C)C)C(=O)O[C@H]1[C@@H]([C@H]([C@@H]([C@H](O1)CO)O)O)O)C)C)C)(C)C)O[C@@H]1O[C@@H]([C@H]([C@@H]([C@H]1O[C@@H]1O[C@@H]([C@H]([C@@H]([C@H]1O[C@@H]1O[C@H]([C@@H]([C@H]([C@H]1O)O)O)C)O)O)CO)O)O)CO" "InChI=InChI=1S/C54H88O22/c1-23-32(58)36(62)40(66)44(69-23)74-43-39(65)35(61)28(22-57)72-47(43)75-42-38(64)34(60)27(21-56)71-46(42)73-31-12-13-51(6)29(50(31,4)5)11-14-53(8)30(51)10-9-24-25-19-49(2,3)15-17-54(25,18-16-52(24,53)7)48(68)76-45-41(67)37(63)33(59)26(20-55)70-45/h9,23,25-47,55-67H,10-22H2,1-8H3/t23-,25-,26+,27+,28+,29?,30?,31-,32-,33+,34+,35+,36+,37-,38-,39-,40+,41+,42+,43+,44-,45-,46-,47-,51-,52+,53+,54-/m0/s1" "InChIKey=NQRGKZPCORAPOM-LRUKXMSVSA-N" "molecular formula=C54H88O22" "total exact mass=1088.576724456" "SMILES=C1C(C(C2C(C1)(C3C(CC2)(C4(C(=CC3)C5C(CC4)(CCC(C5)(C)C)C(OC6C(C(C(C(O6)CO)O)O)O)=O)C)C)C)(C)C)OC7OC(C(C(C7OC8OC(C(C(C8OC9OC(C(C(C9O)O)O)C)O)O)CO)O)O)CO"
Num Peaks: 24
 128 4.704705; 
 566 18.518519; 
 566 12.112112; 
 925 17.417417; 
 926 10.010010; 
 953 7.107107; 
 955 20.020020; 
 956 9.509510; 
 973 4.904905; 
 1087 28.728729; 
 1088 19.219219; 
 1089 7.707708; 
 1110 6.406406; 
 1111 7.807808; 
 1111 5.805806; 
 1133 100.000000; 
 1134 4.704705; 
 1134 63.563564; 
 1135 26.326326; 
 1136 6.506507; 
 1201 6.806807; 
 1205 5.005005; 
 1216 10.010010; 
 1217 7.207207; 


Name: 3-(Rha(1-2)Glu(1-2)Glu-28-Glu oleanolic acid
SYNON: $:00in-source
DB#: MetaboBASE1131
InChIKey: NQRGKZPCORAPOM-LRUKXMSVSA-N
Precursor_type: [M+FA-H]-
Spectrum_type: MS2
PrecursorMZ: 1133.65
Instrument_type: LC-ESI-TOF
Instrument: impact HD
Ion_mode: N
Collision_energy: 61.2619
InChIKey: NQRGKZPCORAPOM-LRUKXMSVSA-N
Formula: C54H88O22
MW: 1088
ExactMass: 1088.576724456
Comments: "license=License CC-BY-NC-SA 4.0 International" "author=Plant Biology, The Noble Foundation, Ardmore, OK, US/Dennis Fine, Daniel Wherritt, and Lloyd Sumner" "instrument type=LC-ESI-TOF" "instrument=impact HD" "ionization=ESI" "ionization mode=negative" "ms level=MS2" "precursor m/z=1133.65" "isolation width=11.3365" "collision energy=61.2619" "collision energy 2=102.103" "peak width=0.016" "date=2014-06-03 20:53:11+02:00" "column=Waters Acquity BEH C18 1.7um x 2.1 x 150 mm" "retention time=861.6" "raw data file=C:\Data\BWatson\14Jun03_BW_HR1-D_MSMS_2-A,1_01_198.d" "precursor type=[M+FA-H]-" "mass accuracy=66.22374101355562" "mass error=0.07507454400001734" "SMILES=C1[C@@H](C(C2[C@](C1)(C1[C@@](CC2)([C@]2(C(=CC1)[C@H]1[C@@](CC2)(CCC(C1)(C)C)C(=O)O[C@H]1[C@@H]([C@H]([C@@H]([C@H](O1)CO)O)O)O)C)C)C)(C)C)O[C@@H]1O[C@@H]([C@H]([C@@H]([C@H]1O[C@@H]1O[C@@H]([C@H]([C@@H]([C@H]1O[C@@H]1O[C@H]([C@@H]([C@H]([C@H]1O)O)O)C)O)O)CO)O)O)CO" "InChI=InChI=1S/C54H88O22/c1-23-32(58)36(62)40(66)44(69-23)74-43-39(65)35(61)28(22-57)72-47(43)75-42-38(64)34(60)27(21-56)71-46(42)73-31-12-13-51(6)29(50(31,4)5)11-14-53(8)30(51)10-9-24-25-19-49(2,3)15-17-54(25,18-16-52(24,53)7)48(68)76-45-41(67)37(63)33(59)26(20-55)70-45/h9,23,25-47,55-67H,10-22H2,1-8H3/t23-,25-,26+,27+,28+,29?,30?,31-,32-,33+,34+,35+,36+,37-,38-,39-,40+,41+,42+,43+,44-,45-,46-,47-,51-,52+,53+,54-/m0/s1" "InChIKey=NQRGKZPCORAPOM-LRUKXMSVSA-N" "molecular formula=C54H88O22" "total exact mass=1088.576724456" "SMILES=C1C(C(C2C(C1)(C3C(CC2)(C4(C(=CC3)C5C(CC4)(CCC(C5)(C)C)C(OC6C(C(C(C(O6)CO)O)O)O)=O)C)C)C)(C)C)OC7OC(C(C(C7OC8OC(C(C(C8OC9OC(C(C(C9O)O)O)C)O)O)CO)O)O)CO"
Num Peaks: 11
 455 25.825826; 
 456 6.706707; 
 599 7.907908; 
 617 40.340340; 
 618 16.616617; 
 761 10.110110; 
 779 41.841842; 
 780 20.620621; 
 925 100.000000; 
 926 55.055055; 
 927 18.418418; 


Name: 3-Rha-Gal-GluA-22-DDMP Soyasaponenol B
SYNON: $:00in-source
DB#: MetaboBASE1132
InChIKey: ONAAMCDHQSWPDU-NVXZJFILSA-N
Precursor_type: [M+FA-H]-
Spectrum_type: MS2
PrecursorMZ: 1113.549
Instrument_type: LC-ESI-TOF
Instrument: impact HD
Ion_mode: N
Collision_energy: 60.5081
InChIKey: ONAAMCDHQSWPDU-NVXZJFILSA-N
Formula: C54H84O21
MW: 1068
ExactMass: 1068.550509708
Comments: "license=License CC-BY-NC-SA 4.0 International" "author=Plant Biology, The Noble Foundation, Ardmore, OK, US/Dennis Fine, Daniel Wherritt, and Lloyd Sumner" "instrument type=LC-ESI-TOF" "instrument=impact HD" "ionization=ESI" "ionization mode=negative" "ms level=MS2" "precursor m/z=1113.549" "collision energy=60.5081" "collision energy 2=100.847" "peak width=0.024" "date=2014-11-20 07:21:14+01:00" "column=Waters Acquity BEH C18 1.7um x 2.1 x 150 mm" "retention time=1143.6" "raw data file=C:\Data\2014Nov12_A-17 aerial root MS MSMS\A-17 root better MSMS_1-A,3_01_1296.d" "precursor type=[M+FA-H]-" "mass accuracy=0.2597927885831641" "mass error=2.892919999339938E-4" "SMILES=C1[C@@H]([C@@](C2[C@](C1)(C1[C@@](CC2)([C@]2(C(=CC1)[C@H]1[C@@](CC2)([C@@H](CC(C1)(C)C)OC1OC(=C(C(=O)C1)O)C)C)C)C)C)(CO)C)O[C@@H]1O[C@@H]([C@H]([C@@H]([C@H]1O[C@@H]1O[C@@H]([C@@H]([C@@H]([C@H]1O[C@@H]1O[C@H]([C@@H]([C@H]([C@H]1O)O)O)C)O)O)CO)O)O)C(=O)O" "InChI=InChI=1S/C54H84O21/c1-23-34(58)27(57)18-33(68-23)71-32-20-49(3,4)19-26-25-10-11-30-51(6)14-13-31(52(7,22-56)29(51)12-15-54(30,9)53(25,8)17-16-50(26,32)5)72-48-44(40(64)39(63)42(73-48)45(66)67)75-47-43(38(62)36(60)28(21-55)70-47)74-46-41(65)37(61)35(59)24(2)69-46/h10,24,26,28-33,35-44,46-48,55-56,58-65H,11-22H2,1-9H3,(H,66,67)/t24-,26-,28+,29?,30?,31-,32+,33?,35-,36-,37+,38-,39-,40-,41+,42-,43+,44+,46-,47-,48+,50+,51-,52+,53+,54+/m0/s1" "InChIKey=ONAAMCDHQSWPDU-NVXZJFILSA-N" "molecular formula=C54H84O21" "total exact mass=1068.550509708" "SMILES=C1C(C(C2C(C1)(C3C(CC2)(C4(C(=CC3)C5C(CC4)(C(CC(C5)(C)C)OC6OC(=C(C(C6)=O)O)C)C)C)C)C)(CO)C)OC7OC(C(C(C7OC8OC(C(C(C8OC9OC(C(C(C9O)O)O)C)O)O)CO)O)O)C(=O)O"
Num Peaks: 4
 1067 100.000000; 
 1068 55.655656; 
 1069 18.318318; 
 1070 3.603604; 


Name: 3-Rha-Gal-GluA-22-DDMP Soyasaponenol B
SYNON: $:00in-source
DB#: MetaboBASE1133
InChIKey: ONAAMCDHQSWPDU-NVXZJFILSA-N
Instrument_type: LC-ESI-TOF
Instrument: impact HD
Ion_mode: N
InChIKey: ONAAMCDHQSWPDU-NVXZJFILSA-N
Formula: C54H84O21
MW: 1068
ExactMass: 1068.550509708
Comments: "license=License CC-BY-NC-SA 4.0 International" "author=Plant Biology, The Noble Foundation, Ardmore, OK, US/Dennis Fine, Daniel Wherritt, and Lloyd Sumner" "instrument type=LC-ESI-TOF" "instrument=impact HD" "ionization=ESI" "ionization mode=negative" "peak width=0.024" "date=2014-11-20 07:21:14+01:00" "column=Waters Acquity BEH C18 1.7um x 2.1 x 150 mm" "retention time=1143.6" "raw data file=C:\Data\2014Nov12_A-17 aerial root MS MSMS\A-17 root better MSMS_1-A,3_01_1296.d" "SMILES=C1[C@@H]([C@@](C2[C@](C1)(C1[C@@](CC2)([C@]2(C(=CC1)[C@H]1[C@@](CC2)([C@@H](CC(C1)(C)C)OC1OC(=C(C(=O)C1)O)C)C)C)C)C)(CO)C)O[C@@H]1O[C@@H]([C@H]([C@@H]([C@H]1O[C@@H]1O[C@@H]([C@@H]([C@@H]([C@H]1O[C@@H]1O[C@H]([C@@H]([C@H]([C@H]1O)O)O)C)O)O)CO)O)O)C(=O)O" "InChI=InChI=1S/C54H84O21/c1-23-34(58)27(57)18-33(68-23)71-32-20-49(3,4)19-26-25-10-11-30-51(6)14-13-31(52(7,22-56)29(51)12-15-54(30,9)53(25,8)17-16-50(26,32)5)72-48-44(40(64)39(63)42(73-48)45(66)67)75-47-43(38(62)36(60)28(21-55)70-47)74-46-41(65)37(61)35(59)24(2)69-46/h10,24,26,28-33,35-44,46-48,55-56,58-65H,11-22H2,1-9H3,(H,66,67)/t24-,26-,28+,29?,30?,31-,32+,33?,35-,36-,37+,38-,39-,40-,41+,42-,43+,44+,46-,47-,48+,50+,51-,52+,53+,54+/m0/s1" "InChIKey=ONAAMCDHQSWPDU-NVXZJFILSA-N" "molecular formula=C54H84O21" "total exact mass=1068.550509708" "SMILES=C1C(C(C2C(C1)(C3C(CC2)(C4(C(=CC3)C5C(CC4)(C(CC(C5)(C)C)OC6OC(=C(C(C6)=O)O)C)C)C)C)C)(CO)C)OC7OC(C(C(C7OC8OC(C(C(C8OC9OC(C(C(C9O)O)O)C)O)O)CO)O)O)C(=O)O"
Num Peaks: 11
 1067 100.000000; 
 1068 62.362362; 
 1069 21.521522; 
 1070 5.605606; 
 1083 5.905906; 
 1084 4.904905; 
 1113 48.248248; 
 1114 29.729730; 
 1115 10.310310; 
 1135 10.910911; 
 1136 6.906907; 


Name: 3-Rha-Gal-GluA-22-DDMP Soyasaponenol B
SYNON: $:00in-source
DB#: MetaboBASE1134
InChIKey: ONAAMCDHQSWPDU-NVXZJFILSA-N
Instrument_type: LC-ESI-TOF
Instrument: impact HD
Ion_mode: N
InChIKey: ONAAMCDHQSWPDU-NVXZJFILSA-N
Formula: C54H84O21
MW: 1068
ExactMass: 1068.550509708
Comments: "license=License CC-BY-NC-SA 4.0 International" "author=Plant Biology, The Noble Foundation, Ardmore, OK, US/Dennis Fine, Daniel Wherritt, and Lloyd Sumner" "instrument type=LC-ESI-TOF" "instrument=impact HD" "ionization=ESI" "ionization mode=negative" "peak width=0.017" "date=2014-06-03 20:53:11+02:00" "column=Waters Acquity BEH C18 1.7um x 2.1 x 150 mm" "retention time=1143.6" "raw data file=C:\Data\BWatson\14Jun03_BW_HR1-D_MSMS_2-A,1_01_198.d" "SMILES=C1[C@@H]([C@@](C2[C@](C1)(C1[C@@](CC2)([C@]2(C(=CC1)[C@H]1[C@@](CC2)([C@@H](CC(C1)(C)C)OC1OC(=C(C(=O)C1)O)C)C)C)C)C)(CO)C)O[C@@H]1O[C@@H]([C@H]([C@@H]([C@H]1O[C@@H]1O[C@@H]([C@@H]([C@@H]([C@H]1O[C@@H]1O[C@H]([C@@H]([C@H]([C@H]1O)O)O)C)O)O)CO)O)O)C(=O)O" "InChI=InChI=1S/C54H84O21/c1-23-34(58)27(57)18-33(68-23)71-32-20-49(3,4)19-26-25-10-11-30-51(6)14-13-31(52(7,22-56)29(51)12-15-54(30,9)53(25,8)17-16-50(26,32)5)72-48-44(40(64)39(63)42(73-48)45(66)67)75-47-43(38(62)36(60)28(21-55)70-47)74-46-41(65)37(61)35(59)24(2)69-46/h10,24,26,28-33,35-44,46-48,55-56,58-65H,11-22H2,1-9H3,(H,66,67)/t24-,26-,28+,29?,30?,31-,32+,33?,35-,36-,37+,38-,39-,40-,41+,42-,43+,44+,46-,47-,48+,50+,51-,52+,53+,54+/m0/s1" "InChIKey=ONAAMCDHQSWPDU-NVXZJFILSA-N" "molecular formula=C54H84O21" "total exact mass=1068.550509708" "SMILES=C1C(C(C2C(C1)(C3C(CC2)(C4(C(=CC3)C5C(CC4)(C(CC(C5)(C)C)OC6OC(=C(C(C6)=O)O)C)C)C)C)C)(CO)C)OC7OC(C(C(C7OC8OC(C(C(C8OC9OC(C(C(C9O)O)O)C)O)O)CO)O)O)C(=O)O"
Num Peaks: 19
 128 2.102102; 
 939 2.302302; 
 1067 100.000000; 
 1068 63.263263; 
 1069 23.323323; 
 1070 6.406406; 
 1071 2.202202; 
 1083 3.703704; 
 1084 2.702703; 
 1103 2.202202; 
 1113 33.833834; 
 1114 21.621622; 
 1115 8.408408; 
 1116 2.702703; 
 1135 5.305305; 
 1136 3.603604; 
 1185 2.602603; 
 1196 4.004004; 
 1197 2.702703; 


Name: 3-Rha-Gal-GluA-22-DDMP Soyasaponenol B
SYNON: $:00in-source
DB#: MetaboBASE1135
InChIKey: ONAAMCDHQSWPDU-NVXZJFILSA-N
Precursor_type: [M-H]-
Spectrum_type: MS2
PrecursorMZ: 1067.544
Instrument_type: LC-ESI-TOF
Instrument: impact HD
Ion_mode: N
Collision_energy: 58.7829
InChIKey: ONAAMCDHQSWPDU-NVXZJFILSA-N
Formula: C54H84O21
MW: 1068
ExactMass: 1068.550509708
Comments: "license=License CC-BY-NC-SA 4.0 International" "author=Plant Biology, The Noble Foundation, Ardmore, OK, US/Dennis Fine, Daniel Wherritt, and Lloyd Sumner" "instrument type=LC-ESI-TOF" "instrument=impact HD" "ionization=ESI" "ionization mode=negative" "ms level=MS2" "precursor m/z=1067.544" "collision energy=58.7829" "collision energy 2=97.9715" "peak width=0.024" "date=2014-11-20 07:21:14+01:00" "column=Waters Acquity BEH C18 1.7um x 2.1 x 150 mm" "retention time=1143.6" "raw data file=C:\Data\2014Nov12_A-17 aerial root MS MSMS\A-17 root better MSMS_1-A,3_01_1296.d" "precursor type=[M-H]-" "mass accuracy=0.7178083528244394" "mass error=7.662920002076135E-4" "SMILES=C1[C@@H]([C@@](C2[C@](C1)(C1[C@@](CC2)([C@]2(C(=CC1)[C@H]1[C@@](CC2)([C@@H](CC(C1)(C)C)OC1OC(=C(C(=O)C1)O)C)C)C)C)C)(CO)C)O[C@@H]1O[C@@H]([C@H]([C@@H]([C@H]1O[C@@H]1O[C@@H]([C@@H]([C@@H]([C@H]1O[C@@H]1O[C@H]([C@@H]([C@H]([C@H]1O)O)O)C)O)O)CO)O)O)C(=O)O" "InChI=InChI=1S/C54H84O21/c1-23-34(58)27(57)18-33(68-23)71-32-20-49(3,4)19-26-25-10-11-30-51(6)14-13-31(52(7,22-56)29(51)12-15-54(30,9)53(25,8)17-16-50(26,32)5)72-48-44(40(64)39(63)42(73-48)45(66)67)75-47-43(38(62)36(60)28(21-55)70-47)74-46-41(65)37(61)35(59)24(2)69-46/h10,24,26,28-33,35-44,46-48,55-56,58-65H,11-22H2,1-9H3,(H,66,67)/t24-,26-,28+,29?,30?,31-,32+,33?,35-,36-,37+,38-,39-,40-,41+,42-,43+,44+,46-,47-,48+,50+,51-,52+,53+,54+/m0/s1" "InChIKey=ONAAMCDHQSWPDU-NVXZJFILSA-N" "molecular formula=C54H84O21" "total exact mass=1068.550509708" "SMILES=C1C(C(C2C(C1)(C3C(CC2)(C4(C(=CC3)C5C(CC4)(C(CC(C5)(C)C)OC6OC(=C(C(C6)=O)O)C)C)C)C)C)(CO)C)OC7OC(C(C(C7OC8OC(C(C(C8OC9OC(C(C(C9O)O)O)C)O)O)CO)O)O)C(=O)O"
Num Peaks: 3
 1067 100.000000; 
 1068 56.156156; 
 1069 19.019019; 


Name: 3-GluA Soyasapogenol B
SYNON: $:00in-source
DB#: MetaboBASE1136
InChIKey: NARQRJFIZNOSJV-JMMGJMLBSA-N
Instrument_type: LC-ESI-TOF
Instrument: impact HD
Ion_mode: N
Collision_energy: 10
InChIKey: NARQRJFIZNOSJV-JMMGJMLBSA-N
Formula: C36H58O9
MW: 634
ExactMass: 634.408083436
Comments: "license=License CC-BY-NC-SA 4.0 International" "author=Plant Biology, The Noble Foundation, Ardmore, OK, US/Dennis Fine, Daniel Wherritt, and Lloyd Sumner" "instrument type=LC-ESI-TOF" "instrument=impact HD" "ionization=ESI" "ionization mode=negative" "collision energy=10" "peak width=0.012" "date=2014-06-03 18:50:43+02:00" "column=Waters Acquity BEH C18 1.7um x 2.1 x 150 mm" "retention time=1165.8" "raw data file=C:\Data\BWatson\14Jun03_BW_HR_1-12_2-A,3_01_195.d" "SMILES=C1[C@@H]([C@@](C2[C@](C1)(C1[C@@](CC2)([C@]2(C(=CC1)[C@H]1[C@@](CC2)([C@@H](CC(C1)(C)C)O)C)C)C)C)(CO)C)O[C@@H]1O[C@@H]([C@H]([C@@H]([C@H]1O)O)O)C(=O)O" "InChI=InChI=1S/C36H58O9/c1-31(2)16-20-19-8-9-22-33(4)12-11-24(44-30-27(41)25(39)26(40)28(45-30)29(42)43)34(5,18-37)21(33)10-13-36(22,7)35(19,6)15-14-32(20,3)23(38)17-31/h8,20-28,30,37-41H,9-18H2,1-7H3,(H,42,43)/t20-,21?,22?,23+,24-,25-,26-,27+,28-,30+,32+,33-,34+,35+,36+/m0/s1" "InChIKey=NARQRJFIZNOSJV-JMMGJMLBSA-N" "molecular formula=C36H58O9" "total exact mass=634.408083436" "SMILES=C1C(C(C2C(C1)(C3C(CC2)(C4(C(=CC3)C5C(CC4)(C(CC(C5)(C)C)O)C)C)C)C)(CO)C)OC6OC(C(C(C6O)O)O)C(O)=O"
Num Peaks: 33
 128 2.302302; 
 279 0.900901; 
 556 2.602603; 
 633 100.000000; 
 634 40.940941; 
 635 10.510511; 
 636 2.002002; 
 647 0.800801; 
 685 1.101101; 
 701 4.904905; 
 702 2.102102; 
 703 1.301301; 
 733 2.202202; 
 734 1.201201; 
 751 1.701702; 
 752 0.900901; 
 763 0.900901; 
 769 1.101101; 
 773 0.800801; 
 784 2.502503; 
 785 1.201201; 
 852 0.700701; 
 1067 2.702703; 
 1068 1.701702; 
 1069 0.700701; 
 1113 1.201201; 
 1114 0.800801; 
 1115 1.001001; 
 1116 0.700701; 
 1267 11.311311; 
 1268 9.209209; 
 1269 4.204204; 
 1270 1.501502; 


Name: 3-GluA Soyasapogenol B
SYNON: $:00in-source
DB#: MetaboBASE1137
InChIKey: NARQRJFIZNOSJV-JMMGJMLBSA-N
Instrument_type: LC-ESI-TOF
Instrument: impact HD
Ion_mode: N
InChIKey: NARQRJFIZNOSJV-JMMGJMLBSA-N
Formula: C36H58O9
MW: 634
ExactMass: 634.408083436
Comments: "license=License CC-BY-NC-SA 4.0 International" "author=Plant Biology, The Noble Foundation, Ardmore, OK, US/Dennis Fine, Daniel Wherritt, and Lloyd Sumner" "instrument type=LC-ESI-TOF" "instrument=impact HD" "ionization=ESI" "ionization mode=negative" "peak width=0.017" "date=2014-06-03 20:53:11+02:00" "column=Waters Acquity BEH C18 1.7um x 2.1 x 150 mm" "retention time=1165.8" "raw data file=C:\Data\BWatson\14Jun03_BW_HR1-D_MSMS_2-A,1_01_198.d" "SMILES=C1[C@@H]([C@@](C2[C@](C1)(C1[C@@](CC2)([C@]2(C(=CC1)[C@H]1[C@@](CC2)([C@@H](CC(C1)(C)C)O)C)C)C)C)(CO)C)O[C@@H]1O[C@@H]([C@H]([C@@H]([C@H]1O)O)O)C(=O)O" "InChI=InChI=1S/C36H58O9/c1-31(2)16-20-19-8-9-22-33(4)12-11-24(44-30-27(41)25(39)26(40)28(45-30)29(42)43)34(5,18-37)21(33)10-13-36(22,7)35(19,6)15-14-32(20,3)23(38)17-31/h8,20-28,30,37-41H,9-18H2,1-7H3,(H,42,43)/t20-,21?,22?,23+,24-,25-,26-,27+,28-,30+,32+,33-,34+,35+,36+/m0/s1" "InChIKey=NARQRJFIZNOSJV-JMMGJMLBSA-N" "molecular formula=C36H58O9" "total exact mass=634.408083436" "SMILES=C1C(C(C2C(C1)(C3C(CC2)(C4(C(=CC3)C5C(CC4)(C(CC(C5)(C)C)O)C)C)C)C)(CO)C)OC6OC(C(C(C6O)O)O)C(O)=O"
Num Peaks: 19
 128 6.906907; 
 279 2.402402; 
 556 3.203203; 
 633 100.000000; 
 634 38.438438; 
 635 8.808809; 
 636 2.002002; 
 701 5.305305; 
 702 2.102102; 
 784 2.902903; 
 1067 8.508509; 
 1068 5.705706; 
 1069 2.202202; 
 1113 3.703704; 
 1114 2.302302; 
 1115 2.002002; 
 1267 4.104104; 
 1268 3.403403; 
 1269 1.801802; 


Name: 3-GluA Soyasapogenol B
SYNON: $:00in-source
DB#: MetaboBASE1138
InChIKey: NARQRJFIZNOSJV-JMMGJMLBSA-N
Precursor_type: [M-H]-
Spectrum_type: MS2
PrecursorMZ: 633.4006
Instrument_type: LC-ESI-TOF
Instrument: impact HD
Ion_mode: N
Collision_energy: 42.5041
InChIKey: NARQRJFIZNOSJV-JMMGJMLBSA-N
Formula: C36H58O9
MW: 634
ExactMass: 634.408083436
Comments: "license=License CC-BY-NC-SA 4.0 International" "author=Plant Biology, The Noble Foundation, Ardmore, OK, US/Dennis Fine, Daniel Wherritt, and Lloyd Sumner" "instrument type=LC-ESI-TOF" "instrument=impact HD" "ionization=ESI" "ionization mode=negative" "ms level=MS2" "precursor m/z=633.4006" "isolation width=8.53377" "collision energy=42.5041" "collision energy 2=70.8402" "peak width=0.016" "date=2014-06-03 20:53:11+02:00" "column=Waters Acquity BEH C18 1.7um x 2.1 x 150 mm" "retention time=1165.8" "raw data file=C:\Data\BWatson\14Jun03_BW_HR1-D_MSMS_2-A,1_01_198.d" "precursor type=[M-H]-" "mass accuracy=0.3274957426133183" "mass error=-2.074359998687214E-4" "SMILES=C1[C@@H]([C@@](C2[C@](C1)(C1[C@@](CC2)([C@]2(C(=CC1)[C@H]1[C@@](CC2)([C@@H](CC(C1)(C)C)O)C)C)C)C)(CO)C)O[C@@H]1O[C@@H]([C@H]([C@@H]([C@H]1O)O)O)C(=O)O" "InChI=InChI=1S/C36H58O9/c1-31(2)16-20-19-8-9-22-33(4)12-11-24(44-30-27(41)25(39)26(40)28(45-30)29(42)43)34(5,18-37)21(33)10-13-36(22,7)35(19,6)15-14-32(20,3)23(38)17-31/h8,20-28,30,37-41H,9-18H2,1-7H3,(H,42,43)/t20-,21?,22?,23+,24-,25-,26-,27+,28-,30+,32+,33-,34+,35+,36+/m0/s1" "InChIKey=NARQRJFIZNOSJV-JMMGJMLBSA-N" "molecular formula=C36H58O9" "total exact mass=634.408083436" "SMILES=C1C(C(C2C(C1)(C3C(CC2)(C4(C(=CC3)C5C(CC4)(C(CC(C5)(C)C)O)C)C)C)C)(CO)C)OC6OC(C(C(C6O)O)O)C(O)=O"
Num Peaks: 4
 113 13.513514; 
 633 100.000000; 
 634 36.836837; 
 635 9.009009; 


Name: 3-Glucuronyl-22-DDMP Soyasapogenol B
SYNON: $:00in-source
DB#: MetaboBASE1139
InChIKey: JNXGVLRHSYOTKM-AIGSDHBOSA-N
Precursor_type: [M-H]-
Spectrum_type: MS2
PrecursorMZ: 759.4344
Instrument_type: LC-ESI-TOF
Instrument: impact HD
Ion_mode: N
Collision_energy: 47.2306
InChIKey: JNXGVLRHSYOTKM-AIGSDHBOSA-N
Formula: C42H64O12
MW: 760
ExactMass: 760.4397774879999
Comments: "license=License CC-BY-NC-SA 4.0 International" "author=Plant Biology, The Noble Foundation, Ardmore, OK, US/Dennis Fine, Daniel Wherritt, and Lloyd Sumner" "instrument type=LC-ESI-TOF" "instrument=impact HD" "ionization=ESI" "ionization mode=negative" "ms level=MS2" "precursor m/z=759.4344" "isolation width=9.03793" "collision energy=47.2306" "collision energy 2=78.7177" "peak width=0.015" "date=2014-06-03 20:53:11+02:00" "column=Waters Acquity BEH C18 1.7um x 2.1 x 150 mm" "retention time=1300.8" "raw data file=C:\Data\BWatson\14Jun03_BW_HR1-D_MSMS_2-A,1_01_198.d" "precursor type=[M-H]-" "mass accuracy=2.4999025592452857" "mass error=0.0018985120001389078" "SMILES=C1[C@@H]([C@@](C2[C@](C1)(C1[C@@](CC2)([C@]2(C(=CC1)[C@H]1[C@@](CC2)([C@@H](CC(C1)(C)C)O[C@H]1OC(=C(C(=O)C1)O)C)C)C)C)C)(CO)C)O[C@@H]1O[C@@H]([C@H]([C@@H]([C@H]1O)O)O)C(=O)O" "InChI=InChI=1S/C42H64O12/c1-21-30(45)24(44)17-29(51-21)52-28-19-37(2,3)18-23-22-9-10-26-39(5)13-12-27(53-36-33(48)31(46)32(47)34(54-36)35(49)50)40(6,20-43)25(39)11-14-42(26,8)41(22,7)16-15-38(23,28)4/h9,23,25-29,31-34,36,43,45-48H,10-20H2,1-8H3,(H,49,50)/t23-,25?,26?,27-,28+,29+,31-,32-,33+,34-,36+,38+,39-,40+,41+,42+/m0/s1" "InChIKey=JNXGVLRHSYOTKM-AIGSDHBOSA-N" "molecular formula=C42H64O12" "total exact mass=760.4397774879999" "SMILES=C1C(C(C2C(C1)(C3C(CC2)(C4(C(=CC3)C5C(CC4)(C(CC(C5)(C)C)OC6OC(=C(C(C6)=O)O)C)C)C)C)C)(CO)C)OC7OC(C(C(C7O)O)O)C(O)=O"
Num Peaks: 7
 113 16.916917; 
 125 4.204204; 
 175 3.003003; 
 659 3.503504; 
 759 100.000000; 
 760 43.043043; 
 761 11.311311; 


Name: 3-Glucuronyl-22-DDMP Soyasapogenol B
SYNON: $:00in-source
DB#: MetaboBASE1140
InChIKey: JNXGVLRHSYOTKM-AIGSDHBOSA-N
Instrument_type: LC-ESI-TOF
Instrument: impact HD
Ion_mode: N
InChIKey: JNXGVLRHSYOTKM-AIGSDHBOSA-N
Formula: C42H64O12
MW: 760
ExactMass: 760.4397774879999
Comments: "license=License CC-BY-NC-SA 4.0 International" "author=Plant Biology, The Noble Foundation, Ardmore, OK, US/Dennis Fine, Daniel Wherritt, and Lloyd Sumner" "instrument type=LC-ESI-TOF" "instrument=impact HD" "ionization=ESI" "ionization mode=negative" "peak width=0.018" "date=2014-06-03 20:53:11+02:00" "column=Waters Acquity BEH C18 1.7um x 2.1 x 150 mm" "retention time=1300.8" "raw data file=C:\Data\BWatson\14Jun03_BW_HR1-D_MSMS_2-A,1_01_198.d" "SMILES=C1[C@@H]([C@@](C2[C@](C1)(C1[C@@](CC2)([C@]2(C(=CC1)[C@H]1[C@@](CC2)([C@@H](CC(C1)(C)C)O[C@H]1OC(=C(C(=O)C1)O)C)C)C)C)C)(CO)C)O[C@@H]1O[C@@H]([C@H]([C@@H]([C@H]1O)O)O)C(=O)O" "InChI=InChI=1S/C42H64O12/c1-21-30(45)24(44)17-29(51-21)52-28-19-37(2,3)18-23-22-9-10-26-39(5)13-12-27(53-36-33(48)31(46)32(47)34(54-36)35(49)50)40(6,20-43)25(39)11-14-42(26,8)41(22,7)16-15-38(23,28)4/h9,23,25-29,31-34,36,43,45-48H,10-20H2,1-8H3,(H,49,50)/t23-,25?,26?,27-,28+,29+,31-,32-,33+,34-,36+,38+,39-,40+,41+,42+/m0/s1" "InChIKey=JNXGVLRHSYOTKM-AIGSDHBOSA-N" "molecular formula=C42H64O12" "total exact mass=760.4397774879999" "SMILES=C1C(C(C2C(C1)(C3C(CC2)(C4(C(=CC3)C5C(CC4)(C(CC(C5)(C)C)OC6OC(=C(C(C6)=O)O)C)C)C)C)C)(CO)C)OC7OC(C(C(C7O)O)O)C(O)=O"
Num Peaks: 21
 128 1.801802; 
 556 1.201201; 
 631 1.501502; 
 633 1.501502; 
 731 2.102102; 
 747 1.001001; 
 759 100.000000; 
 760 43.243243; 
 761 11.611612; 
 762 2.602603; 
 763 1.201201; 
 775 2.902903; 
 776 1.401401; 
 793 1.601602; 
 827 4.104104; 
 828 2.002002; 
 832 1.001001; 
 859 1.201201; 
 877 1.301301; 
 910 2.202202; 
 911 1.301301; 


Name: 3-Glucuronyl-22-DDMP Soyasapogenol B
SYNON: $:00in-source
DB#: MetaboBASE1141
InChIKey: JNXGVLRHSYOTKM-AIGSDHBOSA-N
Instrument_type: LC-ESI-TOF
Instrument: impact HD
Ion_mode: N
Collision_energy: 10
InChIKey: JNXGVLRHSYOTKM-AIGSDHBOSA-N
Formula: C42H64O12
MW: 760
ExactMass: 760.4397774879999
Comments: "license=License CC-BY-NC-SA 4.0 International" "author=Plant Biology, The Noble Foundation, Ardmore, OK, US/Dennis Fine, Daniel Wherritt, and Lloyd Sumner" "instrument type=LC-ESI-TOF" "instrument=impact HD" "ionization=ESI" "ionization mode=negative" "collision energy=10" "peak width=0.011" "date=2014-06-03 18:50:43+02:00" "column=Waters Acquity BEH C18 1.7um x 2.1 x 150 mm" "retention time=1300.8" "raw data file=C:\Data\BWatson\14Jun03_BW_HR_1-12_2-A,3_01_195.d" "SMILES=C1[C@@H]([C@@](C2[C@](C1)(C1[C@@](CC2)([C@]2(C(=CC1)[C@H]1[C@@](CC2)([C@@H](CC(C1)(C)C)O[C@H]1OC(=C(C(=O)C1)O)C)C)C)C)C)(CO)C)O[C@@H]1O[C@@H]([C@H]([C@@H]([C@H]1O)O)O)C(=O)O" "InChI=InChI=1S/C42H64O12/c1-21-30(45)24(44)17-29(51-21)52-28-19-37(2,3)18-23-22-9-10-26-39(5)13-12-27(53-36-33(48)31(46)32(47)34(54-36)35(49)50)40(6,20-43)25(39)11-14-42(26,8)41(22,7)16-15-38(23,28)4/h9,23,25-29,31-34,36,43,45-48H,10-20H2,1-8H3,(H,49,50)/t23-,25?,26?,27-,28+,29+,31-,32-,33+,34-,36+,38+,39-,40+,41+,42+/m0/s1" "InChIKey=JNXGVLRHSYOTKM-AIGSDHBOSA-N" "molecular formula=C42H64O12" "total exact mass=760.4397774879999" "SMILES=C1C(C(C2C(C1)(C3C(CC2)(C4(C(=CC3)C5C(CC4)(C(CC(C5)(C)C)OC6OC(=C(C(C6)=O)O)C)C)C)C)C)(CO)C)OC7OC(C(C(C7O)O)O)C(O)=O"
Num Peaks: 27
 128 1.101101; 
 556 1.701702; 
 631 1.401401; 
 633 1.501502; 
 731 2.002002; 
 732 1.001001; 
 747 1.001001; 
 759 100.000000; 
 760 48.848849; 
 761 14.714715; 
 762 3.403403; 
 763 1.401401; 
 775 3.103103; 
 776 1.601602; 
 791 1.101101; 
 793 1.601602; 
 811 1.001001; 
 827 4.304304; 
 828 2.202202; 
 832 1.101101; 
 859 2.002002; 
 860 1.201201; 
 877 2.302302; 
 878 1.401401; 
 895 1.001001; 
 910 2.302302; 
 911 1.301301; 


Name: 3-(Glucosyl(1-2) glucuronyl)-22-DDMP Soyasapogenol B
SYNON: $:00in-source
DB#: MetaboBASE1142
InChIKey: OJLGASCOGOIOJR-OASJHIPRSA-N
Instrument_type: LC-ESI-TOF
Instrument: impact HD
Ion_mode: N
Collision_energy: 10
InChIKey: OJLGASCOGOIOJR-OASJHIPRSA-N
Formula: C48H74O17
MW: 922
ExactMass: 922.492600908
Comments: "license=License CC-BY-NC-SA 4.0 International" "author=Plant Biology, The Noble Foundation, Ardmore, OK, US/Dennis Fine, Daniel Wherritt, and Lloyd Sumner" "instrument type=LC-ESI-TOF" "instrument=impact HD" "ionization=ESI" "ionization mode=negative" "collision energy=10" "peak width=0.014" "date=2014-06-03 20:12:23+02:00" "column=Waters Acquity BEH C18 1.7um x 2.1 x 150 mm" "retention time=1198.2" "raw data file=C:\Data\BWatson\14Jun03_BW_HR_144-2-1_2-A,5_01_197.d" "SMILES=C1[C@@H]([C@@](C2[C@](C1)(C1[C@@](CC2)([C@]2(C(=CC1)[C@H]1[C@@](CC2)([C@@H](CC(C1)(C)C)O[C@H]1OC(=C(C(=O)C1)O)C)C)C)C)C)(CO)C)O[C@@H]1O[C@@H]([C@H]([C@@H]([C@H]1O[C@@H]1O[C@@H]([C@H]([C@@H]([C@H]1O)O)O)CO)O)O)C(=O)O" "InChI=InChI=1S/C48H74O17/c1-22-32(52)25(51)17-31(60-22)62-30-19-43(2,3)18-24-23-9-10-28-45(5)13-12-29(46(6,21-50)27(45)11-14-48(28,8)47(23,7)16-15-44(24,30)4)63-42-39(36(56)35(55)38(64-42)40(58)59)65-41-37(57)34(54)33(53)26(20-49)61-41/h9,24,26-31,33-39,41-42,49-50,52-57H,10-21H2,1-8H3,(H,58,59)/t24-,26+,27?,28?,29-,30+,31+,33+,34-,35-,36-,37+,38-,39+,41-,42+,44+,45-,46+,47+,48+/m0/s1" "InChIKey=OJLGASCOGOIOJR-OASJHIPRSA-N" "molecular formula=C48H74O17" "total exact mass=922.492600908" "SMILES=C1C(C(C2C(C1)(C3C(CC2)(C4(C(=CC3)C5C(CC4)(C(CC(C5)(C)C)OC6OC(=C(C(C6)=O)O)C)C)C)C)C)(CO)C)OC7OC(C(C(C7OC8OC(C(C(C8O)O)O)CO)O)O)C(O)=O"
Num Peaks: 55
 128 5.605606; 
 279 2.202202; 
 430 1.301301; 
 446 1.601602; 
 446 1.001001; 
 454 2.002002; 
 454 1.101101; 
 556 4.104104; 
 793 2.202202; 
 794 1.201201; 
 795 2.602603; 
 796 1.301301; 
 823 1.101101; 
 893 4.004004; 
 894 2.102102; 
 895 1.101101; 
 909 1.101101; 
 911 1.601602; 
 912 1.101101; 
 915 1.101101; 
 915 1.201201; 
 921 100.000000; 
 922 55.255255; 
 923 18.718719; 
 924 5.105105; 
 925 2.302302; 
 926 1.201201; 
 937 4.004004; 
 938 2.302302; 
 939 1.201201; 
 955 2.402402; 
 956 1.401401; 
 957 1.401401; 
 973 1.501502; 
 989 5.805806; 
 990 3.403403; 
 991 1.501502; 
 994 1.901902; 
 995 1.001001; 
 1021 1.201201; 
 1039 2.802803; 
 1040 1.901902; 
 1041 1.101101; 
 1050 1.401401; 
 1051 1.201201; 
 1057 1.601602; 
 1058 1.001001; 
 1067 1.201201; 
 1072 3.103103; 
 1073 2.002002; 
 1074 1.001001; 
 1140 1.201201; 
 1223 1.001001; 
 1383 1.001001; 
 1383 1.101101; 


Name: 3-(Glucosyl(1-2) glucuronyl)-22-DDMP Soyasapogenol B
SYNON: $:00in-source
DB#: MetaboBASE1143
InChIKey: OJLGASCOGOIOJR-OASJHIPRSA-N
Precursor_type: [M-H]-
Spectrum_type: MS2
PrecursorMZ: 921.4949
Instrument_type: LC-ESI-TOF
Instrument: impact HD
Ion_mode: N
Collision_energy: 53.3081
InChIKey: OJLGASCOGOIOJR-OASJHIPRSA-N
Formula: C48H74O17
MW: 922
ExactMass: 922.492600908
Comments: "license=License CC-BY-NC-SA 4.0 International" "author=Plant Biology, The Noble Foundation, Ardmore, OK, US/Dennis Fine, Daniel Wherritt, and Lloyd Sumner" "instrument type=LC-ESI-TOF" "instrument=impact HD" "ionization=ESI" "ionization mode=negative" "ms level=MS2" "precursor m/z=921.4949" "isolation width=9.6862" "collision energy=53.3081" "collision energy 2=88.8469" "peak width=0.018" "date=2014-06-03 22:55:36+02:00" "column=Waters Acquity BEH C18 1.7um x 2.1 x 150 mm" "retention time=1198.2" "raw data file=C:\Data\BWatson\14Jun03_BW_HR144-2-5_MSMS_2-A,4_01_201.d" "precursor type=[M-H]-" "mass accuracy=10.390824734994181" "mass error=0.00957509200009099" "SMILES=C1[C@@H]([C@@](C2[C@](C1)(C1[C@@](CC2)([C@]2(C(=CC1)[C@H]1[C@@](CC2)([C@@H](CC(C1)(C)C)O[C@H]1OC(=C(C(=O)C1)O)C)C)C)C)C)(CO)C)O[C@@H]1O[C@@H]([C@H]([C@@H]([C@H]1O[C@@H]1O[C@@H]([C@H]([C@@H]([C@H]1O)O)O)CO)O)O)C(=O)O" "InChI=InChI=1S/C48H74O17/c1-22-32(52)25(51)17-31(60-22)62-30-19-43(2,3)18-24-23-9-10-28-45(5)13-12-29(46(6,21-50)27(45)11-14-48(28,8)47(23,7)16-15-44(24,30)4)63-42-39(36(56)35(55)38(64-42)40(58)59)65-41-37(57)34(54)33(53)26(20-49)61-41/h9,24,26-31,33-39,41-42,49-50,52-57H,10-21H2,1-8H3,(H,58,59)/t24-,26+,27?,28?,29-,30+,31+,33+,34-,35-,36-,37+,38-,39+,41-,42+,44+,45-,46+,47+,48+/m0/s1" "InChIKey=OJLGASCOGOIOJR-OASJHIPRSA-N" "molecular formula=C48H74O17" "total exact mass=922.492600908" "SMILES=C1C(C(C2C(C1)(C3C(CC2)(C4(C(=CC3)C5C(CC4)(C(CC(C5)(C)C)OC6OC(=C(C(C6)=O)O)C)C)C)C)C)(CO)C)OC7OC(C(C(C7OC8OC(C(C(C8O)O)O)CO)O)O)C(O)=O"
Num Peaks: 10
 99 4.004004; 
 101 3.703704; 
 113 6.206206; 
 125 3.603604; 
 741 2.502503; 
 821 2.502503; 
 921 100.000000; 
 922 53.353353; 
 923 14.214214; 
 924 2.302302; 


Name: 3-(Glucosyl(1-2) glucuronyl)-22-DDMP Soyasapogenol B
SYNON: $:00in-source
DB#: MetaboBASE1144
InChIKey: OJLGASCOGOIOJR-OASJHIPRSA-N
Instrument_type: LC-ESI-TOF
Instrument: impact HD
Ion_mode: N
InChIKey: OJLGASCOGOIOJR-OASJHIPRSA-N
Formula: C48H74O17
MW: 922
ExactMass: 922.492600908
Comments: "license=License CC-BY-NC-SA 4.0 International" "author=Plant Biology, The Noble Foundation, Ardmore, OK, US/Dennis Fine, Daniel Wherritt, and Lloyd Sumner" "instrument type=LC-ESI-TOF" "instrument=impact HD" "ionization=ESI" "ionization mode=negative" "peak width=0.018" "date=2014-06-03 22:55:36+02:00" "column=Waters Acquity BEH C18 1.7um x 2.1 x 150 mm" "retention time=1198.2" "raw data file=C:\Data\BWatson\14Jun03_BW_HR144-2-5_MSMS_2-A,4_01_201.d" "SMILES=C1[C@@H]([C@@](C2[C@](C1)(C1[C@@](CC2)([C@]2(C(=CC1)[C@H]1[C@@](CC2)([C@@H](CC(C1)(C)C)O[C@H]1OC(=C(C(=O)C1)O)C)C)C)C)C)(CO)C)O[C@@H]1O[C@@H]([C@H]([C@@H]([C@H]1O[C@@H]1O[C@@H]([C@H]([C@@H]([C@H]1O)O)O)CO)O)O)C(=O)O" "InChI=InChI=1S/C48H74O17/c1-22-32(52)25(51)17-31(60-22)62-30-19-43(2,3)18-24-23-9-10-28-45(5)13-12-29(46(6,21-50)27(45)11-14-48(28,8)47(23,7)16-15-44(24,30)4)63-42-39(36(56)35(55)38(64-42)40(58)59)65-41-37(57)34(54)33(53)26(20-49)61-41/h9,24,26-31,33-39,41-42,49-50,52-57H,10-21H2,1-8H3,(H,58,59)/t24-,26+,27?,28?,29-,30+,31+,33+,34-,35-,36-,37+,38-,39+,41-,42+,44+,45-,46+,47+,48+/m0/s1" "InChIKey=OJLGASCOGOIOJR-OASJHIPRSA-N" "molecular formula=C48H74O17" "total exact mass=922.492600908" "SMILES=C1C(C(C2C(C1)(C3C(CC2)(C4(C(=CC3)C5C(CC4)(C(CC(C5)(C)C)OC6OC(=C(C(C6)=O)O)C)C)C)C)C)(CO)C)OC7OC(C(C(C7OC8OC(C(C(C8O)O)O)CO)O)O)C(O)=O"
Num Peaks: 17
 128 1.601602; 
 793 1.901902; 
 921 100.000000; 
 922 55.355355; 
 923 18.818819; 
 924 4.704705; 
 925 1.701702; 
 937 3.503504; 
 938 2.202202; 
 955 1.901902; 
 989 4.904905; 
 990 2.602603; 
 1039 1.501502; 
 1072 1.901902; 
 1382 1.501502; 
 1383 2.302302; 
 1383 2.102102; 


Name: 3-(Galactosyl(1-2) glucuronyl)-22-DDMP Soyasapogenol B
SYNON: $:00in-source
DB#: MetaboBASE1145
InChIKey: OJLGASCOGOIOJR-QRWYWMMOSA-N
Precursor_type: [M-H]-
Spectrum_type: MS2
PrecursorMZ: 921.4919
Instrument_type: LC-ESI-TOF
Instrument: impact HD
Ion_mode: N
Collision_energy: 53.3081
InChIKey: OJLGASCOGOIOJR-QRWYWMMOSA-N
Formula: C48H74O17
MW: 922
ExactMass: 922.492600908
Comments: "license=License CC-BY-NC-SA 4.0 International" "author=Plant Biology, The Noble Foundation, Ardmore, OK, US/Dennis Fine, Daniel Wherritt, and Lloyd Sumner" "instrument type=LC-ESI-TOF" "instrument=impact HD" "ionization=ESI" "ionization mode=negative" "ms level=MS2" "precursor m/z=921.4919" "isolation width=9.6862" "collision energy=53.3081" "collision energy 2=88.8469" "peak width=0.018" "date=2014-06-03 22:55:36+02:00" "column=Waters Acquity BEH C18 1.7um x 2.1 x 150 mm" "retention time=1189.2" "raw data file=C:\Data\BWatson\14Jun03_BW_HR144-2-5_MSMS_2-A,4_01_201.d" "precursor type=[M-H]-" "mass accuracy=7.135268362150816" "mass error=0.006575092000048244" "SMILES=C1[C@@H]([C@@](C2[C@](C1)(C1[C@@](CC2)([C@]2(C(=CC1)[C@H]1[C@@](CC2)([C@@H](CC(C1)(C)C)O[C@H]1OC(=C(C(=O)C1)O)C)C)C)C)C)(CO)C)O[C@@H]1O[C@@H]([C@H]([C@@H]([C@H]1O[C@@H]1O[C@@H]([C@@H]([C@@H]([C@H]1O)O)O)CO)O)O)C(=O)O" "InChI=InChI=1S/C48H74O17/c1-22-32(52)25(51)17-31(60-22)62-30-19-43(2,3)18-24-23-9-10-28-45(5)13-12-29(46(6,21-50)27(45)11-14-48(28,8)47(23,7)16-15-44(24,30)4)63-42-39(36(56)35(55)38(64-42)40(58)59)65-41-37(57)34(54)33(53)26(20-49)61-41/h9,24,26-31,33-39,41-42,49-50,52-57H,10-21H2,1-8H3,(H,58,59)/t24-,26+,27?,28?,29-,30+,31+,33-,34-,35-,36-,37+,38-,39+,41-,42+,44+,45-,46+,47+,48+/m0/s1" "InChIKey=OJLGASCOGOIOJR-QRWYWMMOSA-N" "molecular formula=C48H74O17" "total exact mass=922.492600908" "SMILES=C1C(C(C2C(C1)(C3C(CC2)(C4(C(=CC3)C5C(CC4)(C(CC(C5)(C)C)OC6OC(=C(C(C6)=O)O)C)C)C)C)C)(CO)C)OC7OC(C(C(C7OC8OC(C(C(C8O)O)O)CO)O)O)C(O)=O"
Num Peaks: 11
 99 3.403403; 
 101 3.703704; 
 113 5.005005; 
 119 3.603604; 
 157 2.902903; 
 741 2.402402; 
 821 1.901902; 
 921 100.000000; 
 922 51.951952; 
 923 15.015015; 
 924 2.802803; 


Name: 3-(Galactosyl(1-2) glucuronyl)-22-DDMP Soyasapogenol B
SYNON: $:00in-source
DB#: MetaboBASE1146
InChIKey: OJLGASCOGOIOJR-QRWYWMMOSA-N
Instrument_type: LC-ESI-TOF
Instrument: impact HD
Ion_mode: N
InChIKey: OJLGASCOGOIOJR-QRWYWMMOSA-N
Formula: C48H74O17
MW: 922
ExactMass: 922.492600908
Comments: "license=License CC-BY-NC-SA 4.0 International" "author=Plant Biology, The Noble Foundation, Ardmore, OK, US/Dennis Fine, Daniel Wherritt, and Lloyd Sumner" "instrument type=LC-ESI-TOF" "instrument=impact HD" "ionization=ESI" "ionization mode=negative" "peak width=0.018" "date=2014-06-03 22:55:36+02:00" "column=Waters Acquity BEH C18 1.7um x 2.1 x 150 mm" "retention time=1189.2" "raw data file=C:\Data\BWatson\14Jun03_BW_HR144-2-5_MSMS_2-A,4_01_201.d" "SMILES=C1[C@@H]([C@@](C2[C@](C1)(C1[C@@](CC2)([C@]2(C(=CC1)[C@H]1[C@@](CC2)([C@@H](CC(C1)(C)C)O[C@H]1OC(=C(C(=O)C1)O)C)C)C)C)C)(CO)C)O[C@@H]1O[C@@H]([C@H]([C@@H]([C@H]1O[C@@H]1O[C@@H]([C@@H]([C@@H]([C@H]1O)O)O)CO)O)O)C(=O)O" "InChI=InChI=1S/C48H74O17/c1-22-32(52)25(51)17-31(60-22)62-30-19-43(2,3)18-24-23-9-10-28-45(5)13-12-29(46(6,21-50)27(45)11-14-48(28,8)47(23,7)16-15-44(24,30)4)63-42-39(36(56)35(55)38(64-42)40(58)59)65-41-37(57)34(54)33(53)26(20-49)61-41/h9,24,26-31,33-39,41-42,49-50,52-57H,10-21H2,1-8H3,(H,58,59)/t24-,26+,27?,28?,29-,30+,31+,33-,34-,35-,36-,37+,38-,39+,41-,42+,44+,45-,46+,47+,48+/m0/s1" "InChIKey=OJLGASCOGOIOJR-QRWYWMMOSA-N" "molecular formula=C48H74O17" "total exact mass=922.492600908" "SMILES=C1C(C(C2C(C1)(C3C(CC2)(C4(C(=CC3)C5C(CC4)(C(CC(C5)(C)C)OC6OC(=C(C(C6)=O)O)C)C)C)C)C)(CO)C)OC7OC(C(C(C7OC8OC(C(C(C8O)O)O)CO)O)O)C(O)=O"
Num Peaks: 12
 128 4.104104; 
 279 1.501502; 
 793 3.303303; 
 921 100.000000; 
 922 53.953954; 
 923 18.418418; 
 924 4.104104; 
 937 5.605606; 
 938 3.103103; 
 955 2.902903; 
 989 5.605606; 
 990 3.003003; 


Name: 3-(Galactosyl(1-2) glucuronyl)-22-DDMP Soyasapogenol B
SYNON: $:00in-source
DB#: MetaboBASE1147
InChIKey: OJLGASCOGOIOJR-QRWYWMMOSA-N
Instrument_type: LC-ESI-TOF
Instrument: impact HD
Ion_mode: N
Collision_energy: 10
InChIKey: OJLGASCOGOIOJR-QRWYWMMOSA-N
Formula: C48H74O17
MW: 922
ExactMass: 922.492600908
Comments: "license=License CC-BY-NC-SA 4.0 International" "author=Plant Biology, The Noble Foundation, Ardmore, OK, US/Dennis Fine, Daniel Wherritt, and Lloyd Sumner" "instrument type=LC-ESI-TOF" "instrument=impact HD" "ionization=ESI" "ionization mode=negative" "collision energy=10" "peak width=0.014" "date=2014-06-03 20:12:23+02:00" "column=Waters Acquity BEH C18 1.7um x 2.1 x 150 mm" "retention time=1189.2" "raw data file=C:\Data\BWatson\14Jun03_BW_HR_144-2-1_2-A,5_01_197.d" "SMILES=C1[C@@H]([C@@](C2[C@](C1)(C1[C@@](CC2)([C@]2(C(=CC1)[C@H]1[C@@](CC2)([C@@H](CC(C1)(C)C)O[C@H]1OC(=C(C(=O)C1)O)C)C)C)C)C)(CO)C)O[C@@H]1O[C@@H]([C@H]([C@@H]([C@H]1O[C@@H]1O[C@@H]([C@@H]([C@@H]([C@H]1O)O)O)CO)O)O)C(=O)O" "InChI=InChI=1S/C48H74O17/c1-22-32(52)25(51)17-31(60-22)62-30-19-43(2,3)18-24-23-9-10-28-45(5)13-12-29(46(6,21-50)27(45)11-14-48(28,8)47(23,7)16-15-44(24,30)4)63-42-39(36(56)35(55)38(64-42)40(58)59)65-41-37(57)34(54)33(53)26(20-49)61-41/h9,24,26-31,33-39,41-42,49-50,52-57H,10-21H2,1-8H3,(H,58,59)/t24-,26+,27?,28?,29-,30+,31+,33-,34-,35-,36-,37+,38-,39+,41-,42+,44+,45-,46+,47+,48+/m0/s1" "InChIKey=OJLGASCOGOIOJR-QRWYWMMOSA-N" "molecular formula=C48H74O17" "total exact mass=922.492600908" "SMILES=C1C(C(C2C(C1)(C3C(CC2)(C4(C(=CC3)C5C(CC4)(C(CC(C5)(C)C)OC6OC(=C(C(C6)=O)O)C)C)C)C)C)(CO)C)OC7OC(C(C(C7OC8OC(C(C(C8O)O)O)CO)O)O)C(O)=O"
Num Peaks: 51
 128 4.404404; 
 279 1.701702; 
 430 1.001001; 
 446 1.501502; 
 454 1.501502; 
 556 3.503504; 
 793 2.302302; 
 794 1.301301; 
 795 2.402402; 
 796 1.301301; 
 893 3.203203; 
 894 1.901902; 
 909 1.001001; 
 911 1.401401; 
 915 1.301301; 
 915 1.201201; 
 916 1.201201; 
 921 100.000000; 
 922 55.455455; 
 923 19.019019; 
 924 5.105105; 
 925 2.102102; 
 926 1.401401; 
 937 4.104104; 
 938 2.602603; 
 939 1.301301; 
 953 1.101101; 
 955 2.502503; 
 956 1.501502; 
 957 1.401401; 
 973 1.501502; 
 974 1.101101; 
 989 5.605606; 
 990 3.303303; 
 991 1.501502; 
 994 2.202202; 
 995 1.501502; 
 1021 1.301301; 
 1039 2.502503; 
 1040 1.601602; 
 1041 1.201201; 
 1050 1.201201; 
 1051 1.301301; 
 1057 1.601602; 
 1058 1.201201; 
 1067 1.401401; 
 1072 3.003003; 
 1073 2.002002; 
 1074 0.900901; 
 1140 1.101101; 
 1223 1.001001; 


Name: 3-Gal(1-2)GluA Soyasapogenol B
SYNON: $:00in-source
DB#: MetaboBASE1148
InChIKey: OKIHRVKXRCAJFQ-VAJUJSSWSA-N
Instrument_type: LC-ESI-TOF
Instrument: impact HD
Ion_mode: N
Collision_energy: 10
InChIKey: OKIHRVKXRCAJFQ-VAJUJSSWSA-N
Formula: C42H68O14
MW: 796
ExactMass: 796.460906856
Comments: "license=License CC-BY-NC-SA 4.0 International" "author=Plant Biology, The Noble Foundation, Ardmore, OK, US/Dennis Fine, Daniel Wherritt, and Lloyd Sumner" "instrument type=LC-ESI-TOF" "instrument=impact HD" "ionization=ESI" "ionization mode=negative" "collision energy=10" "peak width=0.034" "date=2014-12-12 20:57:07+01:00" "column=Waters Acquity BEH C18 1.7um x 2.1 x 150 mm" "retention time=1060.8" "raw data file=C:\Data\Noble-Bruker MS libr eval complex mix\2014Dec_A17 aer rt mix MSMS_1-A,2_01_1447.d" "SMILES=C1[C@@H]([C@@](C2[C@](C1)(C1[C@@](CC2)([C@]2(C(=CC1)[C@H]1[C@@](CC2)([C@@H](CC(C1)(C)C)O)C)C)C)C)(CO)C)O[C@@H]1O[C@@H]([C@H]([C@@H]([C@H]1O[C@@H]1O[C@@H]([C@@H]([C@@H]([C@H]1O)O)O)CO)O)O)C(=O)O" "InChI=InChI=1S/C42H68O14/c1-37(2)16-21-20-8-9-24-39(4)12-11-26(40(5,19-44)23(39)10-13-42(24,7)41(20,6)15-14-38(21,3)25(45)17-37)54-36-33(30(49)29(48)32(55-36)34(51)52)56-35-31(50)28(47)27(46)22(18-43)53-35/h8,21-33,35-36,43-50H,9-19H2,1-7H3,(H,51,52)/t21-,22+,23?,24?,25+,26-,27-,28-,29-,30-,31+,32-,33+,35-,36+,38+,39-,40+,41+,42+/m0/s1" "InChIKey=OKIHRVKXRCAJFQ-VAJUJSSWSA-N" "molecular formula=C42H68O14" "total exact mass=796.460906856" "SMILES=C1C(C(C2C(C1)(C3C(CC2)(C4(C(=CC3)C5C(CC4)(C(CC(C5)(C)C)O)C)C)C)C)(CO)C)OC6OC(C(C(C6OC7OC(C(C(C7O)O)O)CO)O)O)C(O)=O"
Num Peaks: 13
 795 100.000000; 
 796 40.440440; 
 797 9.509510; 
 798 1.601602; 
 863 7.707708; 
 864 3.603604; 
 865 1.101101; 
 913 1.101101; 
 931 1.901902; 
 932 1.001001; 
 1591 3.203203; 
 1592 2.902903; 
 1593 1.301301; 


Name: 3-Gal(1-2)GluA Soyasapogenol B
SYNON: $:00in-source
DB#: MetaboBASE1149
InChIKey: OKIHRVKXRCAJFQ-VAJUJSSWSA-N
Precursor_type: [M-H]-
Spectrum_type: MS2
PrecursorMZ: 795.4482
Instrument_type: LC-ESI-TOF
Instrument: impact HD
Ion_mode: N
Collision_energy: 48.5799
InChIKey: OKIHRVKXRCAJFQ-VAJUJSSWSA-N
Formula: C42H68O14
MW: 796
ExactMass: 796.460906856
Comments: "license=License CC-BY-NC-SA 4.0 International" "author=Plant Biology, The Noble Foundation, Ardmore, OK, US/Dennis Fine, Daniel Wherritt, and Lloyd Sumner" "instrument type=LC-ESI-TOF" "instrument=impact HD" "ionization=ESI" "ionization mode=negative" "ms level=MS2" "precursor m/z=795.4482" "collision energy=48.5799" "collision energy 2=80.9665" "peak width=0.013" "date=2014-12-12 20:57:07+01:00" "column=Waters Acquity BEH C18 1.7um x 2.1 x 150 mm" "retention time=1060.8" "raw data file=C:\Data\Noble-Bruker MS libr eval complex mix\2014Dec_A17 aer rt mix MSMS_1-A,2_01_1447.d" "precursor type=[M-H]-" "mass accuracy=6.827416291672677" "mass error=-0.005430855999861706" "SMILES=C1[C@@H]([C@@](C2[C@](C1)(C1[C@@](CC2)([C@]2(C(=CC1)[C@H]1[C@@](CC2)([C@@H](CC(C1)(C)C)O)C)C)C)C)(CO)C)O[C@@H]1O[C@@H]([C@H]([C@@H]([C@H]1O[C@@H]1O[C@@H]([C@@H]([C@@H]([C@H]1O)O)O)CO)O)O)C(=O)O" "InChI=InChI=1S/C42H68O14/c1-37(2)16-21-20-8-9-24-39(4)12-11-26(40(5,19-44)23(39)10-13-42(24,7)41(20,6)15-14-38(21,3)25(45)17-37)54-36-33(30(49)29(48)32(55-36)34(51)52)56-35-31(50)28(47)27(46)22(18-43)53-35/h8,21-33,35-36,43-50H,9-19H2,1-7H3,(H,51,52)/t21-,22+,23?,24?,25+,26-,27-,28-,29-,30-,31+,32-,33+,35-,36+,38+,39-,40+,41+,42+/m0/s1" "InChIKey=OKIHRVKXRCAJFQ-VAJUJSSWSA-N" "molecular formula=C42H68O14" "total exact mass=796.460906856" "SMILES=C1C(C(C2C(C1)(C3C(CC2)(C4(C(=CC3)C5C(CC4)(C(CC(C5)(C)C)O)C)C)C)C)(CO)C)OC6OC(C(C(C6OC7OC(C(C(C7O)O)O)CO)O)O)C(O)=O"
Num Peaks: 3
 795 100.000000; 
 796 42.842843; 
 797 4.504505; 


Name: 3-Glu(1-2)GluA Soyasapogenol B
SYNON: $:00in-source
DB#: MetaboBASE1150
InChIKey: OKIHRVKXRCAJFQ-OFOMSTTESA-N
Precursor_type: [M-H]-
Spectrum_type: MS2
PrecursorMZ: 795.4572
Instrument_type: LC-ESI-TOF
Instrument: impact HD
Ion_mode: N
Collision_energy: 48.5816
InChIKey: OKIHRVKXRCAJFQ-OFOMSTTESA-N
Formula: C42H68O14
MW: 796
ExactMass: 796.460906856
Comments: "license=License CC-BY-NC-SA 4.0 International" "author=Plant Biology, The Noble Foundation, Ardmore, OK, US/Dennis Fine, Daniel Wherritt, and Lloyd Sumner" "instrument type=LC-ESI-TOF" "instrument=impact HD" "ionization=ESI" "ionization mode=negative" "ms level=MS2" "precursor m/z=795.4572" "isolation width=9.18203" "collision energy=48.5816" "collision energy 2=80.9693" "peak width=0.018" "date=2014-06-03 22:55:36+02:00" "column=Waters Acquity BEH C18 1.7um x 2.1 x 150 mm" "retention time=1078.2" "raw data file=C:\Data\BWatson\14Jun03_BW_HR144-2-5_MSMS_2-A,4_01_201.d" "precursor type=[M-H]-" "mass accuracy=4.486908912307488" "mass error=0.0035691440000391594" "SMILES=C1[C@@H]([C@@](C2[C@](C1)(C1[C@@](CC2)([C@]2(C(=CC1)[C@H]1[C@@](CC2)([C@@H](CC(C1)(C)C)O)C)C)C)C)(CO)C)O[C@@H]1O[C@@H]([C@H]([C@@H]([C@H]1O[C@@H]1O[C@@H]([C@H]([C@@H]([C@H]1O)O)O)CO)O)O)C(=O)O" "InChI=InChI=1S/C42H68O14/c1-37(2)16-21-20-8-9-24-39(4)12-11-26(40(5,19-44)23(39)10-13-42(24,7)41(20,6)15-14-38(21,3)25(45)17-37)54-36-33(30(49)29(48)32(55-36)34(51)52)56-35-31(50)28(47)27(46)22(18-43)53-35/h8,21-33,35-36,43-50H,9-19H2,1-7H3,(H,51,52)/t21-,22+,23?,24?,25+,26-,27+,28-,29-,30-,31+,32-,33+,35-,36+,38+,39-,40+,41+,42+/m0/s1" "InChIKey=OKIHRVKXRCAJFQ-OFOMSTTESA-N" "molecular formula=C42H68O14" "total exact mass=796.460906856" "SMILES=C1C(C(C2C(C1)(C3C(CC2)(C4(C(=CC3)C5C(CC4)(C(CC(C5)(C)C)O)C)C)C)C)(CO)C)OC6OC(C(C(C6OC7OC(C(C(C7O)O)O)CO)O)O)C(O)=O"
Num Peaks: 3
 795 100.000000; 
 796 44.044044; 
 797 9.509510; 


Name: 3-Glu(1-2)GluA Soyasapogenol B
SYNON: $:00in-source
DB#: MetaboBASE1151
InChIKey: OKIHRVKXRCAJFQ-OFOMSTTESA-N
Instrument_type: LC-ESI-TOF
Instrument: impact HD
Ion_mode: N
InChIKey: OKIHRVKXRCAJFQ-OFOMSTTESA-N
Formula: C42H68O14
MW: 796
ExactMass: 796.460906856
Comments: "license=License CC-BY-NC-SA 4.0 International" "author=Plant Biology, The Noble Foundation, Ardmore, OK, US/Dennis Fine, Daniel Wherritt, and Lloyd Sumner" "instrument type=LC-ESI-TOF" "instrument=impact HD" "ionization=ESI" "ionization mode=negative" "peak width=0.018" "date=2014-06-03 22:55:36+02:00" "column=Waters Acquity BEH C18 1.7um x 2.1 x 150 mm" "retention time=1078.2" "raw data file=C:\Data\BWatson\14Jun03_BW_HR144-2-5_MSMS_2-A,4_01_201.d" "SMILES=C1[C@@H]([C@@](C2[C@](C1)(C1[C@@](CC2)([C@]2(C(=CC1)[C@H]1[C@@](CC2)([C@@H](CC(C1)(C)C)O)C)C)C)C)(CO)C)O[C@@H]1O[C@@H]([C@H]([C@@H]([C@H]1O[C@@H]1O[C@@H]([C@H]([C@@H]([C@H]1O)O)O)CO)O)O)C(=O)O" "InChI=InChI=1S/C42H68O14/c1-37(2)16-21-20-8-9-24-39(4)12-11-26(40(5,19-44)23(39)10-13-42(24,7)41(20,6)15-14-38(21,3)25(45)17-37)54-36-33(30(49)29(48)32(55-36)34(51)52)56-35-31(50)28(47)27(46)22(18-43)53-35/h8,21-33,35-36,43-50H,9-19H2,1-7H3,(H,51,52)/t21-,22+,23?,24?,25+,26-,27+,28-,29-,30-,31+,32-,33+,35-,36+,38+,39-,40+,41+,42+/m0/s1" "InChIKey=OKIHRVKXRCAJFQ-OFOMSTTESA-N" "molecular formula=C42H68O14" "total exact mass=796.460906856" "SMILES=C1C(C(C2C(C1)(C3C(CC2)(C4(C(=CC3)C5C(CC4)(C(CC(C5)(C)C)O)C)C)C)C)(CO)C)OC6OC(C(C(C6OC7OC(C(C(C7O)O)O)CO)O)O)C(O)=O"
Num Peaks: 11
 128 7.107107; 
 279 2.202202; 
 556 2.402402; 
 795 100.000000; 
 796 46.046046; 
 797 13.113113; 
 798 3.003003; 
 863 5.705706; 
 864 3.103103; 
 913 1.701702; 
 946 2.202202; 


Name: 3-Glu(1-2)Glu-28-Glu Hederagenin
SYNON: $:00in-source
DB#: MetaboBASE1152
InChIKey: GOIICROVOYDKKG-RMOCACDQSA-N
Instrument_type: LC-ESI-TOF
Instrument: impact HD
Ion_mode: N
InChIKey: GOIICROVOYDKKG-RMOCACDQSA-N
Formula: C48H78O19
MW: 958
ExactMass: 958.5137302759999
Comments: "license=License CC-BY-NC-SA 4.0 International" "author=Plant Biology, The Noble Foundation, Ardmore, OK, US/Dennis Fine, Daniel Wherritt, and Lloyd Sumner" "instrument type=LC-ESI-TOF" "instrument=impact HD" "ionization=ESI" "ionization mode=negative" "peak width=0.018" "date=2014-06-03 22:55:36+02:00" "column=Waters Acquity BEH C18 1.7um x 2.1 x 150 mm" "retention time=789.6" "raw data file=C:\Data\BWatson\14Jun03_BW_HR144-2-5_MSMS_2-A,4_01_201.d" "SMILES=C1[C@@H]([C@@](C2[C@](C1)(C1[C@@](CC2)([C@]2(C(=CC1)[C@H]1[C@@](CC2)(CCC(C1)(C)C)C(=O)O[C@H]1[C@@H]([C@H]([C@@H]([C@H](O1)CO)O)O)O)C)C)C)(C)CO)O[C@@H]1O[C@@H]([C@H]([C@@H]([C@H]1O[C@@H]1O[C@@H]([C@H]([C@@H]([C@H]1O)O)O)CO)O)O)CO" "InChI=InChI=1S/C48H78O19/c1-43(2)13-15-48(42(61)67-40-37(60)34(57)31(54)25(19-50)63-40)16-14-46(5)22(23(48)17-43)7-8-28-44(3)11-10-29(45(4,21-52)27(44)9-12-47(28,46)6)65-41-38(35(58)32(55)26(20-51)64-41)66-39-36(59)33(56)30(53)24(18-49)62-39/h7,23-41,49-60H,8-21H2,1-6H3/t23-,24+,25+,26+,27?,28?,29-,30+,31+,32+,33-,34-,35-,36+,37+,38+,39-,40-,41-,44-,45-,46+,47+,48-/m0/s1" "InChIKey=GOIICROVOYDKKG-RMOCACDQSA-N" "molecular formula=C48H78O19" "total exact mass=958.5137302759999" "SMILES=C1C(C(C2C(C1)(C3C(CC2)(C4(C(=CC3)C5C(CC4)(CCC(C5)(C)C)C(OC6C(C(C(C(O6)CO)O)O)O)=O)C)C)C)(C)CO)OC7OC(C(C(C7OC8OC(C(C(C8O)O)O)CO)O)O)CO"
Num Peaks: 21
 128 6.106106; 
 795 17.217217; 
 796 8.308308; 
 957 66.266266; 
 958 21.721722; 
 958 39.139139; 
 959 6.506507; 
 959 9.309309; 
 980 4.404404; 
 981 4.904905; 
 1003 100.000000; 
 1004 57.557558; 
 1005 19.419419; 
 1006 5.505506; 
 1071 11.711712; 
 1072 7.407407; 
 1073 3.403403; 
 1075 6.406406; 
 1076 4.304304; 
 1086 11.711712; 
 1087 6.906907; 


Name: 3-Glu(1-2)Glu-28-Glu Hederagenin
SYNON: $:00in-source
DB#: MetaboBASE1153
InChIKey: GOIICROVOYDKKG-RMOCACDQSA-N
Precursor_type: [M+FA-H]-
Spectrum_type: MS2
PrecursorMZ: 1003.58
Instrument_type: LC-ESI-TOF
Instrument: impact HD
Ion_mode: N
Collision_energy: 56.3842
InChIKey: GOIICROVOYDKKG-RMOCACDQSA-N
Formula: C48H78O19
MW: 958
ExactMass: 958.513730276
Comments: "license=License CC-BY-NC-SA 4.0 International" "author=Plant Biology, The Noble Foundation, Ardmore, OK, US/Dennis Fine, Daniel Wherritt, and Lloyd Sumner" "instrument type=LC-ESI-TOF" "instrument=impact HD" "ionization=ESI" "ionization mode=negative" "ms level=MS2" "precursor m/z=1003.58" "isolation width=10.0358" "collision energy=56.3842" "collision energy 2=93.9737" "peak width=0.018" "date=2014-06-03 22:55:36+02:00" "column=Waters Acquity BEH C18 1.7um x 2.1 x 150 mm" "retention time=789.6" "raw data file=C:\Data\BWatson\14Jun03_BW_HR144-2-5_MSMS_2-A,4_01_201.d" "precursor type=[M+FA-H]-" "mass accuracy=67.82590725203745" "mass error=0.06806872399999975" "SMILES=C1[C@@H]([C@@](C2[C@](C1)(C1[C@@](CC2)([C@]2(C(=CC1)[C@H]1[C@@](CC2)(CCC(C1)(C)C)C(=O)O[C@H]1[C@@H]([C@H]([C@@H]([C@H](O1)CO)O)O)O)C)C)C)(C)CO)O[C@@H]1O[C@@H]([C@H]([C@@H]([C@H]1O[C@@H]1O[C@@H]([C@H]([C@@H]([C@H]1O)O)O)CO)O)O)CO" "InChI=InChI=1S/C48H78O19/c1-43(2)13-15-48(42(61)67-40-37(60)34(57)31(54)25(19-50)63-40)16-14-46(5)22(23(48)17-43)7-8-28-44(3)11-10-29(45(4,21-52)27(44)9-12-47(28,46)6)65-41-38(35(58)32(55)26(20-51)64-41)66-39-36(59)33(56)30(53)24(18-49)62-39/h7,23-41,49-60H,8-21H2,1-6H3/t23-,24+,25+,26+,27?,28?,29-,30+,31+,32+,33-,34-,35-,36+,37+,38+,39-,40-,41-,44-,45-,46+,47+,48-/m0/s1" "InChIKey=GOIICROVOYDKKG-RMOCACDQSA-N" "molecular formula=C48H78O19" "total exact mass=958.513730276" "SMILES=C1C(C(C2C(C1)(C3C(CC2)(C4(C(=CC3)C5C(CC4)(CCC(C5)(C)C)C(OC6C(C(C(C(O6)CO)O)O)O)=O)C)C)C)(C)CO)OC7OC(C(C(C7OC8OC(C(C(C8O)O)O)CO)O)O)CO"
Num Peaks: 9
 471 32.932933; 
 472 9.409409; 
 615 5.905906; 
 633 33.333333; 
 634 11.111111; 
 795 100.000000; 
 796 45.245245; 
 797 12.112112; 
 837 5.505506; 


Name: 3-Glu(1-2)Glu-28-Glu Hederagenin
SYNON: $:00in-source
DB#: MetaboBASE1154
InChIKey: GOIICROVOYDKKG-RMOCACDQSA-N
Precursor_type: [M-H]-
Spectrum_type: MS2
PrecursorMZ: 957.5701
Instrument_type: LC-ESI-TOF
Instrument: impact HD
Ion_mode: N
Collision_energy: 54.6589
InChIKey: GOIICROVOYDKKG-RMOCACDQSA-N
Formula: C48H78O19
MW: 958
ExactMass: 958.513730276
Comments: "license=License CC-BY-NC-SA 4.0 International" "author=Plant Biology, The Noble Foundation, Ardmore, OK, US/Dennis Fine, Daniel Wherritt, and Lloyd Sumner" "instrument type=LC-ESI-TOF" "instrument=impact HD" "ionization=ESI" "ionization mode=negative" "ms level=MS2" "precursor m/z=957.5701" "isolation width=9.83028" "collision energy=54.6589" "collision energy 2=91.0981" "peak width=0.018" "date=2014-06-03 22:55:36+02:00" "column=Waters Acquity BEH C18 1.7um x 2.1 x 150 mm" "retention time=789.6" "raw data file=C:\Data\BWatson\14Jun03_BW_HR144-2-5_MSMS_2-A,4_01_201.d" "precursor type=[M-H]-" "mass accuracy=66.46586396131775" "mass error=0.06364572400002544" "SMILES=C1[C@@H]([C@@](C2[C@](C1)(C1[C@@](CC2)([C@]2(C(=CC1)[C@H]1[C@@](CC2)(CCC(C1)(C)C)C(=O)O[C@H]1[C@@H]([C@H]([C@@H]([C@H](O1)CO)O)O)O)C)C)C)(C)CO)O[C@@H]1O[C@@H]([C@H]([C@@H]([C@H]1O[C@@H]1O[C@@H]([C@H]([C@@H]([C@H]1O)O)O)CO)O)O)CO" "InChI=InChI=1S/C48H78O19/c1-43(2)13-15-48(42(61)67-40-37(60)34(57)31(54)25(19-50)63-40)16-14-46(5)22(23(48)17-43)7-8-28-44(3)11-10-29(45(4,21-52)27(44)9-12-47(28,46)6)65-41-38(35(58)32(55)26(20-51)64-41)66-39-36(59)33(56)30(53)24(18-49)62-39/h7,23-41,49-60H,8-21H2,1-6H3/t23-,24+,25+,26+,27?,28?,29-,30+,31+,32+,33-,34-,35-,36+,37+,38+,39-,40-,41-,44-,45-,46+,47+,48-/m0/s1" "InChIKey=GOIICROVOYDKKG-RMOCACDQSA-N" "molecular formula=C48H78O19" "total exact mass=958.513730276" "SMILES=C1C(C(C2C(C1)(C3C(CC2)(C4(C(=CC3)C5C(CC4)(CCC(C5)(C)C)C(OC6C(C(C(C(O6)CO)O)O)O)=O)C)C)C)(C)CO)OC7OC(C(C(C7OC8OC(C(C(C8O)O)O)CO)O)O)CO"
Num Peaks: 6
 471 43.143143; 
 472 17.917918; 
 633 51.251251; 
 634 18.118118; 
 795 100.000000; 
 796 43.043043; 


Name: 3-Rha(1-2)Gal(1-2)GluA-Soyasaponenol E
SYNON: $:00in-source
DB#: MetaboBASE1155
InChIKey: CROUPKILZUPLQA-SXXIBTJASA-N
Instrument_type: LC-ESI-TOF
Instrument: impact HD
Ion_mode: N
InChIKey: CROUPKILZUPLQA-SXXIBTJASA-N
Formula: C48H76O18
MW: 940
ExactMass: 940.503165592
Comments: "synonym=3-Rha-Gal-GluA-Soyasaponenol E" "license=License CC-BY-NC-SA 4.0 International" "author=Plant Biology, The Noble Foundation, Ardmore, OK, US/Dennis Fine, Daniel Wherritt, and Lloyd Sumner" "instrument type=LC-ESI-TOF" "instrument=impact HD" "ionization=ESI" "ionization mode=negative" "peak width=0.034" "date=2014-12-12 20:57:07+01:00" "column=Waters Acquity BEH C18 1.7um x 2.1 x 150 mm" "retention time=1123.2" "raw data file=C:\Data\Noble-Bruker MS libr eval complex mix\2014Dec_A17 aer rt mix MSMS_1-A,2_01_1447.d" "SMILES=C1[C@@H]([C@@](C2[C@](C1)(C1[C@@](CC2)([C@]2(C(=CC1)[C@H]1[C@@](CC2)(C(=O)CC(C1)(C)C)C)C)C)C)(CO)C)O[C@@H]1O[C@@H]([C@H]([C@@H]([C@H]1O[C@@H]1O[C@@H]([C@@H]([C@@H]([C@H]1O[C@@H]1O[C@H]([C@@H]([C@H]([C@H]1O)O)O)C)O)O)CO)O)O)C(=O)O" "InChI=InChI=1S/C48H76O18/c1-21-29(52)31(54)35(58)40(61-21)65-37-32(55)30(53)24(19-49)62-41(37)66-38-34(57)33(56)36(39(59)60)64-42(38)63-28-12-13-45(5)25(46(28,6)20-50)11-14-48(8)26(45)10-9-22-23-17-43(2,3)18-27(51)44(23,4)15-16-47(22,48)7/h9,21,23-26,28-38,40-42,49-50,52-58H,10-20H2,1-8H3,(H,59,60)/t21-,23-,24+,25?,26?,28-,29-,30-,31+,32-,33-,34-,35+,36-,37+,38+,40-,41-,42+,44+,45-,46+,47+,48+/m0/s1" "InChIKey=CROUPKILZUPLQA-SXXIBTJASA-N" "molecular formula=C48H76O18" "total exact mass=940.503165592" "SMILES=C1C(C(C2C(C1)(C3C(CC2)(C4(C(=CC3)C5C(CC4)(C(CC(C5)(C)C)=O)C)C)C)C)(CO)C)OC6OC(C(C(C6OC7OC(C(C(C7OC8OC(C(C(C8O)O)O)C)O)O)CO)O)O)C(=O)O"
Num Peaks: 38
 939 0.100100; 
 939 0.200200; 
 939 100.000000; 
 940 53.753754; 
 941 14.114114; 
 942 2.502503; 
 975 0.900901; 
 976 0.400400; 
 977 0.400400; 
 985 10.110110; 
 986 4.704705; 
 987 1.301301; 
 1007 10.210210; 
 1008 4.304304; 
 1009 1.201201; 
 1057 1.301301; 
 1058 0.700701; 
 1069 0.700701; 
 1075 1.201201; 
 1076 0.600601; 
 1143 0.600601; 
 1409 2.402402; 
 1410 4.104104; 
 1410 3.503504; 
 1411 0.100100; 
 1411 2.002002; 
 1411 0.900901; 
 1412 0.400400; 
 1412 0.200200; 
 1420 0.100100; 
 1420 0.300300; 
 1421 0.700701; 
 1421 0.500501; 
 1422 0.300300; 
 1422 0.200200; 
 1880 0.200200; 
 1880 0.500501; 
 1881 0.200200; 


Name: 3-Rha(1-2)Gal(1-2)GluA-Soyasaponenol E
SYNON: $:00in-source
DB#: MetaboBASE1156
InChIKey: CROUPKILZUPLQA-SXXIBTJASA-N
Precursor_type: [M-H]-
Spectrum_type: MS2
PrecursorMZ: 939.4902
Instrument_type: LC-ESI-TOF
Instrument: impact HD
Ion_mode: N
Collision_energy: 53.9815
InChIKey: CROUPKILZUPLQA-SXXIBTJASA-N
Formula: C48H76O18
MW: 940
ExactMass: 940.503165592
Comments: "synonym=3-Rha-Gal-GluA-Soyasaponenol E" "license=License CC-BY-NC-SA 4.0 International" "author=Plant Biology, The Noble Foundation, Ardmore, OK, US/Dennis Fine, Daniel Wherritt, and Lloyd Sumner" "instrument type=LC-ESI-TOF" "instrument=impact HD" "ionization=ESI" "ionization mode=negative" "ms level=MS2" "precursor m/z=939.4902" "collision energy=53.9815" "collision energy 2=89.9692" "peak width=0.014" "date=2014-12-12 20:57:07+01:00" "column=Waters Acquity BEH C18 1.7um x 2.1 x 150 mm" "retention time=1123.2" "raw data file=C:\Data\Noble-Bruker MS libr eval complex mix\2014Dec_A17 aer rt mix MSMS_1-A,2_01_1447.d" "precursor type=[M-H]-" "mass accuracy=6.056041883090783" "mass error=-0.005689591999953336" "SMILES=C1[C@@H]([C@@](C2[C@](C1)(C1[C@@](CC2)([C@]2(C(=CC1)[C@H]1[C@@](CC2)(C(=O)CC(C1)(C)C)C)C)C)C)(CO)C)O[C@@H]1O[C@@H]([C@H]([C@@H]([C@H]1O[C@@H]1O[C@@H]([C@@H]([C@@H]([C@H]1O[C@@H]1O[C@H]([C@@H]([C@H]([C@H]1O)O)O)C)O)O)CO)O)O)C(=O)O" "InChI=InChI=1S/C48H76O18/c1-21-29(52)31(54)35(58)40(61-21)65-37-32(55)30(53)24(19-49)62-41(37)66-38-34(57)33(56)36(39(59)60)64-42(38)63-28-12-13-45(5)25(46(28,6)20-50)11-14-48(8)26(45)10-9-22-23-17-43(2,3)18-27(51)44(23,4)15-16-47(22,48)7/h9,21,23-26,28-38,40-42,49-50,52-58H,10-20H2,1-8H3,(H,59,60)/t21-,23-,24+,25?,26?,28-,29-,30-,31+,32-,33-,34-,35+,36-,37+,38+,40-,41-,42+,44+,45-,46+,47+,48+/m0/s1" "InChIKey=CROUPKILZUPLQA-SXXIBTJASA-N" "molecular formula=C48H76O18" "total exact mass=940.503165592" "SMILES=C1C(C(C2C(C1)(C3C(CC2)(C4(C(=CC3)C5C(CC4)(C(CC(C5)(C)C)=O)C)C)C)C)(CO)C)OC6OC(C(C(C6OC7OC(C(C(C7OC8OC(C(C(C8O)O)O)C)O)O)CO)O)O)C(=O)O"
Num Peaks: 53
 99 2.302302; 
 101 2.302302; 
 103 0.600601; 
 112 0.200200; 
 113 3.003003; 
 115 0.100100; 
 115 0.900901; 
 119 1.001001; 
 125 0.100100; 
 131 1.401401; 
 139 0.900901; 
 143 1.901902; 
 144 0.100100; 
 145 0.200200; 
 157 1.301301; 
 161 0.700701; 
 163 2.402402; 
 205 2.902903; 
 206 0.100100; 
 231 0.100100; 
 247 1.201201; 
 257 0.200200; 
 265 0.200200; 
 277 0.100100; 
 307 0.100100; 
 325 0.100100; 
 391 1.101101; 
 392 0.100100; 
 407 3.203203; 
 408 0.800801; 
 435 0.400400; 
 455 1.201201; 
 456 0.200200; 
 569 0.100100; 
 595 0.500501; 
 596 0.100100; 
 613 2.802803; 
 614 0.800801; 
 731 1.401401; 
 732 0.100100; 
 749 0.300300; 
 793 0.100100; 
 877 1.601602; 
 878 0.700701; 
 921 2.802803; 
 922 1.301301; 
 923 0.200200; 
 939 100.000000; 
 939 0.100100; 
 940 0.100100; 
 940 51.551552; 
 941 14.514515; 
 942 2.402402; 


Name: 3-Rha(1-2)Gal(1-2)GluA-Soyasaponenol E
SYNON: $:00in-source
DB#: MetaboBASE1157
InChIKey: CROUPKILZUPLQA-SXXIBTJASA-N
Precursor_type: [M-H]-
Spectrum_type: MS2
PrecursorMZ: 939.496
Instrument_type: LC-ESI-TOF
Instrument: impact HD
Ion_mode: N
Collision_energy: 52.5
InChIKey: CROUPKILZUPLQA-SXXIBTJASA-N
Formula: C48H76O18
MW: 940
ExactMass: 940.503165592
Comments: "synonym=3-Rha-Gal-GluA-Soyasaponenol E" "license=License CC-BY-NC-SA 4.0 International" "author=Plant Biology, The Noble Foundation, Ardmore, OK, US/Dennis Fine, Daniel Wherritt, and Lloyd Sumner" "instrument type=LC-ESI-TOF" "instrument=impact HD" "ionization=ESI" "ionization mode=negative" "ms level=MS2" "precursor m/z=939.496" "collision energy=52.5" "peak width=0.039" "date=2014-12-12 20:57:07+01:00" "column=Waters Acquity BEH C18 1.7um x 2.1 x 150 mm" "retention time=1123.2" "raw data file=C:\Data\Noble-Bruker MS libr eval complex mix\2014Dec_A17 aer rt mix MSMS_1-A,2_01_1447.d" "precursor type=[M-H]-" "mass accuracy=0.11751832904948353" "mass error=1.1040800006867357E-4" "SMILES=C1[C@@H]([C@@](C2[C@](C1)(C1[C@@](CC2)([C@]2(C(=CC1)[C@H]1[C@@](CC2)(C(=O)CC(C1)(C)C)C)C)C)C)(CO)C)O[C@@H]1O[C@@H]([C@H]([C@@H]([C@H]1O[C@@H]1O[C@@H]([C@@H]([C@@H]([C@H]1O[C@@H]1O[C@H]([C@@H]([C@H]([C@H]1O)O)O)C)O)O)CO)O)O)C(=O)O" "InChI=InChI=1S/C48H76O18/c1-21-29(52)31(54)35(58)40(61-21)65-37-32(55)30(53)24(19-49)62-41(37)66-38-34(57)33(56)36(39(59)60)64-42(38)63-28-12-13-45(5)25(46(28,6)20-50)11-14-48(8)26(45)10-9-22-23-17-43(2,3)18-27(51)44(23,4)15-16-47(22,48)7/h9,21,23-26,28-38,40-42,49-50,52-58H,10-20H2,1-8H3,(H,59,60)/t21-,23-,24+,25?,26?,28-,29-,30-,31+,32-,33-,34-,35+,36-,37+,38+,40-,41-,42+,44+,45-,46+,47+,48+/m0/s1" "InChIKey=CROUPKILZUPLQA-SXXIBTJASA-N" "molecular formula=C48H76O18" "total exact mass=940.503165592" "SMILES=C1C(C(C2C(C1)(C3C(CC2)(C4(C(=CC3)C5C(CC4)(C(CC(C5)(C)C)=O)C)C)C)C)(CO)C)OC6OC(C(C(C6OC7OC(C(C(C7OC8OC(C(C(C8O)O)O)C)O)O)CO)O)O)C(=O)O"
Num Peaks: 49
 99 1.901902; 
 101 2.302302; 
 103 0.300300; 
 111 0.300300; 
 112 0.300300; 
 113 2.602603; 
 119 0.600601; 
 131 1.101101; 
 139 1.101101; 
 143 0.900901; 
 143 0.400400; 
 157 0.500501; 
 161 0.400400; 
 163 1.801802; 
 205 1.301301; 
 221 0.400400; 
 239 0.300300; 
 247 0.300300; 
 247 0.700701; 
 391 0.300300; 
 392 0.300300; 
 407 2.102102; 
 408 0.500501; 
 435 0.400400; 
 453 0.400400; 
 455 1.801802; 
 456 1.001001; 
 465 0.300300; 
 520 0.300300; 
 532 0.300300; 
 547 0.300300; 
 613 1.901902; 
 614 0.400400; 
 615 0.300300; 
 731 0.400400; 
 877 0.300300; 
 921 1.201201; 
 921 1.001001; 
 922 0.400400; 
 923 0.400400; 
 939 1.201201; 
 939 100.000000; 
 940 0.500501; 
 940 47.747748; 
 941 14.214214; 
 942 3.003003; 
 943 0.400400; 
 1201 0.300300; 
 1278 0.300300; 


Name: 7-Glu tricin
SYNON: $:00in-source
DB#: MetaboBASE1158
InChIKey: JGXFMIJHKASCIZ-LDBVRRDLSA-N
Precursor_type: [M-H]-
Spectrum_type: MS2
PrecursorMZ: 491.1277
Instrument_type: LC-ESI-TOF
Instrument: impact HD
Ion_mode: N
Collision_energy: 37.001
InChIKey: JGXFMIJHKASCIZ-LDBVRRDLSA-N
Formula: C23H24O12
MW: 492
ExactMass: 492.12677620799997
Comments: "license=License CC-BY-NC-SA 4.0 International" "author=Plant Biology, The Noble Foundation, Ardmore, OK, US/Dennis Fine, Daniel Wherritt, and Lloyd Sumner" "instrument type=LC-ESI-TOF" "instrument=impact HD" "ionization=ESI" "ionization mode=negative" "ms level=MS2" "precursor m/z=491.1277" "collision energy=37.001" "collision energy 2=61.6683" "peak width=0.014" "date=2014-12-12 20:57:07+01:00" "column=Waters Acquity BEH C18 1.7um x 2.1 x 150 mm" "retention time=433.2" "raw data file=C:\Data\Noble-Bruker MS libr eval complex mix\2014Dec_A17 aer rt mix MSMS_1-A,2_01_1447.d" "precursor type=[M-H]-" "mass accuracy=16.69584509289056" "mass error=0.008199792000027628" "SMILES=c1(cc(c2c(c1)oc(cc2=O)c1cc(c(c(c1)OC)O)OC)O)O[C@@H]1O[C@@H]([C@H]([C@@H]([C@H]1O)O)O)CO" "InChI=InChI=1S/C23H24O12/c1-31-15-3-9(4-16(32-2)19(15)27)13-7-12(26)18-11(25)5-10(6-14(18)34-13)33-23-22(30)21(29)20(28)17(8-24)35-23/h3-7,17,20-25,27-30H,8H2,1-2H3/t17-,20-,21+,22-,23-/m1/s1" "InChIKey=JGXFMIJHKASCIZ-LDBVRRDLSA-N" "molecular formula=C23H24O12" "total exact mass=492.12677620799997" "SMILES=C1(=CC(=C2C(=C1)OC(=CC2=O)C3=CC(=C(C(=C3)OC)O)OC)O)OC4OC(C(C(C4O)O)O)CO"
Num Peaks: 13
 226 45.245245; 
 227 13.013013; 
 243 12.812813; 
 270 11.511512; 
 271 16.216216; 
 285 43.343343; 
 313 100.000000; 
 314 11.111111; 
 328 22.222222; 
 461 70.470470; 
 476 71.271271; 
 477 10.910911; 
 491 13.313313; 


Name: 7-Glu tricin
SYNON: $:00in-source
DB#: MetaboBASE1159
InChIKey: JGXFMIJHKASCIZ-LDBVRRDLSA-N
Instrument_type: LC-ESI-TOF
Instrument: impact HD
Ion_mode: N
Collision_energy: 10
InChIKey: JGXFMIJHKASCIZ-LDBVRRDLSA-N
Formula: C23H24O12
MW: 492
ExactMass: 492.12677620799997
Comments: "license=License CC-BY-NC-SA 4.0 International" "author=Plant Biology, The Noble Foundation, Ardmore, OK, US/Dennis Fine, Daniel Wherritt, and Lloyd Sumner" "instrument type=LC-ESI-TOF" "instrument=impact HD" "ionization=ESI" "ionization mode=negative" "collision energy=10" "peak width=0.018" "date=2014-11-13 23:30:24+01:00" "column=Waters Acquity BEH C18 1.7um x 2.1 x 150 mm" "retention time=433.8" "raw data file=C:\Data\2014Nov12_A-17 aerial root MS MSMS\A-17 aerial MS_1-A,2_01_1225.d" "SMILES=c1(cc(c2c(c1)oc(cc2=O)c1cc(c(c(c1)OC)O)OC)O)O[C@@H]1O[C@@H]([C@H]([C@@H]([C@H]1O)O)O)CO" "InChI=InChI=1S/C23H24O12/c1-31-15-3-9(4-16(32-2)19(15)27)13-7-12(26)18-11(25)5-10(6-14(18)34-13)33-23-22(30)21(29)20(28)17(8-24)35-23/h3-7,17,20-25,27-30H,8H2,1-2H3/t17-,20-,21+,22-,23-/m1/s1" "InChIKey=JGXFMIJHKASCIZ-LDBVRRDLSA-N" "molecular formula=C23H24O12" "total exact mass=492.12677620799997" "SMILES=C1(=CC(=C2C(=C1)OC(=CC2=O)C3=CC(=C(C(=C3)OC)O)OC)O)OC4OC(C(C(C4O)O)O)CO"
Num Peaks: 15
 112 1.601602; 
 116 0.500501; 
 128 2.302302; 
 174 1.401401; 
 239 3.503504; 
 471 1.901902; 
 471 0.100100; 
 491 100.000000; 
 492 26.026026; 
 493 5.005005; 
 503 1.601602; 
 506 0.600601; 
 556 0.200200; 
 559 5.905906; 
 783 0.400400; 


Name: 7-Glu tricin
SYNON: $:00in-source
DB#: MetaboBASE1160
InChIKey: JGXFMIJHKASCIZ-LDBVRRDLSA-N
Instrument_type: LC-ESI-TOF
Instrument: impact HD
Ion_mode: N
InChIKey: JGXFMIJHKASCIZ-LDBVRRDLSA-N
Formula: C23H24O12
MW: 492
ExactMass: 492.12677620799997
Comments: "license=License CC-BY-NC-SA 4.0 International" "author=Plant Biology, The Noble Foundation, Ardmore, OK, US/Dennis Fine, Daniel Wherritt, and Lloyd Sumner" "instrument type=LC-ESI-TOF" "instrument=impact HD" "ionization=ESI" "ionization mode=negative" "peak width=0.015" "date=2014-12-12 20:57:07+01:00" "column=Waters Acquity BEH C18 1.7um x 2.1 x 150 mm" "retention time=433.2" "raw data file=C:\Data\Noble-Bruker MS libr eval complex mix\2014Dec_A17 aer rt mix MSMS_1-A,2_01_1447.d" "SMILES=c1(cc(c2c(c1)oc(cc2=O)c1cc(c(c(c1)OC)O)OC)O)O[C@@H]1O[C@@H]([C@H]([C@@H]([C@H]1O)O)O)CO" "InChI=InChI=1S/C23H24O12/c1-31-15-3-9(4-16(32-2)19(15)27)13-7-12(26)18-11(25)5-10(6-14(18)34-13)33-23-22(30)21(29)20(28)17(8-24)35-23/h3-7,17,20-25,27-30H,8H2,1-2H3/t17-,20-,21+,22-,23-/m1/s1" "InChIKey=JGXFMIJHKASCIZ-LDBVRRDLSA-N" "molecular formula=C23H24O12" "total exact mass=492.12677620799997" "SMILES=C1(=CC(=C2C(=C1)OC(=CC2=O)C3=CC(=C(C(=C3)OC)O)OC)O)OC4OC(C(C(C4O)O)O)CO"
Num Peaks: 18
 269 1.001001; 
 328 2.002002; 
 417 5.105105; 
 433 1.401401; 
 433 1.201201; 
 463 1.001001; 
 487 2.102102; 
 491 100.000000; 
 492 23.723724; 
 493 4.704705; 
 507 1.201201; 
 559 4.104104; 
 579 3.003003; 
 621 2.202202; 
 673 1.401401; 
 753 1.201201; 
 983 3.903904; 
 997 3.603604; 


Name: (Z)-3-Hydroxyhexadec-7-enoic acid
SYNON: $:00in-source
DB#: MetaboBASE1161
InChIKey: CBHANIXDPMXBGZ-KTKRTIGZSA-N
Instrument_type: LC-ESI-TOF
Instrument: impact HD
Ion_mode: N
Collision_energy: 10
InChIKey: CBHANIXDPMXBGZ-KTKRTIGZSA-N
Formula: C16H30O3
MW: 270
ExactMass: 270.21949482
Comments: "license=License CC-BY-NC-SA 4.0 International" "author=Plant Biology, The Noble Foundation, Ardmore, OK, US/Dennis Fine, Daniel Wherritt, and Lloyd Sumner" "instrument type=LC-ESI-TOF" "instrument=impact HD" "ionization=ESI" "ionization mode=negative" "collision energy=10" "peak width=0.013" "date=2014-08-25 19:06:16+02:00" "column=Waters Acquity BEH C18 1.7um x 2.1 x 150 mm" "retention time=1446.6" "raw data file=G:\Sumner Lab Data Management Workspace Jun2013\Projects\NSF-JST Metabolomics Nov2011-Sep2014\UPLC-MS-MSMS\Pstab\2014Aug25_Pstab_chromatogram_1-C,1_01_697.d" "SMILES=C(=O)(CC(CCC/C=C\CCCCCCCC)O)O" "InChI=InChI=1S/C16H30O3/c1-2-3-4-5-6-7-8-9-10-11-12-13-15(17)14-16(18)19/h9-10,15,17H,2-8,11-14H2,1H3,(H,18,19)/b10-9-" "InChIKey=CBHANIXDPMXBGZ-KTKRTIGZSA-N" "molecular formula=C16H30O3" "total exact mass=270.21949482" "SMILES=C(CC(CCCC=CCCCCCCCC)O)(=O)O"
Num Peaks: 20
 187 1.201201; 
 250 2.202202; 
 269 100.000000; 
 270 21.121121; 
 271 3.203203; 
 297 3.103103; 
 337 1.701702; 
 369 3.703704; 
 370 1.101101; 
 445 2.702703; 
 556 5.005005; 
 561 10.210210; 
 562 4.204204; 
 706 1.401401; 
 720 1.201201; 
 731 7.507508; 
 732 3.403403; 
 733 1.801802; 
 853 2.202202; 
 854 1.201201; 


Name: 3-Hydroxyhexadecanoic acid
SYNON: $:00in-source
DB#: MetaboBASE1162
InChIKey: CBWALJHXHCJYTE-UHFFFAOYSA-N
Instrument_type: LC-ESI-TOF
Instrument: impact HD
Ion_mode: N
Collision_energy: 10
InChIKey: CBWALJHXHCJYTE-UHFFFAOYSA-N
Formula: C16H32O3
MW: 272
ExactMass: 272.23514488399996
Comments: "license=License CC-BY-NC-SA 4.0 International" "author=Plant Biology, The Noble Foundation, Ardmore, OK, US/Dennis Fine, Daniel Wherritt, and Lloyd Sumner" "instrument type=LC-ESI-TOF" "instrument=impact HD" "ionization=ESI" "ionization mode=negative" "collision energy=10" "peak width=0.012" "date=2014-08-25 19:06:16+02:00" "column=Waters Acquity BEH C18 1.7um x 2.1 x 150 mm" "retention time=1605" "raw data file=G:\Sumner Lab Data Management Workspace Jun2013\Projects\NSF-JST Metabolomics Nov2011-Sep2014\UPLC-MS-MSMS\Pstab\2014Aug25_Pstab_chromatogram_1-C,1_01_697.d" "SMILES=CCCCCCCCCCCCCC(CC(=O)O)O" "InChI=InChI=1S/C16H32O3/c1-2-3-4-5-6-7-8-9-10-11-12-13-15(17)14-16(18)19/h15,17H,2-14H2,1H3,(H,18,19)" "InChIKey=CBWALJHXHCJYTE-UHFFFAOYSA-N" "molecular formula=C16H32O3" "total exact mass=272.23514488399996" "SMILES=CCCCCCCCCCCCCC(CC(=O)O)O"
Num Peaks: 9
 271 100.000000; 
 271 1.401401; 
 272 17.617618; 
 273 2.502503; 
 371 4.304304; 
 372 1.401401; 
 445 1.001001; 
 565 4.004004; 
 566 1.601602; 


Name: (Z)-3-Hydroxyoctadec-7-enoic acid
SYNON: $:00in-source
DB#: MetaboBASE1163
InChIKey: FDASJJZDUIYPQA-QXMHVHEDSA-N
Instrument_type: LC-ESI-TOF
Instrument: impact HD
Ion_mode: N
Collision_energy: 10
InChIKey: FDASJJZDUIYPQA-QXMHVHEDSA-N
Formula: C18H34O3
MW: 298
ExactMass: 298.250794948
Comments: "license=License CC-BY-NC-SA 4.0 International" "author=Plant Biology, The Noble Foundation, Ardmore, OK, US/Dennis Fine, Daniel Wherritt, and Lloyd Sumner" "instrument type=LC-ESI-TOF" "instrument=impact HD" "ionization=ESI" "ionization mode=negative" "collision energy=10" "peak width=0.011" "date=2014-08-25 19:06:16+02:00" "column=Waters Acquity BEH C18 1.7um x 2.1 x 150 mm" "retention time=1657.8" "raw data file=G:\Sumner Lab Data Management Workspace Jun2013\Projects\NSF-JST Metabolomics Nov2011-Sep2014\UPLC-MS-MSMS\Pstab\2014Aug25_Pstab_chromatogram_1-C,1_01_697.d" "SMILES=C(=O)(CC(CCC/C=C\CCCCCCCCCC)O)O" "InChI=InChI=1S/C18H34O3/c1-2-3-4-5-6-7-8-9-10-11-12-13-14-15-17(19)16-18(20)21/h11-12,17,19H,2-10,13-16H2,1H3,(H,20,21)/b12-11-" "InChIKey=FDASJJZDUIYPQA-QXMHVHEDSA-N" "molecular formula=C18H34O3" "total exact mass=298.250794948" "SMILES=C(CC(CCCC=CCCCCCCCCCC)O)(=O)O"
Num Peaks: 10
 297 100.000000; 
 297 1.301301; 
 298 21.321321; 
 299 2.902903; 
 353 2.302302; 
 397 3.803804; 
 398 1.301301; 
 617 4.204204; 
 618 1.901902; 
 937 1.101101; 


Name: 3-Glu-(1-2)Ara-28-Glu Hederagenin
SYNON: $:00in-source
DB#: MetaboBASE1164
InChIKey: MFUIQYJWLPDASM-JVXCVNMSSA-N
Instrument_type: LC-ESI-TOF
Instrument: impact HD
Ion_mode: N
InChIKey: MFUIQYJWLPDASM-JVXCVNMSSA-N
Formula: C48H78O17
MW: 926
ExactMass: 926.523901036
Comments: "synonym=3-Glu(1-2)Ara-28-Glu Hederagenin (NMR)" "license=License CC-BY-NC-SA 4.0 International" "author=Plant Biology, The Noble Foundation, Ardmore, OK, US/Dennis Fine, Daniel Wherritt, and Lloyd Sumner" "instrument type=LC-ESI-TOF" "instrument=impact HD" "ionization=ESI" "ionization mode=negative" "peak width=0.014" "date=2014-12-12 20:57:07+01:00" "column=Waters Acquity BEH C18 1.7um x 2.1 x 150 mm" "retention time=875.4" "raw data file=C:\Data\Noble-Bruker MS libr eval complex mix\2014Dec_A17 aer rt mix MSMS_1-A,2_01_1447.d" "annotformula=557.2595;        C27H41O12" "annotformula=973.5020;        C48H77O20" "SMILES=C1[C@@H]([C@@](C2[C@](C1)(C1[C@@](CC2)([C@]2(C(=CC1)[C@H]1[C@@](CC2)(CCC(C1)(C)C)C(=O)O[C@H]1[C@@H]([C@H]([C@@H]([C@H](O1)CO)O)O)O)C)C)C)(C)CO)O[C@@H]1OC[C@@H]([C@@H]([C@H]1C[C@@H]1O[C@@H]([C@H]([C@@H]([C@H]1O)O)O)CO)O)O" "InChI=InChI=1S/C48H78O17/c1-43(2)13-15-48(42(60)65-41-39(59)38(58)36(56)29(20-50)63-41)16-14-46(5)24(25(48)18-43)7-8-31-44(3)11-10-32(45(4,22-51)30(44)9-12-47(31,46)6)64-40-23(33(53)26(52)21-61-40)17-27-34(54)37(57)35(55)28(19-49)62-27/h7,23,25-41,49-59H,8-22H2,1-6H3/t23-,25+,26+,27+,28-,29-,30?,31?,32+,33-,34+,35-,36-,37-,38+,39-,40+,41+,44+,45+,46-,47-,48+/m1/s1" "InChIKey=MFUIQYJWLPDASM-JVXCVNMSSA-N" "molecular formula=C48H78O17" "total exact mass=926.523901036" "SMILES=C1C(C(C2C(C1)(C3C(CC2)(C4(C(=CC3)C5C(CC4)(CCC(C5)(C)C)C(OC6C(C(C(C(O6)CO)O)O)O)=O)C)C)C)(C)CO)OC7OCC(C(C7CC8OC(C(C(C8O)O)O)CO)O)O"
Num Peaks: 159
 557 0.400400; 
 557 1.201201; 
 557 0.700701; 
 765 11.711712; 
 765 0.100100; 
 766 0.100100; 
 766 5.105105; 
 767 1.501502; 
 795 1.101101; 
 845 0.100100; 
 846 3.203203; 
 846 2.902903; 
 847 0.100100; 
 847 1.601602; 
 847 0.100100; 
 847 0.700701; 
 927 0.100100; 
 927 0.200200; 
 927 48.248248; 
 927 0.100100; 
 927 0.100100; 
 927 0.100100; 
 927 32.232232; 
 928 0.100100; 
 928 0.100100; 
 928 0.100100; 
 928 0.100100; 
 928 31.631632; 
 928 0.100100; 
 928 0.100100; 
 929 7.907908; 
 929 0.100100; 
 929 6.706707; 
 930 0.900901; 
 930 1.201201; 
 939 0.800801; 
 939 0.100100; 
 939 0.800801; 
 940 0.500501; 
 940 0.200200; 
 950 10.910911; 
 950 0.100100; 
 951 10.410410; 
 951 0.500501; 
 951 7.007007; 
 952 3.103103; 
 952 0.100100; 
 952 0.800801; 
 952 1.001001; 
 952 0.300300; 
 962 0.400400; 
 963 2.302302; 
 963 0.100100; 
 964 0.100100; 
 964 1.201201; 
 964 0.100100; 
 964 0.100100; 
 973 0.500501; 
 973 0.100100; 
 973 0.100100; 
 973 0.300300; 
 973 100.000000; 
 973 0.100100; 
 973 0.100100; 
 974 0.100100; 
 974 0.100100; 
 974 57.857858; 
 974 0.100100; 
 975 0.100100; 
 975 19.419419; 
 975 0.100100; 
 975 0.100100; 
 976 0.100100; 
 976 5.105105; 
 976 0.300300; 
 976 0.100100; 
 984 0.100100; 
 984 2.002002; 
 984 1.901902; 
 985 2.002002; 
 985 1.501502; 
 986 1.701702; 
 986 0.300300; 
 986 1.601602; 
 987 0.100100; 
 992 0.100100; 
 992 1.201201; 
 992 1.101101; 
 1021 1.101101; 
 1022 1.101101; 
 1022 0.600601; 
 1023 0.400400; 
 1041 9.609610; 
 1041 0.100100; 
 1042 0.100100; 
 1042 5.505506; 
 1042 0.100100; 
 1043 11.711712; 
 1043 0.100100; 
 1044 6.206206; 
 1044 0.100100; 
 1045 0.100100; 
 1045 10.210210; 
 1045 0.800801; 
 1046 0.100100; 
 1046 6.406406; 
 1046 0.100100; 
 1047 2.602603; 
 1048 0.100100; 
 1109 1.401401; 
 1110 1.001001; 
 1111 1.301301; 
 1112 0.100100; 
 1112 0.700701; 
 1113 0.300300; 
 1391 5.305305; 
 1391 0.100100; 
 1392 0.100100; 
 1392 8.008008; 
 1392 6.206206; 
 1393 4.404404; 
 1393 2.202202; 
 1394 0.800801; 
 1414 0.100100; 
 1414 4.004004; 
 1415 6.406406; 
 1415 5.505506; 
 1415 0.100100; 
 1416 3.303303; 
 1416 0.100100; 
 1416 1.701702; 
 1417 0.600601; 
 1437 0.900901; 
 1438 0.100100; 
 1438 1.201201; 
 1438 0.100100; 
 1438 0.200200; 
 1438 1.101101; 
 1439 0.500501; 
 1449 1.601602; 
 1449 2.502503; 
 1450 2.602603; 
 1450 0.100100; 
 1450 2.202202; 
 1451 2.002002; 
 1451 0.100100; 
 1451 0.100100; 
 1451 1.201201; 
 1451 0.100100; 
 1452 0.900901; 
 1472 0.700701; 
 1472 1.101101; 
 1472 0.100100; 
 1473 1.601602; 
 1473 1.501502; 
 1474 0.200200; 
 1474 1.101101; 
 1474 0.900901; 
 1475 0.500501; 


Name: 3-Glu-(1-2)Ara-28-Glu Hederagenin
SYNON: $:00in-source
DB#: MetaboBASE1165
InChIKey: MFUIQYJWLPDASM-JVXCVNMSSA-N
Spectrum_type: MS2
PrecursorMZ: 973.498
Instrument_type: LC-ESI-TOF
Instrument: impact HD
Ion_mode: N
Collision_energy: 55.2569
InChIKey: MFUIQYJWLPDASM-JVXCVNMSSA-N
Formula: C48H78O17
MW: 926
ExactMass: 926.523901036
Comments: "synonym=3-Glu(1-2)Ara-28-Glu Hederagenin (NMR)" "license=License CC-BY-NC-SA 4.0 International" "author=Plant Biology, The Noble Foundation, Ardmore, OK, US/Dennis Fine, Daniel Wherritt, and Lloyd Sumner" "instrument type=LC-ESI-TOF" "instrument=impact HD" "ionization=ESI" "ionization mode=negative" "ms level=MS2" "precursor m/z=973.498" "collision energy=55.2569" "collision energy 2=92.0949" "peak width=0.032" "date=2014-12-12 20:57:07+01:00" "column=Waters Acquity BEH C18 1.7um x 2.1 x 150 mm" "retention time=875.4" "raw data file=C:\Data\Noble-Bruker MS libr eval complex mix\2014Dec_A17 aer rt mix MSMS_1-A,2_01_1447.d" "annotformula=113.024;        C27H41O12" "SMILES=C1[C@@H]([C@@](C2[C@](C1)(C1[C@@](CC2)([C@]2(C(=CC1)[C@H]1[C@@](CC2)(CCC(C1)(C)C)C(=O)O[C@H]1[C@@H]([C@H]([C@@H]([C@H](O1)CO)O)O)O)C)C)C)(C)CO)O[C@@H]1OC[C@@H]([C@@H]([C@H]1C[C@@H]1O[C@@H]([C@H]([C@@H]([C@H]1O)O)O)CO)O)O" "InChI=InChI=1S/C48H78O17/c1-43(2)13-15-48(42(60)65-41-39(59)38(58)36(56)29(20-50)63-41)16-14-46(5)24(25(48)18-43)7-8-31-44(3)11-10-32(45(4,22-51)30(44)9-12-47(31,46)6)64-40-23(33(53)26(52)21-61-40)17-27-34(54)37(57)35(55)28(19-49)62-27/h7,23,25-41,49-59H,8-22H2,1-6H3/t23-,25+,26+,27+,28-,29-,30?,31?,32+,33-,34+,35-,36-,37-,38+,39-,40+,41+,44+,45+,46-,47-,48+/m1/s1" "InChIKey=MFUIQYJWLPDASM-JVXCVNMSSA-N" "molecular formula=C48H78O17" "total exact mass=926.523901036" "SMILES=C1C(C(C2C(C1)(C3C(CC2)(C4(C(=CC3)C5C(CC4)(CCC(C5)(C)C)C(OC6C(C(C(C(O6)CO)O)O)O)=O)C)C)C)(C)CO)OC7OCC(C(C7CC8OC(C(C(C8O)O)O)CO)O)O"
Num Peaks: 42
 101 1.801802; 
 113 1.201201; 
 119 1.201201; 
 131 0.300300; 
 149 0.200200; 
 161 0.600601; 
 179 0.100100; 
 423 1.901902; 
 424 0.500501; 
 439 0.500501; 
 453 0.100100; 
 469 0.300300; 
 471 9.009009; 
 472 2.802803; 
 473 0.100100; 
 485 0.700701; 
 486 0.100100; 
 525 1.101101; 
 526 0.100100; 
 567 0.100100; 
 585 7.607608; 
 586 0.100100; 
 586 2.702703; 
 587 0.100100; 
 603 27.027027; 
 603 0.100100; 
 604 9.609610; 
 605 1.501502; 
 617 0.300300; 
 645 1.101101; 
 646 0.100100; 
 765 0.300300; 
 765 100.000000; 
 766 44.044044; 
 766 0.100100; 
 767 10.510511; 
 768 1.601602; 
 780 0.100100; 
 807 6.406406; 
 808 2.602603; 
 809 0.800801; 
 837 0.100100; 


Name: 3-Glu-(1-2)Ara-28-Glu Hederagenin
SYNON: $:00in-source
DB#: MetaboBASE1166
InChIKey: MFUIQYJWLPDASM-JVXCVNMSSA-N
Spectrum_type: MS2
PrecursorMZ: 927.494
Instrument_type: LC-ESI-TOF
Instrument: impact HD
Ion_mode: N
Collision_energy: 53.5317
InChIKey: MFUIQYJWLPDASM-JVXCVNMSSA-N
Formula: C48H78O17
MW: 926
ExactMass: 926.523901036
Comments: "synonym=3-Glu(1-2)Ara-28-Glu Hederagenin (NMR)" "license=License CC-BY-NC-SA 4.0 International" "author=Plant Biology, The Noble Foundation, Ardmore, OK, US/Dennis Fine, Daniel Wherritt, and Lloyd Sumner" "instrument type=LC-ESI-TOF" "instrument=impact HD" "ionization=ESI" "ionization mode=negative" "ms level=MS2" "precursor m/z=927.494" "collision energy=53.5317" "collision energy 2=89.2195" "peak width=0.036" "date=2014-12-12 20:57:07+01:00" "column=Waters Acquity BEH C18 1.7um x 2.1 x 150 mm" "retention time=875.4" "raw data file=C:\Data\Noble-Bruker MS libr eval complex mix\2014Dec_A17 aer rt mix MSMS_1-A,2_01_1447.d" "annotformula=113.025;        C27H41O12" "SMILES=C1[C@@H]([C@@](C2[C@](C1)(C1[C@@](CC2)([C@]2(C(=CC1)[C@H]1[C@@](CC2)(CCC(C1)(C)C)C(=O)O[C@H]1[C@@H]([C@H]([C@@H]([C@H](O1)CO)O)O)O)C)C)C)(C)CO)O[C@@H]1OC[C@@H]([C@@H]([C@H]1C[C@@H]1O[C@@H]([C@H]([C@@H]([C@H]1O)O)O)CO)O)O" "InChI=InChI=1S/C48H78O17/c1-43(2)13-15-48(42(60)65-41-39(59)38(58)36(56)29(20-50)63-41)16-14-46(5)24(25(48)18-43)7-8-31-44(3)11-10-32(45(4,22-51)30(44)9-12-47(31,46)6)64-40-23(33(53)26(52)21-61-40)17-27-34(54)37(57)35(55)28(19-49)62-27/h7,23,25-41,49-59H,8-22H2,1-6H3/t23-,25+,26+,27+,28-,29-,30?,31?,32+,33-,34+,35-,36-,37-,38+,39-,40+,41+,44+,45+,46-,47-,48+/m1/s1" "InChIKey=MFUIQYJWLPDASM-JVXCVNMSSA-N" "molecular formula=C48H78O17" "total exact mass=926.523901036" "SMILES=C1C(C(C2C(C1)(C3C(CC2)(C4(C(=CC3)C5C(CC4)(CCC(C5)(C)C)C(OC6C(C(C(C(O6)CO)O)O)O)=O)C)C)C)(C)CO)OC7OCC(C(C7CC8OC(C(C(C8O)O)O)CO)O)O"
Num Peaks: 22
 101 1.701702; 
 113 0.900901; 
 119 1.001001; 
 149 0.300300; 
 179 0.300300; 
 423 3.003003; 
 471 13.713714; 
 472 3.503504; 
 525 1.201201; 
 585 10.810811; 
 586 4.204204; 
 603 35.435435; 
 604 12.312312; 
 605 2.502503; 
 617 0.300300; 
 645 0.600601; 
 765 100.000000; 
 766 43.343343; 
 767 10.910911; 
 768 2.102102; 
 807 3.303303; 
 808 0.700701; 


Name: 3-Glu-(1-2)Ara-28-Glu Hederagenin
SYNON: $:00in-source
DB#: MetaboBASE1167
InChIKey: MFUIQYJWLPDASM-JVXCVNMSSA-N
Instrument_type: LC-ESI-TOF
Instrument: impact HD
Ion_mode: N
Collision_energy: 10
InChIKey: MFUIQYJWLPDASM-JVXCVNMSSA-N
Formula: C48H78O17
MW: 926
ExactMass: 926.523901036
Comments: "synonym=3-Glu(1-2)Ara-28-Glu Hederagenin (NMR)" "license=License CC-BY-NC-SA 4.0 International" "author=Plant Biology, The Noble Foundation, Ardmore, OK, US/Dennis Fine, Daniel Wherritt, and Lloyd Sumner" "instrument type=LC-ESI-TOF" "instrument=impact HD" "ionization=ESI" "ionization mode=negative" "collision energy=10" "peak width=0.016" "date=2014-06-24 18:58:59+02:00" "column=Waters Acquity BEH C18 1.7um x 2.1 x 150 mm" "retention time=875.4" "raw data file=C:\Data\A17 root\14Jun24_Mtroot_80%_SPE_1-F,4_01_297.d" "SMILES=C1[C@@H]([C@@](C2[C@](C1)(C1[C@@](CC2)([C@]2(C(=CC1)[C@H]1[C@@](CC2)(CCC(C1)(C)C)C(=O)O[C@H]1[C@@H]([C@H]([C@@H]([C@H](O1)CO)O)O)O)C)C)C)(C)CO)O[C@@H]1OC[C@@H]([C@@H]([C@H]1C[C@@H]1O[C@@H]([C@H]([C@@H]([C@H]1O)O)O)CO)O)O" "InChI=InChI=1S/C48H78O17/c1-43(2)13-15-48(42(60)65-41-39(59)38(58)36(56)29(20-50)63-41)16-14-46(5)24(25(48)18-43)7-8-31-44(3)11-10-32(45(4,22-51)30(44)9-12-47(31,46)6)64-40-23(33(53)26(52)21-61-40)17-27-34(54)37(57)35(55)28(19-49)62-27/h7,23,25-41,49-59H,8-22H2,1-6H3/t23-,25+,26+,27+,28-,29-,30?,31?,32+,33-,34+,35-,36-,37-,38+,39-,40+,41+,44+,45+,46-,47-,48+/m1/s1" "InChIKey=MFUIQYJWLPDASM-JVXCVNMSSA-N" "molecular formula=C48H78O17" "total exact mass=926.523901036" "SMILES=C1C(C(C2C(C1)(C3C(CC2)(C4(C(=CC3)C5C(CC4)(CCC(C5)(C)C)C(OC6C(C(C(C(O6)CO)O)O)O)=O)C)C)C)(C)CO)OC7OCC(C(C7CC8OC(C(C(C8O)O)O)CO)O)O"
Num Peaks: 40
 116 4.404404; 
 128 54.654655; 
 129 1.301301; 
 146 1.801802; 
 161 4.504505; 
 174 3.003003; 
 195 2.302302; 
 217 1.301301; 
 243 3.103103; 
 248 1.201201; 
 279 30.730731; 
 279 4.104104; 
 280 2.302302; 
 285 2.402402; 
 340 1.101101; 
 347 3.903904; 
 368 2.902903; 
 430 13.913914; 
 431 1.101101; 
 557 4.704705; 
 749 2.102102; 
 765 5.305305; 
 766 1.501502; 
 927 16.216216; 
 928 8.408408; 
 929 1.101101; 
 963 2.302302; 
 973 100.000000; 
 974 52.552553; 
 975 16.716717; 
 976 4.204204; 
 1041 10.310310; 
 1042 4.904905; 
 1045 8.608609; 
 1046 4.604605; 
 1056 23.023023; 
 1057 13.913914; 
 1058 4.504505; 
 1059 2.102102; 
 1124 2.802803; 


Name: 3-Glu(1-3)Glu-28-Glu Medicagenic acid
SYNON: $:00in-source
DB#: MetaboBASE1168
InChIKey: SMFAQKPDVMYQGA-KHJSPLTRSA-N
Spectrum_type: MS2
PrecursorMZ: 987.4766
Instrument_type: LC-ESI-TOF
Instrument: impact HD
Ion_mode: N
Collision_energy: 55.782
Comments: "license=License CC-BY-NC-SA 4.0 International" "authors=Plant Biology, The Noble Foundation, Ardmore, OK, US/Dennis Fine, Daniel Wherritt, and Lloyd Sumner" "instrument type=LC-ESI-TOF" "instrument=impact HD" "ionization=ESI" "ionization mode=negative" "ms level=MS2" "precursor m/z=987.4766" "collision energy=55.782" "collision energy 2=92.9699" "peak width=0.018" "date=2014-12-10 21:06:23+01:00" "column=Waters Acquity BEH C18 1.7um x 2.1 x 150 mm" "retention time=759" "raw data file=C:\Data\Noble-Bruker MS libr eval complex mix\2014Dec_A17 aer rt mix MSMS_1-A,2_01_1415.d" "SMILES=[C@H]1([C@@H]([C@@](C2[C@](C1)(C1[C@@](CC2)([C@]2(C(=CC1)[C@H]1[C@@](CC2)(CCC(C1)(C)C)C(=O)O[C@H]1[C@@H]([C@H]([C@@H]([C@H](O1)CO)O)O)O)C)C)C)(C)C(=O)O)O[C@@H]1O[C@@H]([C@H]([C@@H]([C@H]1O)O[C@@H]1O[C@@H]([C@H]([C@@H]([C@H]1O)O)O)CO)O)CO)O"
Num Peaks: 25
 101 50; 
 112 1; 
 113 999; 
 114 53; 
 115 5; 
 119 52; 
 125 2; 
 131 11; 
 143 42; 
 149 9; 
 161 478; 
 162 26; 
 179 137; 
 180 4; 
 181 2; 
 439 38; 
 440 6; 
 812 1; 
 987 124; 
 988 60; 
 989 16; 
 1283 1; 
 1308 2; 
 1310 1; 
 1405 1; 


Name: 3-Glu(1-3)Glu-28-Glu Medicagenic acid
SYNON: $:00in-source
DB#: MetaboBASE1169
InChIKey: SMFAQKPDVMYQGA-KHJSPLTRSA-N
Instrument_type: LC-ESI-TOF
Instrument: impact HD
Ion_mode: N
Comments: "license=License CC-BY-NC-SA 4.0 International" "authors=Plant Biology, The Noble Foundation, Ardmore, OK, US/Dennis Fine, Daniel Wherritt, and Lloyd Sumner" "instrument type=LC-ESI-TOF" "instrument=impact HD" "ionization=ESI" "ionization mode=negative" "peak width=0.012" "date=2014-12-10 21:06:23+01:00" "column=Waters Acquity BEH C18 1.7um x 2.1 x 150 mm" "retention time=759" "raw data file=C:\Data\Noble-Bruker MS libr eval complex mix\2014Dec_A17 aer rt mix MSMS_1-A,2_01_1415.d" "SMILES=[C@H]1([C@@H]([C@@](C2[C@](C1)(C1[C@@](CC2)([C@]2(C(=CC1)[C@H]1[C@@](CC2)(CCC(C1)(C)C)C(=O)O[C@H]1[C@@H]([C@H]([C@@H]([C@H](O1)CO)O)O)O)C)C)C)(C)C(=O)O)O[C@@H]1O[C@@H]([C@H]([C@@H]([C@H]1O)O[C@@H]1O[C@@H]([C@H]([C@@H]([C@H]1O)O)O)CO)O)CO)O"
Num Peaks: 30
 979 12; 
 979 13; 
 987 999; 
 987 297; 
 988 590; 
 988 81; 
 989 173; 
 990 39; 
 1021 34; 
 1021 40; 
 1022 24; 
 1022 10; 
 1046 10; 
 1055 83; 
 1056 49; 
 1057 17; 
 1083 10; 
 1087 23; 
 1088 15; 
 1117 12; 
 1123 12; 
 1481 48; 
 1482 75; 
 1482 65; 
 1483 43; 
 1483 22; 
 1484 10; 
 1492 10; 
 1493 15; 
 1493 14; 


Name: 3-Glu(1-3)Glu-28-Glu Medicagenic acid
SYNON: $:00in-source
DB#: MetaboBASE1170
InChIKey: SMFAQKPDVMYQGA-KHJSPLTRSA-N
Instrument_type: LC-ESI-TOF
Instrument: impact HD
Ion_mode: N
Collision_energy: 10
Comments: "license=License CC-BY-NC-SA 4.0 International" "authors=Plant Biology, The Noble Foundation, Ardmore, OK, US/Dennis Fine, Daniel Wherritt, and Lloyd Sumner" "instrument type=LC-ESI-TOF" "instrument=impact HD" "ionization=ESI" "ionization mode=negative" "collision energy=10" "peak width=0.013" "date=2014-12-10 20:25:33+01:00" "column=Waters Acquity BEH C18 1.7um x 2.1 x 150 mm" "retention time=759" "raw data file=C:\Data\Noble-Bruker MS libr eval complex mix\2014Dec_A17 aerial root mix_1-A,2_01_1414.d" "SMILES=[C@H]1([C@@H]([C@@](C2[C@](C1)(C1[C@@](CC2)([C@]2(C(=CC1)[C@H]1[C@@](CC2)(CCC(C1)(C)C)C(=O)O[C@H]1[C@@H]([C@H]([C@@H]([C@H](O1)CO)O)O)O)C)C)C)(C)C(=O)O)O[C@@H]1O[C@@H]([C@H]([C@@H]([C@H]1O)O[C@@H]1O[C@@H]([C@H]([C@@H]([C@H]1O)O)O)CO)O)CO)O"
Num Peaks: 33
 556 47; 
 971 12; 
 987 999; 
 987 322; 
 988 591; 
 988 88; 
 989 169; 
 989 10; 
 990 39; 
 1021 35; 
 1021 38; 
 1022 24; 
 1022 11; 
 1046 13; 
 1046 13; 
 1047 11; 
 1055 73; 
 1056 41; 
 1057 17; 
 1083 10; 
 1087 27; 
 1088 17; 
 1123 12; 
 1481 57; 
 1482 92; 
 1482 79; 
 1483 50; 
 1483 24; 
 1484 11; 
 1492 11; 
 1493 17; 
 1493 15; 
 1494 11; 


Name: 3-Glu-28-Glu-Bayogenin
SYNON: $:00in-source
DB#: MetaboBASE1171
InChIKey: ZUILGDNVKPMVIA-YRTOFAGUSA-N
Precursor_type: [M+FA-H]-
Spectrum_type: MS2
PrecursorMZ: 857.4518
Instrument_type: LC-ESI-TOF
Instrument: impact HD
Ion_mode: N
Collision_energy: 50.9057
InChIKey: ZUILGDNVKPMVIA-YRTOFAGUSA-N
Formula: C42H68O15
MW: 812
ExactMass: 812.455821476
Comments: "license=License CC-BY-NC-SA 4.0 International" "author=Plant Biology, The Noble Foundation, Ardmore, OK, US/Dennis Fine, Daniel Wherritt, and Lloyd Sumner" "instrument type=LC-ESI-TOF" "instrument=impact HD" "ionization=ESI" "ionization mode=negative" "ms level=MS2" "precursor m/z=857.4518" "collision energy=50.9057" "collision energy 2=84.8428" "peak width=0.015" "date=2014-12-10 21:06:23+01:00" "column=Waters Acquity BEH C18 1.7um x 2.1 x 150 mm" "retention time=763.2" "raw data file=C:\Data\Noble-Bruker MS libr eval complex mix\2014Dec_A17 aer rt mix MSMS_1-A,2_01_1415.d" "precursor type=[M+FA-H]-" "mass accuracy=2.591954439805216" "mass error=-0.0022224759999289745" "SMILES=[C@H]1([C@@H]([C@@](C2[C@](C1)(C1[C@@](CC2)([C@]2(C(=CC1)[C@H]1[C@@](CC2)(CCC(C1)(C)C)C(=O)O[C@H]1[C@@H]([C@H]([C@@H]([C@H](O1)CO)O)O)O)C)C)C)(C)CO)O[C@@H]1O[C@@H]([C@H]([C@@H]([C@H]1O)O)O)CO)O" "InChI=InChI=1S/C42H68O15/c1-37(2)11-13-42(36(53)57-35-32(52)30(50)28(48)24(18-44)55-35)14-12-40(5)20(21(42)15-37)7-8-26-38(3)16-22(46)33(39(4,19-45)25(38)9-10-41(26,40)6)56-34-31(51)29(49)27(47)23(17-43)54-34/h7,21-35,43-52H,8-19H2,1-6H3/t21-,22-,23+,24+,25?,26?,27+,28+,29-,30-,31+,32+,33-,34-,35-,38-,39-,40+,41+,42-/m0/s1" "InChIKey=ZUILGDNVKPMVIA-YRTOFAGUSA-N" "molecular formula=C42H68O15" "total exact mass=812.455821476" "SMILES=C1(C(C(C2C(C1)(C3C(CC2)(C4(C(=CC3)C5C(CC4)(CCC(C5)(C)C)C(OC6C(C(C(C(O6)CO)O)O)O)=O)C)C)C)(C)CO)OC7OC(C(C(C7O)O)O)CO)O"
Num Peaks: 13
 101 0.800801; 
 113 0.700701; 
 113 0.500501; 
 487 4.104104; 
 488 0.800801; 
 529 0.400400; 
 649 100.000000; 
 650 38.838839; 
 651 8.308308; 
 652 0.400400; 
 663 1.001001; 
 691 3.403403; 
 692 1.201201; 


Name: 3-Glu-28-Glu-Bayogenin
SYNON: $:00in-source
DB#: MetaboBASE1172
InChIKey: ZUILGDNVKPMVIA-YRTOFAGUSA-N
Instrument_type: LC-ESI-TOF
Instrument: impact HD
Ion_mode: N
Collision_energy: 10
InChIKey: ZUILGDNVKPMVIA-YRTOFAGUSA-N
Formula: C42H68O15
MW: 812
ExactMass: 812.455821476
Comments: "license=License CC-BY-NC-SA 4.0 International" "author=Plant Biology, The Noble Foundation, Ardmore, OK, US/Dennis Fine, Daniel Wherritt, and Lloyd Sumner" "instrument type=LC-ESI-TOF" "instrument=impact HD" "ionization=ESI" "ionization mode=negative" "collision energy=10" "peak width=0.014" "date=2014-12-10 20:25:33+01:00" "column=Waters Acquity BEH C18 1.7um x 2.1 x 150 mm" "retention time=763.2" "raw data file=C:\Data\Noble-Bruker MS libr eval complex mix\2014Dec_A17 aerial root mix_1-A,2_01_1414.d" "SMILES=[C@H]1([C@@H]([C@@](C2[C@](C1)(C1[C@@](CC2)([C@]2(C(=CC1)[C@H]1[C@@](CC2)(CCC(C1)(C)C)C(=O)O[C@H]1[C@@H]([C@H]([C@@H]([C@H](O1)CO)O)O)O)C)C)C)(C)CO)O[C@@H]1O[C@@H]([C@H]([C@@H]([C@H]1O)O)O)CO)O" "InChI=InChI=1S/C42H68O15/c1-37(2)11-13-42(36(53)57-35-32(52)30(50)28(48)24(18-44)55-35)14-12-40(5)20(21(42)15-37)7-8-26-38(3)16-22(46)33(39(4,19-45)25(38)9-10-41(26,40)6)56-34-31(51)29(49)27(47)23(17-43)54-34/h7,21-35,43-52H,8-19H2,1-6H3/t21-,22-,23+,24+,25?,26?,27+,28+,29-,30-,31+,32+,33-,34-,35-,38-,39-,40+,41+,42-/m0/s1" "InChIKey=ZUILGDNVKPMVIA-YRTOFAGUSA-N" "molecular formula=C42H68O15" "total exact mass=812.455821476" "SMILES=C1(C(C(C2C(C1)(C3C(CC2)(C4(C(=CC3)C5C(CC4)(CCC(C5)(C)C)C(OC6C(C(C(C(O6)CO)O)O)O)=O)C)C)C)(C)CO)OC7OC(C(C(C7O)O)O)CO)O"
Num Peaks: 64
 112 0.800801; 
 116 0.800801; 
 174 0.800801; 
 242 0.400400; 
 297 1.601602; 
 556 10.710711; 
 557 1.301301; 
 649 3.603604; 
 650 1.401401; 
 666 0.800801; 
 730 0.600601; 
 730 0.300300; 
 753 0.500501; 
 753 0.600601; 
 811 4.204204; 
 811 2.302302; 
 812 1.801802; 
 812 0.200200; 
 818 0.600601; 
 818 0.300300; 
 819 0.200200; 
 825 1.501502; 
 826 0.500501; 
 834 3.303303; 
 834 3.103103; 
 835 1.801802; 
 835 0.500501; 
 847 2.802803; 
 848 1.301301; 
 849 1.201201; 
 857 100.000000; 
 857 0.700701; 
 858 49.749750; 
 859 15.615616; 
 860 3.603604; 
 861 0.300300; 
 874 1.301301; 
 899 0.300300; 
 901 0.800801; 
 925 10.410410; 
 926 5.205205; 
 927 1.801802; 
 929 5.605606; 
 930 3.403403; 
 931 1.401401; 
 940 0.300300; 
 956 0.300300; 
 958 0.200200; 
 985 0.700701; 
 987 0.800801; 
 987 1.101101; 
 993 1.501502; 
 994 0.200200; 
 1015 0.300300; 
 1059 2.302302; 
 1060 1.401401; 
 1061 0.300300; 
 1109 0.300300; 
 1110 0.300300; 
 1217 1.301301; 
 1218 1.501502; 
 1218 1.201201; 
 1219 0.300300; 
 1241 0.300300; 


Name: 3-Glu-28-Glu-Bayogenin
SYNON: $:00in-source
DB#: MetaboBASE1173
InChIKey: ZUILGDNVKPMVIA-YRTOFAGUSA-N
Instrument_type: LC-ESI-TOF
Instrument: impact HD
Ion_mode: N
InChIKey: ZUILGDNVKPMVIA-YRTOFAGUSA-N
Formula: C42H68O15
MW: 812
ExactMass: 812.455821476
Comments: "license=License CC-BY-NC-SA 4.0 International" "author=Plant Biology, The Noble Foundation, Ardmore, OK, US/Dennis Fine, Daniel Wherritt, and Lloyd Sumner" "instrument type=LC-ESI-TOF" "instrument=impact HD" "ionization=ESI" "ionization mode=negative" "peak width=0.013" "date=2014-12-10 21:06:23+01:00" "column=Waters Acquity BEH C18 1.7um x 2.1 x 150 mm" "retention time=763.2" "raw data file=C:\Data\Noble-Bruker MS libr eval complex mix\2014Dec_A17 aer rt mix MSMS_1-A,2_01_1415.d" "SMILES=[C@H]1([C@@H]([C@@](C2[C@](C1)(C1[C@@](CC2)([C@]2(C(=CC1)[C@H]1[C@@](CC2)(CCC(C1)(C)C)C(=O)O[C@H]1[C@@H]([C@H]([C@@H]([C@H](O1)CO)O)O)O)C)C)C)(C)CO)O[C@@H]1O[C@@H]([C@H]([C@@H]([C@H]1O)O)O)CO)O" "InChI=InChI=1S/C42H68O15/c1-37(2)11-13-42(36(53)57-35-32(52)30(50)28(48)24(18-44)55-35)14-12-40(5)20(21(42)15-37)7-8-26-38(3)16-22(46)33(39(4,19-45)25(38)9-10-41(26,40)6)56-34-31(51)29(49)27(47)23(17-43)54-34/h7,21-35,43-52H,8-19H2,1-6H3/t21-,22-,23+,24+,25?,26?,27+,28+,29-,30-,31+,32+,33-,34-,35-,38-,39-,40+,41+,42-/m0/s1" "InChIKey=ZUILGDNVKPMVIA-YRTOFAGUSA-N" "molecular formula=C42H68O15" "total exact mass=812.455821476" "SMILES=C1(C(C(C2C(C1)(C3C(CC2)(C4(C(=CC3)C5C(CC4)(CCC(C5)(C)C)C(OC6C(C(C(C(O6)CO)O)O)O)=O)C)C)C)(C)CO)OC7OC(C(C(C7O)O)O)CO)O"
Num Peaks: 28
 297 1.801802; 
 649 4.004004; 
 650 1.801802; 
 811 3.603604; 
 811 2.302302; 
 812 2.302302; 
 825 1.501502; 
 834 3.003003; 
 834 2.602603; 
 835 1.401401; 
 847 2.902903; 
 848 1.501502; 
 849 1.401401; 
 857 100.000000; 
 858 48.948949; 
 859 15.515516; 
 860 3.903904; 
 874 1.401401; 
 901 1.201201; 
 925 11.111111; 
 926 5.405405; 
 927 1.901902; 
 929 4.904905; 
 930 2.902903; 
 931 1.201201; 
 993 1.401401; 
 1109 1.101101; 
 1218 1.401401; 


Name: 3-(Rha(1-2)Glu(1-2)Glu-28-Glu Hederagenin
SYNON: $:00in-source
DB#: MetaboBASE1174
InChIKey: RJAYNHZZCRJAEA-BUZSGSMCSA-N
Precursor_type: [M+FA-H]-
Spectrum_type: MS2
PrecursorMZ: 1149.563
Instrument_type: LC-ESI-TOF
Instrument: impact HD
Ion_mode: N
Collision_energy: 61.8604
InChIKey: RJAYNHZZCRJAEA-BUZSGSMCSA-N
Formula: C54H88O23
MW: 1104
ExactMass: 1104.5716390759999
Comments: "license=License CC-BY-NC-SA 4.0 International" "author=Plant Biology, The Noble Foundation, Ardmore, OK, US/Dennis Fine, Daniel Wherritt, and Lloyd Sumner" "instrument type=LC-ESI-TOF" "instrument=impact HD" "ionization=ESI" "ionization mode=negative" "ms level=MS2" "precursor m/z=1149.563" "collision energy=61.8604" "collision energy 2=103.101" "peak width=0.015" "date=2014-12-10 21:06:23+01:00" "column=Waters Acquity BEH C18 1.7um x 2.1 x 150 mm" "retention time=769.8" "raw data file=C:\Data\Noble-Bruker MS libr eval complex mix\2014Dec_A17 aer rt mix MSMS_1-A,2_01_1415.d" "precursor type=[M+FA-H]-" "mass accuracy=5.95015323204509" "mass error=-0.00684007599988945" "SMILES=C1[C@@H]([C@@](C2[C@](C1)(C1[C@@](CC2)([C@]2(C(=CC1)[C@H]1[C@@](CC2)(CCC(C1)(C)C)C(=O)O[C@H]1[C@@H]([C@H]([C@@H]([C@H](O1)CO)O)O)O)C)C)C)(C)CO)O[C@@H]1O[C@@H]([C@H]([C@@H]([C@H]1O[C@@H]1O[C@@H]([C@H]([C@@H]([C@H]1O[C@@H]1O[C@H]([C@@H]([C@H]([C@H]1O)O)O)C)O)O)CO)O)O)CO" "InChI=InChI=1S/C54H88O23/c1-23-32(59)36(63)40(67)44(70-23)75-43-39(66)35(62)28(21-57)73-47(43)76-42-38(65)34(61)27(20-56)72-46(42)74-31-11-12-50(4)29(51(31,5)22-58)10-13-53(7)30(50)9-8-24-25-18-49(2,3)14-16-54(25,17-15-52(24,53)6)48(69)77-45-41(68)37(64)33(60)26(19-55)71-45/h8,23,25-47,55-68H,9-22H2,1-7H3/t23-,25-,26+,27+,28+,29?,30?,31-,32-,33+,34+,35+,36+,37-,38-,39-,40+,41+,42+,43+,44-,45-,46-,47-,50-,51-,52+,53+,54-/m0/s1" "InChIKey=RJAYNHZZCRJAEA-BUZSGSMCSA-N" "molecular formula=C54H88O23" "total exact mass=1104.5716390759999" "SMILES=C1C(C(C2C(C1)(C3C(CC2)(C4(C(=CC3)C5C(CC4)(CCC(C5)(C)C)C(OC6C(C(C(C(O6)CO)O)O)O)=O)C)C)C)(C)CO)OC7OC(C(C(C7OC8OC(C(C(C8OC9OC(C(C(C9O)O)O)C)O)O)CO)O)O)CO"
Num Peaks: 51
 101 0.400400; 
 101 2.002002; 
 113 1.601602; 
 119 1.401401; 
 119 0.300300; 
 131 0.600601; 
 143 1.401401; 
 161 1.101101; 
 163 0.600601; 
 181 0.200200; 
 205 0.700701; 
 247 1.301301; 
 248 0.200200; 
 272 0.300300; 
 276 0.400400; 
 276 0.300300; 
 276 0.200200; 
 276 0.200200; 
 282 0.300300; 
 307 0.500501; 
 439 0.500501; 
 471 52.352352; 
 472 14.214214; 
 473 2.102102; 
 476 0.300300; 
 485 0.500501; 
 525 1.901902; 
 615 15.815816; 
 616 4.304304; 
 617 0.400400; 
 633 46.546547; 
 634 14.914915; 
 635 3.803804; 
 675 0.400400; 
 777 13.013013; 
 778 4.304304; 
 795 56.556557; 
 796 24.124124; 
 797 6.706707; 
 798 0.900901; 
 837 1.201201; 
 941 0.500501; 
 941 100.000000; 
 941 0.400400; 
 942 50.450450; 
 943 15.515516; 
 944 2.802803; 
 983 0.900901; 
 984 0.900901; 
 1265 0.300300; 
 1483 0.300300; 


Name: 3-(Rha(1-2)Glu(1-2)Glu-28-Glu Hederagenin
SYNON: $:00in-source
DB#: MetaboBASE1175
InChIKey: RJAYNHZZCRJAEA-BUZSGSMCSA-N
Instrument_type: LC-ESI-TOF
Instrument: impact HD
Ion_mode: N
InChIKey: RJAYNHZZCRJAEA-BUZSGSMCSA-N
Formula: C54H88O23
MW: 1104
ExactMass: 1104.5716390759999
Comments: "license=License CC-BY-NC-SA 4.0 International" "author=Plant Biology, The Noble Foundation, Ardmore, OK, US/Dennis Fine, Daniel Wherritt, and Lloyd Sumner" "instrument type=LC-ESI-TOF" "instrument=impact HD" "ionization=ESI" "ionization mode=negative" "peak width=0.014" "date=2014-12-10 21:06:23+01:00" "column=Waters Acquity BEH C18 1.7um x 2.1 x 150 mm" "retention time=769.8" "raw data file=C:\Data\Noble-Bruker MS libr eval complex mix\2014Dec_A17 aer rt mix MSMS_1-A,2_01_1415.d" "SMILES=C1[C@@H]([C@@](C2[C@](C1)(C1[C@@](CC2)([C@]2(C(=CC1)[C@H]1[C@@](CC2)(CCC(C1)(C)C)C(=O)O[C@H]1[C@@H]([C@H]([C@@H]([C@H](O1)CO)O)O)O)C)C)C)(C)CO)O[C@@H]1O[C@@H]([C@H]([C@@H]([C@H]1O[C@@H]1O[C@@H]([C@H]([C@@H]([C@H]1O[C@@H]1O[C@H]([C@@H]([C@H]([C@H]1O)O)O)C)O)O)CO)O)O)CO" "InChI=InChI=1S/C54H88O23/c1-23-32(59)36(63)40(67)44(70-23)75-43-39(66)35(62)28(21-57)73-47(43)76-42-38(65)34(61)27(20-56)72-46(42)74-31-11-12-50(4)29(51(31,5)22-58)10-13-53(7)30(50)9-8-24-25-18-49(2,3)14-16-54(25,17-15-52(24,53)6)48(69)77-45-41(68)37(64)33(60)26(19-55)71-45/h8,23,25-47,55-68H,9-22H2,1-7H3/t23-,25-,26+,27+,28+,29?,30?,31-,32-,33+,34+,35+,36+,37-,38-,39-,40+,41+,42+,43+,44-,45-,46-,47-,50-,51-,52+,53+,54-/m0/s1" "InChIKey=RJAYNHZZCRJAEA-BUZSGSMCSA-N" "molecular formula=C54H88O23" "total exact mass=1104.5716390759999" "SMILES=C1C(C(C2C(C1)(C3C(CC2)(C4(C(=CC3)C5C(CC4)(CCC(C5)(C)C)C(OC6C(C(C(C(O6)CO)O)O)O)=O)C)C)C)(C)CO)OC7OC(C(C(C7OC8OC(C(C(C8OC9OC(C(C(C9O)O)O)C)O)O)CO)O)O)CO"
Num Peaks: 77
 328 1.201201; 
 328 1.001001; 
 329 1.001001; 
 331 1.101101; 
 331 1.101101; 
 331 1.001001; 
 331 1.101101; 
 331 1.001001; 
 332 1.201201; 
 332 1.001001; 
 470 1.301301; 
 574 21.321321; 
 574 12.912913; 
 575 5.605606; 
 575 1.901902; 
 597 5.005005; 
 597 3.403403; 
 598 1.401401; 
 623 1.601602; 
 624 1.001001; 
 690 7.507508; 
 690 5.505506; 
 691 2.802803; 
 691 1.301301; 
 713 2.002002; 
 713 1.301301; 
 867 2.302302; 
 868 1.201201; 
 941 8.308308; 
 942 4.304304; 
 943 1.601602; 
 1007 1.001001; 
 1007 1.101101; 
 1103 26.626627; 
 1104 3.103103; 
 1104 17.417417; 
 1105 6.206206; 
 1106 1.201201; 
 1126 7.607608; 
 1127 9.809810; 
 1127 6.406406; 
 1128 3.103103; 
 1128 1.301301; 
 1139 3.403403; 
 1140 2.002002; 
 1141 1.801802; 
 1149 100.000000; 
 1150 6.806807; 
 1150 66.066066; 
 1151 2.202202; 
 1151 25.025025; 
 1152 7.607608; 
 1153 1.801802; 
 1160 1.501502; 
 1161 1.701702; 
 1161 1.401401; 
 1183 1.501502; 
 1184 2.002002; 
 1184 1.501502; 
 1185 1.001001; 
 1193 1.101101; 
 1217 8.608609; 
 1218 5.805806; 
 1221 6.506507; 
 1222 3.903904; 
 1223 2.102102; 
 1242 5.705706; 
 1243 6.806807; 
 1243 5.805806; 
 1244 2.702703; 
 1244 1.601602; 
 1285 1.601602; 
 1381 10.810811; 
 1382 7.907908; 
 1383 3.603604; 
 1384 1.401401; 
 1403 1.001001; 


Name: 3-(Rha(1-2)Glu(1-2)Glu-28-Glu Hederagenin
SYNON: $:00in-source
DB#: MetaboBASE1176
InChIKey: RJAYNHZZCRJAEA-BUZSGSMCSA-N
Instrument_type: LC-ESI-TOF
Instrument: impact HD
Ion_mode: N
Collision_energy: 10
InChIKey: RJAYNHZZCRJAEA-BUZSGSMCSA-N
Formula: C54H88O23
MW: 1104
ExactMass: 1104.5716390759999
Comments: "license=License CC-BY-NC-SA 4.0 International" "author=Plant Biology, The Noble Foundation, Ardmore, OK, US/Dennis Fine, Daniel Wherritt, and Lloyd Sumner" "instrument type=LC-ESI-TOF" "instrument=impact HD" "ionization=ESI" "ionization mode=negative" "collision energy=10" "peak width=0.015" "date=2014-12-10 20:25:33+01:00" "column=Waters Acquity BEH C18 1.7um x 2.1 x 150 mm" "retention time=769.8" "raw data file=C:\Data\Noble-Bruker MS libr eval complex mix\2014Dec_A17 aerial root mix_1-A,2_01_1414.d" "SMILES=C1[C@@H]([C@@](C2[C@](C1)(C1[C@@](CC2)([C@]2(C(=CC1)[C@H]1[C@@](CC2)(CCC(C1)(C)C)C(=O)O[C@H]1[C@@H]([C@H]([C@@H]([C@H](O1)CO)O)O)O)C)C)C)(C)CO)O[C@@H]1O[C@@H]([C@H]([C@@H]([C@H]1O[C@@H]1O[C@@H]([C@H]([C@@H]([C@H]1O[C@@H]1O[C@H]([C@@H]([C@H]([C@H]1O)O)O)C)O)O)CO)O)O)CO" "InChI=InChI=1S/C54H88O23/c1-23-32(59)36(63)40(67)44(70-23)75-43-39(66)35(62)28(21-57)73-47(43)76-42-38(65)34(61)27(20-56)72-46(42)74-31-11-12-50(4)29(51(31,5)22-58)10-13-53(7)30(50)9-8-24-25-18-49(2,3)14-16-54(25,17-15-52(24,53)6)48(69)77-45-41(68)37(64)33(60)26(19-55)71-45/h8,23,25-47,55-68H,9-22H2,1-7H3/t23-,25-,26+,27+,28+,29?,30?,31-,32-,33+,34+,35+,36+,37-,38-,39-,40+,41+,42+,43+,44-,45-,46-,47-,50-,51-,52+,53+,54-/m0/s1" "InChIKey=RJAYNHZZCRJAEA-BUZSGSMCSA-N" "molecular formula=C54H88O23" "total exact mass=1104.5716390759999" "SMILES=C1C(C(C2C(C1)(C3C(CC2)(C4(C(=CC3)C5C(CC4)(CCC(C5)(C)C)C(OC6C(C(C(C(O6)CO)O)O)O)=O)C)C)C)(C)CO)OC7OC(C(C(C7OC8OC(C(C(C8OC9OC(C(C(C9O)O)O)C)O)O)CO)O)O)CO"
Num Peaks: 62
 174 0.700701; 
 470 1.201201; 
 556 12.412412; 
 557 1.801802; 
 574 24.324324; 
 574 14.714715; 
 575 5.905906; 
 575 2.002002; 
 597 5.505506; 
 597 3.503504; 
 598 1.601602; 
 623 1.101101; 
 690 6.006006; 
 690 4.404404; 
 691 1.801802; 
 713 1.801802; 
 713 1.401401; 
 867 2.402402; 
 941 7.107107; 
 942 3.803804; 
 943 0.900901; 
 987 1.201201; 
 1007 1.201201; 
 1103 24.324324; 
 1104 2.802803; 
 1104 15.415415; 
 1105 5.405405; 
 1106 1.501502; 
 1126 8.708709; 
 1127 10.610611; 
 1127 7.207207; 
 1128 3.703704; 
 1128 1.201201; 
 1139 3.203203; 
 1140 1.901902; 
 1141 1.701702; 
 1149 100.000000; 
 1150 7.807808; 
 1150 65.265265; 
 1151 2.602603; 
 1151 24.624625; 
 1152 6.806807; 
 1153 1.201201; 
 1160 1.501502; 
 1161 1.701702; 
 1183 2.002002; 
 1184 2.102102; 
 1184 1.101101; 
 1217 8.108108; 
 1218 4.904905; 
 1219 2.302302; 
 1221 6.406406; 
 1222 4.604605; 
 1223 2.302302; 
 1242 5.605606; 
 1243 7.107107; 
 1243 5.105105; 
 1244 2.902903; 
 1285 1.201201; 
 1381 8.608609; 
 1382 6.706707; 
 1383 2.702703; 


Name: 3-Glu(1,3)Glu-28-Glu Bayogenin
SYNON: $:00in-source
DB#: MetaboBASE1177
InChIKey: MWAZVBLWMOGSFL-IRLZNWNJSA-N
Instrument_type: LC-ESI-TOF
Instrument: impact HD
Ion_mode: N
InChIKey: MWAZVBLWMOGSFL-IRLZNWNJSA-N
Formula: C48H78O20
MW: 974
ExactMass: 974.508644896
Comments: "license=License CC-BY-NC-SA 4.0 International" "author=Plant Biology, The Noble Foundation, Ardmore, OK, US/Dennis Fine, Daniel Wherritt, and Lloyd Sumner" "instrument type=LC-ESI-TOF" "instrument=impact HD" "ionization=ESI" "ionization mode=negative" "peak width=0.014" "date=2014-12-12 20:57:07+01:00" "column=Waters Acquity BEH C18 1.7um x 2.1 x 150 mm" "retention time=743.4" "raw data file=C:\Data\Noble-Bruker MS libr eval complex mix\2014Dec_A17 aer rt mix MSMS_1-A,2_01_1447.d" "SMILES=[C@H]1([C@@H]([C@@](C2[C@](C1)(C1[C@@](CC2)([C@]2(C(=CC1)[C@H]1[C@@](CC2)(CCC(C1)(C)C)C(=O)O[C@H]1[C@@H]([C@H]([C@@H]([C@H](O1)CO)O)O)O)C)C)C)(C)CO)O[C@@H]1O[C@@H]([C@H]([C@@H]([C@H]1O)O[C@@H]1O[C@@H]([C@H]([C@@H]([C@H]1O)O)O)CO)O)CO)O" "InChI=InChI=1S/C48H78O20/c1-43(2)11-13-48(42(62)68-40-35(60)33(58)30(55)25(18-50)64-40)14-12-46(5)21(22(48)15-43)7-8-28-44(3)16-23(53)38(45(4,20-52)27(44)9-10-47(28,46)6)67-41-36(61)37(31(56)26(19-51)65-41)66-39-34(59)32(57)29(54)24(17-49)63-39/h7,22-41,49-61H,8-20H2,1-6H3/t22-,23-,24+,25+,26+,27?,28?,29+,30+,31+,32-,33-,34+,35+,36+,37-,38-,39-,40-,41-,44-,45-,46+,47+,48-/m0/s1" "InChIKey=MWAZVBLWMOGSFL-IRLZNWNJSA-N" "molecular formula=C48H78O20" "total exact mass=974.508644896" "SMILES=C1(C(C(C2C(C1)(C3C(CC2)(C4(C(=CC3)C5C(CC4)(CCC(C5)(C)C)C(OC6C(C(C(C(O6)CO)O)O)O)=O)C)C)C)(C)CO)OC7OC(C(C(C7O)OC8OC(C(C(C8O)O)O)CO)O)CO)O"
Num Peaks: 71
 509 1.301301; 
 811 8.508509; 
 812 3.303303; 
 813 1.301301; 
 892 1.801802; 
 892 1.901902; 
 893 1.201201; 
 973 59.059059; 
 974 29.129129; 
 974 40.640641; 
 975 7.707708; 
 975 10.010010; 
 976 1.001001; 
 976 2.102102; 
 979 1.401401; 
 979 1.301301; 
 991 1.201201; 
 991 1.401401; 
 996 15.315315; 
 997 17.717718; 
 997 10.210210; 
 998 4.904905; 
 998 1.901902; 
 1007 1.401401; 
 1007 1.801802; 
 1008 1.201201; 
 1009 2.402402; 
 1010 1.501502; 
 1011 1.101101; 
 1015 1.001001; 
 1016 2.002002; 
 1017 1.101101; 
 1017 1.101101; 
 1019 100.000000; 
 1020 55.155155; 
 1021 22.822823; 
 1022 6.106106; 
 1023 1.401401; 
 1030 3.403403; 
 1030 3.003003; 
 1031 2.102102; 
 1032 1.101101; 
 1032 2.202202; 
 1032 2.602603; 
 1033 1.701702; 
 1063 1.601602; 
 1087 11.211211; 
 1088 6.406406; 
 1089 2.502503; 
 1091 11.011011; 
 1092 7.207207; 
 1093 3.003003; 
 1117 1.301301; 
 1149 1.701702; 
 1155 1.501502; 
 1159 1.101101; 
 1163 3.803804; 
 1164 2.202202; 
 1460 10.610611; 
 1461 16.016016; 
 1461 13.913914; 
 1462 9.109109; 
 1462 4.604605; 
 1463 1.601602; 
 1467 1.301301; 
 1467 1.101101; 
 1484 1.001001; 
 1494 2.102102; 
 1495 3.203203; 
 1495 2.102102; 
 1496 1.301301; 


Name: 3-Glu(1,3)Glu-28-Glu Bayogenin
SYNON: $:00in-source
DB#: MetaboBASE1178
InChIKey: MWAZVBLWMOGSFL-IRLZNWNJSA-N
Precursor_type: [M-H]-
Spectrum_type: MS2
PrecursorMZ: 973.499
Instrument_type: LC-ESI-TOF
Instrument: impact HD
Ion_mode: N
Collision_energy: 55.2568
InChIKey: MWAZVBLWMOGSFL-IRLZNWNJSA-N
Formula: C48H78O20
MW: 974
ExactMass: 974.508644896
Comments: "license=License CC-BY-NC-SA 4.0 International" "author=Plant Biology, The Noble Foundation, Ardmore, OK, US/Dennis Fine, Daniel Wherritt, and Lloyd Sumner" "instrument type=LC-ESI-TOF" "instrument=impact HD" "ionization=ESI" "ionization mode=negative" "ms level=MS2" "precursor m/z=973.499" "collision energy=55.2568" "collision energy 2=92.0947" "peak width=0.015" "date=2014-12-12 20:57:07+01:00" "column=Waters Acquity BEH C18 1.7um x 2.1 x 150 mm" "retention time=743.4" "raw data file=C:\Data\Noble-Bruker MS libr eval complex mix\2014Dec_A17 aer rt mix MSMS_1-A,2_01_1447.d" "precursor type=[M-H]-" "mass accuracy=2.4333830850299165" "mass error=-0.002368895999893539" "SMILES=[C@H]1([C@@H]([C@@](C2[C@](C1)(C1[C@@](CC2)([C@]2(C(=CC1)[C@H]1[C@@](CC2)(CCC(C1)(C)C)C(=O)O[C@H]1[C@@H]([C@H]([C@@H]([C@H](O1)CO)O)O)O)C)C)C)(C)CO)O[C@@H]1O[C@@H]([C@H]([C@@H]([C@H]1O)O[C@@H]1O[C@@H]([C@H]([C@@H]([C@H]1O)O)O)CO)O)CO)O" "InChI=InChI=1S/C48H78O20/c1-43(2)11-13-48(42(62)68-40-35(60)33(58)30(55)25(18-50)64-40)14-12-46(5)21(22(48)15-43)7-8-28-44(3)16-23(53)38(45(4,20-52)27(44)9-10-47(28,46)6)67-41-36(61)37(31(56)26(19-51)65-41)66-39-34(59)32(57)29(54)24(17-49)63-39/h7,22-41,49-61H,8-20H2,1-6H3/t22-,23-,24+,25+,26+,27?,28?,29+,30+,31+,32-,33-,34+,35+,36+,37-,38-,39-,40-,41-,44-,45-,46+,47+,48-/m0/s1" "InChIKey=MWAZVBLWMOGSFL-IRLZNWNJSA-N" "molecular formula=C48H78O20" "total exact mass=974.508644896" "SMILES=C1(C(C(C2C(C1)(C3C(CC2)(C4(C(=CC3)C5C(CC4)(CCC(C5)(C)C)C(OC6C(C(C(C(O6)CO)O)O)O)=O)C)C)C)(C)CO)OC7OC(C(C(C7O)OC8OC(C(C(C8O)O)O)CO)O)CO)O"
Num Peaks: 21
 101 2.102102; 
 113 3.703704; 
 119 2.102102; 
 179 1.801802; 
 439 6.906907; 
 440 1.101101; 
 455 1.001001; 
 487 63.563564; 
 488 16.716717; 
 488 2.202202; 
 631 18.118118; 
 632 4.004004; 
 649 49.249249; 
 650 18.318318; 
 651 4.604605; 
 811 100.000000; 
 812 0.700701; 
 812 45.545546; 
 813 11.611612; 
 814 1.201201; 
 853 1.201201; 


Name: 3-Glu(1,3)Glu-28-Glu Bayogenin
SYNON: $:00in-source
DB#: MetaboBASE1179
InChIKey: MWAZVBLWMOGSFL-IRLZNWNJSA-N
Precursor_type: [M+FA-H]-
Spectrum_type: MS2
PrecursorMZ: 1019.502
Instrument_type: LC-ESI-TOF
Instrument: impact HD
Ion_mode: N
Collision_energy: 56.9821
InChIKey: MWAZVBLWMOGSFL-IRLZNWNJSA-N
Formula: C48H78O20
MW: 974
ExactMass: 974.508644896
Comments: "license=License CC-BY-NC-SA 4.0 International" "author=Plant Biology, The Noble Foundation, Ardmore, OK, US/Dennis Fine, Daniel Wherritt, and Lloyd Sumner" "instrument type=LC-ESI-TOF" "instrument=impact HD" "ionization=ESI" "ionization mode=negative" "ms level=MS2" "precursor m/z=1019.502" "collision energy=56.9821" "collision energy 2=94.9701" "peak width=0.015" "date=2014-12-12 20:57:07+01:00" "column=Waters Acquity BEH C18 1.7um x 2.1 x 150 mm" "retention time=743.4" "raw data file=C:\Data\Noble-Bruker MS libr eval complex mix\2014Dec_A17 aer rt mix MSMS_1-A,2_01_1447.d" "precursor type=[M+FA-H]-" "mass accuracy=4.7531991109445375" "mass error=-0.004845896000006178" "SMILES=[C@H]1([C@@H]([C@@](C2[C@](C1)(C1[C@@](CC2)([C@]2(C(=CC1)[C@H]1[C@@](CC2)(CCC(C1)(C)C)C(=O)O[C@H]1[C@@H]([C@H]([C@@H]([C@H](O1)CO)O)O)O)C)C)C)(C)CO)O[C@@H]1O[C@@H]([C@H]([C@@H]([C@H]1O)O[C@@H]1O[C@@H]([C@H]([C@@H]([C@H]1O)O)O)CO)O)CO)O" "InChI=InChI=1S/C48H78O20/c1-43(2)11-13-48(42(62)68-40-35(60)33(58)30(55)25(18-50)64-40)14-12-46(5)21(22(48)15-43)7-8-28-44(3)16-23(53)38(45(4,20-52)27(44)9-10-47(28,46)6)67-41-36(61)37(31(56)26(19-51)65-41)66-39-34(59)32(57)29(54)24(17-49)63-39/h7,22-41,49-61H,8-20H2,1-6H3/t22-,23-,24+,25+,26+,27?,28?,29+,30+,31+,32-,33-,34+,35+,36+,37-,38-,39-,40-,41-,44-,45-,46+,47+,48-/m0/s1" "InChIKey=MWAZVBLWMOGSFL-IRLZNWNJSA-N" "molecular formula=C48H78O20" "total exact mass=974.508644896" "SMILES=C1(C(C(C2C(C1)(C3C(CC2)(C4(C(=CC3)C5C(CC4)(CCC(C5)(C)C)C(OC6C(C(C(C(O6)CO)O)O)O)=O)C)C)C)(C)CO)OC7OC(C(C(C7O)OC8OC(C(C(C8O)O)O)CO)O)CO)O"
Num Peaks: 44
 101 1.901902; 
 102 0.100100; 
 113 2.702703; 
 119 1.601602; 
 143 0.200200; 
 149 0.100100; 
 149 0.200200; 
 161 0.900901; 
 179 1.301301; 
 323 0.100100; 
 437 0.500501; 
 439 4.304304; 
 440 1.401401; 
 455 1.401401; 
 456 0.200200; 
 467 0.900901; 
 469 0.800801; 
 485 0.500501; 
 487 40.540541; 
 488 11.611612; 
 489 0.500501; 
 489 1.001001; 
 529 0.500501; 
 530 0.100100; 
 631 11.711712; 
 632 4.204204; 
 633 0.700701; 
 649 30.630631; 
 650 11.311311; 
 651 2.102102; 
 663 0.200200; 
 664 0.200200; 
 691 0.900901; 
 793 0.700701; 
 794 0.200200; 
 811 0.300300; 
 811 100.000000; 
 811 0.200200; 
 812 45.645646; 
 813 11.611612; 
 814 1.501502; 
 853 2.702703; 
 854 1.201201; 
 855 0.200200; 


Name: 3-Ara-28-Glu Hederagenin
SYNON: $:00in-source
DB#: MetaboBASE1180
InChIKey: UCVNVSOIAFGLPL-FBTWDWMFSA-N
Instrument_type: LC-ESI-TOF
Instrument: impact HD
Ion_mode: N
InChIKey: UCVNVSOIAFGLPL-FBTWDWMFSA-N
Formula: C41H66O13
MW: 766
ExactMass: 766.450342172
Comments: "license=License CC-BY-NC-SA 4.0 International" "author=Plant Biology, The Noble Foundation, Ardmore, OK, US/Dennis Fine, Daniel Wherritt, and Lloyd Sumner" "instrument type=LC-ESI-TOF" "instrument=impact HD" "ionization=ESI" "ionization mode=negative" "peak width=0.014" "date=2014-12-12 20:57:07+01:00" "column=Waters Acquity BEH C18 1.7um x 2.1 x 150 mm" "retention time=926.4" "raw data file=C:\Data\Noble-Bruker MS libr eval complex mix\2014Dec_A17 aer rt mix MSMS_1-A,2_01_1447.d" "SMILES=C1[C@@H]([C@@](C2[C@](C1)(C1[C@@](CC2)([C@]2(C(=CC1)[C@H]1[C@@](CC2)(CCC(C1)(C)C)C(=O)O[C@H]1[C@@H]([C@H]([C@@H]([C@H](O1)CO)O)O)O)C)C)C)(C)CO)O[C@@H]1OC[C@@H]([C@@H]([C@H]1O)O)O" "InChI=InChI=1S/C41H66O13/c1-36(2)13-15-41(35(50)54-34-32(49)30(47)29(46)24(18-42)52-34)16-14-39(5)21(22(41)17-36)7-8-26-37(3)11-10-27(53-33-31(48)28(45)23(44)19-51-33)38(4,20-43)25(37)9-12-40(26,39)6/h7,22-34,42-49H,8-20H2,1-6H3/t22-,23-,24+,25?,26?,27-,28-,29+,30-,31+,32+,33-,34-,37-,38-,39+,40+,41-/m0/s1" "InChIKey=UCVNVSOIAFGLPL-FBTWDWMFSA-N" "molecular formula=C41H66O13" "total exact mass=766.450342172" "SMILES=C1C(C(C2C(C1)(C3C(CC2)(C4(C(=CC3)C5C(CC4)(CCC(C5)(C)C)C(OC6C(C(C(C(O6)CO)O)O)O)=O)C)C)C)(C)CO)OC7OCC(C(C7O)O)O"
Num Peaks: 33
 112 1.101101; 
 116 1.501502; 
 635 3.203203; 
 635 2.102102; 
 636 0.900901; 
 636 0.200200; 
 801 3.003003; 
 802 1.801802; 
 803 0.100100; 
 803 1.501502; 
 811 100.000000; 
 811 0.200200; 
 812 46.146146; 
 812 0.100100; 
 813 14.614615; 
 813 0.100100; 
 814 3.403403; 
 828 2.002002; 
 879 8.308308; 
 880 4.104104; 
 883 6.606607; 
 884 4.204204; 
 884 0.100100; 
 884 0.100100; 
 885 0.200200; 
 911 0.200200; 
 911 4.004004; 
 912 0.100100; 
 912 2.802803; 
 913 0.100100; 
 955 4.604605; 
 956 2.502503; 
 1001 0.900901; 


Name: 3-Ara-28-Glu Hederagenin
SYNON: $:00in-source
DB#: MetaboBASE1181
InChIKey: UCVNVSOIAFGLPL-FBTWDWMFSA-N
Precursor_type: [M+FA-H]-
Spectrum_type: MS2
PrecursorMZ: 811.4452
Instrument_type: LC-ESI-TOF
Instrument: impact HD
Ion_mode: N
Collision_energy: 49.1798
InChIKey: UCVNVSOIAFGLPL-FBTWDWMFSA-N
Formula: C41H66O13
MW: 766
ExactMass: 766.450342172
Comments: "license=License CC-BY-NC-SA 4.0 International" "author=Plant Biology, The Noble Foundation, Ardmore, OK, US/Dennis Fine, Daniel Wherritt, and Lloyd Sumner" "instrument type=LC-ESI-TOF" "instrument=impact HD" "ionization=ESI" "ionization mode=negative" "ms level=MS2" "precursor m/z=811.4452" "collision energy=49.1798" "collision energy 2=81.9664" "peak width=0.016" "date=2014-12-12 20:57:07+01:00" "column=Waters Acquity BEH C18 1.7um x 2.1 x 150 mm" "retention time=926.4" "raw data file=C:\Data\Noble-Bruker MS libr eval complex mix\2014Dec_A17 aer rt mix MSMS_1-A,2_01_1447.d" "precursor type=[M+FA-H]-" "mass accuracy=4.1200219065595345" "mass error=-0.003343171999972583" "SMILES=C1[C@@H]([C@@](C2[C@](C1)(C1[C@@](CC2)([C@]2(C(=CC1)[C@H]1[C@@](CC2)(CCC(C1)(C)C)C(=O)O[C@H]1[C@@H]([C@H]([C@@H]([C@H](O1)CO)O)O)O)C)C)C)(C)CO)O[C@@H]1OC[C@@H]([C@@H]([C@H]1O)O)O" "InChI=InChI=1S/C41H66O13/c1-36(2)13-15-41(35(50)54-34-32(49)30(47)29(46)24(18-42)52-34)16-14-39(5)21(22(41)17-36)7-8-26-37(3)11-10-27(53-33-31(48)28(45)23(44)19-51-33)38(4,20-43)25(37)9-12-40(26,39)6/h7,22-34,42-49H,8-20H2,1-6H3/t22-,23-,24+,25?,26?,27-,28-,29+,30-,31+,32+,33-,34-,37-,38-,39+,40+,41-/m0/s1" "InChIKey=UCVNVSOIAFGLPL-FBTWDWMFSA-N" "molecular formula=C41H66O13" "total exact mass=766.450342172" "SMILES=C1C(C(C2C(C1)(C3C(CC2)(C4(C(=CC3)C5C(CC4)(CCC(C5)(C)C)C(OC6C(C(C(C(O6)CO)O)O)O)=O)C)C)C)(C)CO)OC7OCC(C(C7O)O)O"
Num Peaks: 3
 603 100.000000; 
 604 32.732733; 
 605 5.005005; 


Name: 3-Glu(1-3)Glu-28-Xyl(1-4)[Api(1-3)]Rha(1-2)Ara Zanhic acid
SYNON: $:00in-source
DB#: MetaboBASE1182
InChIKey: VCIIUHJUYQIBSQ-LOCYOFRUSA-N
Instrument_type: LC-ESI-TOF
Instrument: impact HD
Ion_mode: N
InChIKey: VCIIUHJUYQIBSQ-LOCYOFRUSA-N
Formula: C63H100O33
MW: 1384
ExactMass: 1384.6146856599999
Comments: "license=License CC-BY-NC-SA 4.0 International" "author=Plant Biology, The Noble Foundation, Ardmore, OK, US/Dennis Fine, Daniel Wherritt, and Lloyd Sumner" "instrument type=LC-ESI-TOF" "instrument=impact HD" "ionization=ESI" "ionization mode=negative" "peak width=0.014" "date=2014-12-12 20:57:07+01:00" "column=Waters Acquity BEH C18 1.7um x 2.1 x 150 mm" "retention time=688.8" "raw data file=C:\Data\Noble-Bruker MS libr eval complex mix\2014Dec_A17 aer rt mix MSMS_1-A,2_01_1447.d" "Last Auto-Curation=1505110277828" "SMILES=[C@H]1([C@@H]([C@@](C2[C@](C1)(C1[C@@](CC2)([C@]2(C(=CC1)[C@H]1[C@@]([C@@H](C2)O)(CCC(C1)(C)C)C(=O)O[C@H]1[C@@H]([C@H]([C@H](CO1)O)O)O[C@H]1[C@@H]([C@@H]([C@H]([C@@H](O1)C)O[C@H]1[C@@H]([C@H]([C@@H](CO1)O)O)O)O[C@@H]1OC[C@]([C@H]1O)(O)CO)O)C)C)C)(C)C(=O)O)O[C@@H]1O[C@@H]([C@H]([C@@H]([C@H]1O)O[C@@H]1O[C@@H]([C@H]([C@@H]([C@H]1O)O)O)CO)O)CO)O" "InChI=InChI=1S/C63H100O33/c1-23-43(91-49-39(76)34(71)27(68)19-85-49)45(93-54-47(80)62(84,21-66)22-87-54)42(79)51(88-23)94-46-35(72)28(69)20-86-53(46)96-56(83)63-13-12-57(2,3)14-25(63)24-8-9-31-58(4)15-26(67)48(61(7,55(81)82)32(58)10-11-59(31,5)60(24,6)16-33(63)70)95-52-41(78)44(37(74)30(18-65)90-52)92-50-40(77)38(75)36(73)29(17-64)89-50/h8,23,25-54,64-80,84H,9-22H2,1-7H3,(H,81,82)/t23-,25-,26-,27+,28-,29+,30+,31?,32?,33+,34-,35-,36+,37+,38-,39+,40+,41+,42+,43-,44-,45-,46+,47-,48-,49-,50-,51-,52-,53-,54-,58+,59+,60+,61-,62+,63+/m0/s1" "InChIKey=VCIIUHJUYQIBSQ-LOCYOFRUSA-N" "molecular formula=C63H100O33" "total exact mass=1384.6146856599999" "SMILES=[H]OC(=O)C1(C([H])([H])[H])C([H])(OC2([H])OC([H])(C([H])([H])O[H])C([H])(O[H])C([H])(OC3([H])OC([H])(C([H])([H])O[H])C([H])(O[H])C([H])(O[H])C3([H])O[H])C2([H])O[H])C([H])(O[H])C([H])([H])C4(C([H])([H])[H])C1([H])C([H])([H])C([H])([H])C5(C([H])([H])[H])C4([H])C([H])([H])C([H])=C6C7([H])C([H])([H])C(C([H])([H])[H])(C([H])([H])[H])C([H])([H])C([H])([H])C7(C(=O)OC8([H])OC([H])([H])C([H])(O[H])C([H])(O[H])C8([H])OC9([H])OC([H])(C([H])([H])[H])C([H])(OC%10([H])OC([H])([H])C([H])(O[H])C([H])(O[H])C%10([H])O[H])C([H])(OC%11([H])OC([H])([H])C(O[H])(C([H])([H])O[H])C%11([H])O[H])C9([H])O[H])C([H])(O[H])C([H])([H])C65C([H])([H])[H]"
Num Peaks: 23
 283 6.606607; 
 549 7.307307; 
 556 6.406406; 
 556 4.404404; 
 556 2.202202; 
 557 2.602603; 
 557 3.303303; 
 590 3.703704; 
 590 2.102102; 
 991 9.309309; 
 992 6.506507; 
 1113 8.208208; 
 1114 3.203203; 
 1248 1.101101; 
 1249 2.002002; 
 1383 100.000000; 
 1384 5.905906; 
 1384 70.670671; 
 1385 1.901902; 
 1385 29.029029; 
 1386 10.610611; 
 1451 10.810811; 
 1452 8.308308; 


Name: 3-Glu(1-3)Glu-28-Xyl(1-4)[Api(1-3)]Rha(1-2)Ara Zanhic acid
SYNON: $:00in-source
DB#: MetaboBASE1183
InChIKey: VCIIUHJUYQIBSQ-LOCYOFRUSA-N
Spectrum_type: MS2
PrecursorMZ: 1383.597
Instrument_type: LC-ESI-TOF
Instrument: impact HD
Ion_mode: N
Collision_energy: 70.6357
InChIKey: VCIIUHJUYQIBSQ-LOCYOFRUSA-N
Formula: C63H100O33
MW: 1384
ExactMass: 1384.6146856599999
Comments: "license=License CC-BY-NC-SA 4.0 International" "author=Plant Biology, The Noble Foundation, Ardmore, OK, US/Dennis Fine, Daniel Wherritt, and Lloyd Sumner" "instrument type=LC-ESI-TOF" "instrument=impact HD" "ionization=ESI" "ionization mode=negative" "ms level=MS2" "precursor m/z=1383.597" "collision energy=70.6357" "collision energy 2=117.726" "peak width=0.013" "date=2014-12-12 20:57:07+01:00" "column=Waters Acquity BEH C18 1.7um x 2.1 x 150 mm" "retention time=688.8" "raw data file=C:\Data\Noble-Bruker MS libr eval complex mix\2014Dec_A17 aer rt mix MSMS_1-A,2_01_1447.d" "Last Auto-Curation=1505110278536" "SMILES=[C@H]1([C@@H]([C@@](C2[C@](C1)(C1[C@@](CC2)([C@]2(C(=CC1)[C@H]1[C@@]([C@@H](C2)O)(CCC(C1)(C)C)C(=O)O[C@H]1[C@@H]([C@H]([C@H](CO1)O)O)O[C@H]1[C@@H]([C@@H]([C@H]([C@@H](O1)C)O[C@H]1[C@@H]([C@H]([C@@H](CO1)O)O)O)O[C@@H]1OC[C@]([C@H]1O)(O)CO)O)C)C)C)(C)C(=O)O)O[C@@H]1O[C@@H]([C@H]([C@@H]([C@H]1O)O[C@@H]1O[C@@H]([C@H]([C@@H]([C@H]1O)O)O)CO)O)CO)O" "InChI=InChI=1S/C63H100O33/c1-23-43(91-49-39(76)34(71)27(68)19-85-49)45(93-54-47(80)62(84,21-66)22-87-54)42(79)51(88-23)94-46-35(72)28(69)20-86-53(46)96-56(83)63-13-12-57(2,3)14-25(63)24-8-9-31-58(4)15-26(67)48(61(7,55(81)82)32(58)10-11-59(31,5)60(24,6)16-33(63)70)95-52-41(78)44(37(74)30(18-65)90-52)92-50-40(77)38(75)36(73)29(17-64)89-50/h8,23,25-54,64-80,84H,9-22H2,1-7H3,(H,81,82)/t23-,25-,26-,27+,28-,29+,30+,31?,32?,33+,34-,35-,36+,37+,38-,39+,40+,41+,42+,43-,44-,45-,46+,47-,48-,49-,50-,51-,52-,53-,54-,58+,59+,60+,61-,62+,63+/m0/s1" "InChIKey=VCIIUHJUYQIBSQ-LOCYOFRUSA-N" "molecular formula=C63H100O33" "total exact mass=1384.6146856599999" "SMILES=[H]OC(=O)C1(C([H])([H])[H])C([H])(OC2([H])OC([H])(C([H])([H])O[H])C([H])(O[H])C([H])(OC3([H])OC([H])(C([H])([H])O[H])C([H])(O[H])C([H])(O[H])C3([H])O[H])C2([H])O[H])C([H])(O[H])C([H])([H])C4(C([H])([H])[H])C1([H])C([H])([H])C([H])([H])C5(C([H])([H])[H])C4([H])C([H])([H])C([H])=C6C7([H])C([H])([H])C(C([H])([H])[H])(C([H])([H])[H])C([H])([H])C([H])([H])C7(C(=O)OC8([H])OC([H])([H])C([H])(O[H])C([H])(O[H])C8([H])OC9([H])OC([H])(C([H])([H])[H])C([H])(OC%10([H])OC([H])([H])C([H])(O[H])C([H])(O[H])C%10([H])O[H])C([H])(OC%11([H])OC([H])([H])C(O[H])(C([H])([H])O[H])C%11([H])O[H])C9([H])O[H])C([H])(O[H])C([H])([H])C65C([H])([H])[H]"
Num Peaks: 10
 113 8.408408; 
 337 4.304304; 
 393 1.801802; 
 455 34.834835; 
 456 9.609610; 
 469 9.709710; 
 1383 100.000000; 
 1384 55.655656; 
 1385 26.826827; 
 1386 3.303303; 


Name: 3-Glu-28-Glu Medicagenic acid
SYNON: $:00in-source
DB#: MetaboBASE1184
InChIKey: LFWLYNKBYSIXAH-UFPRFPELSA-N
Instrument_type: LC-ESI-TOF
Instrument: impact HD
Ion_mode: N
InChIKey: LFWLYNKBYSIXAH-UFPRFPELSA-N
Formula: C42H66O16
MW: 826
ExactMass: 826.4350860320001
Comments: "license=License CC-BY-NC-SA 4.0 International" "author=Plant Biology, The Noble Foundation, Ardmore, OK, US/Dennis Fine, Daniel Wherritt, and Lloyd Sumner" "instrument type=LC-ESI-TOF" "instrument=impact HD" "ionization=ESI" "ionization mode=negative" "peak width=0.012" "date=2014-12-12 20:57:07+01:00" "column=Waters Acquity BEH C18 1.7um x 2.1 x 150 mm" "retention time=778.2" "raw data file=C:\Data\Noble-Bruker MS libr eval complex mix\2014Dec_A17 aer rt mix MSMS_1-A,2_01_1447.d" "Last Auto-Curation=1505111012262" "SMILES=[C@H]1([C@@H]([C@@](C2[C@](C1)(C1[C@@](CC2)([C@]2(C(=CC1)[C@H]1[C@@](CC2)(CCC(C1)(C)C)C(=O)O[C@H]1[C@@H]([C@H]([C@@H]([C@H](O1)CO)O)O)O)C)C)C)(C)C(=O)O)O[C@@H]1O[C@@H]([C@H]([C@@H]([C@H]1O)O)O)CO)O" "InChI=InChI=1S/C42H66O16/c1-37(2)11-13-42(36(54)58-34-31(51)29(49)27(47)23(18-44)56-34)14-12-39(4)19(20(42)15-37)7-8-24-38(3)16-21(45)32(41(6,35(52)53)25(38)9-10-40(24,39)5)57-33-30(50)28(48)26(46)22(17-43)55-33/h7,20-34,43-51H,8-18H2,1-6H3,(H,52,53)/t20-,21-,22+,23+,24?,25?,26+,27+,28-,29-,30+,31+,32-,33-,34-,38+,39+,40+,41-,42-/m0/s1" "InChIKey=LFWLYNKBYSIXAH-UFPRFPELSA-N" "molecular formula=C42H66O16" "total exact mass=826.4350860320001" "SMILES=[H]OC(=O)C1(C([H])([H])[H])C([H])(OC2([H])OC([H])(C([H])([H])O[H])C([H])(O[H])C([H])(O[H])C2([H])O[H])C([H])(O[H])C([H])([H])C3(C([H])([H])[H])C1([H])C([H])([H])C([H])([H])C4(C([H])([H])[H])C3([H])C([H])([H])C([H])=C5C6([H])C([H])([H])C(C([H])([H])[H])(C([H])([H])[H])C([H])([H])C([H])([H])C6(C(=O)OC7([H])OC([H])(C([H])([H])O[H])C([H])(O[H])C([H])(O[H])C7([H])O[H])C([H])([H])C([H])([H])C54C([H])([H])[H]"
Num Peaks: 45
 825 100.000000; 
 825 26.526527; 
 826 48.048048; 
 826 5.305305; 
 827 13.113113; 
 828 2.402402; 
 859 2.302302; 
 859 2.202202; 
 860 1.301301; 
 893 6.406406; 
 894 2.902903; 
 895 1.101101; 
 925 4.204204; 
 926 2.402402; 
 927 1.001001; 
 941 3.303303; 
 941 3.503504; 
 942 2.802803; 
 942 1.701702; 
 948 1.001001; 
 1037 4.004004; 
 1037 4.604605; 
 1038 3.103103; 
 1038 1.301301; 
 1057 5.705706; 
 1058 3.703704; 
 1238 7.807808; 
 1239 11.011011; 
 1239 8.508509; 
 1240 4.704705; 
 1240 2.202202; 
 1249 6.606607; 
 1250 1.501502; 
 1250 4.404404; 
 1250 1.101101; 
 1251 1.801802; 
 1354 2.002002; 
 1355 2.902903; 
 1355 2.602603; 
 1356 2.102102; 
 1356 1.001001; 
 1450 1.501502; 
 1451 2.402402; 
 1451 2.102102; 
 1452 1.301301; 


Name: 3-Glu-28-Glu Medicagenic acid
SYNON: $:00in-source
DB#: MetaboBASE1185
InChIKey: LFWLYNKBYSIXAH-UFPRFPELSA-N
Spectrum_type: MS2
PrecursorMZ: 825.4265
Instrument_type: LC-ESI-TOF
Instrument: impact HD
Ion_mode: N
Collision_energy: 49.7041
InChIKey: LFWLYNKBYSIXAH-UFPRFPELSA-N
Formula: C42H66O16
MW: 826
ExactMass: 826.4350860320001
Comments: "license=License CC-BY-NC-SA 4.0 International" "author=Plant Biology, The Noble Foundation, Ardmore, OK, US/Dennis Fine, Daniel Wherritt, and Lloyd Sumner" "instrument type=LC-ESI-TOF" "instrument=impact HD" "ionization=ESI" "ionization mode=negative" "ms level=MS2" "precursor m/z=825.4265" "collision energy=49.7041" "collision energy 2=82.8402" "peak width=0.018" "date=2014-12-12 20:57:07+01:00" "column=Waters Acquity BEH C18 1.7um x 2.1 x 150 mm" "retention time=778.2" "raw data file=C:\Data\Noble-Bruker MS libr eval complex mix\2014Dec_A17 aer rt mix MSMS_1-A,2_01_1447.d" "Last Auto-Curation=1505110279398" "SMILES=[C@H]1([C@@H]([C@@](C2[C@](C1)(C1[C@@](CC2)([C@]2(C(=CC1)[C@H]1[C@@](CC2)(CCC(C1)(C)C)C(=O)O[C@H]1[C@@H]([C@H]([C@@H]([C@H](O1)CO)O)O)O)C)C)C)(C)C(=O)O)O[C@@H]1O[C@@H]([C@H]([C@@H]([C@H]1O)O)O)CO)O" "InChI=InChI=1S/C42H66O16/c1-37(2)11-13-42(36(54)58-34-31(51)29(49)27(47)23(18-44)56-34)14-12-39(4)19(20(42)15-37)7-8-24-38(3)16-21(45)32(41(6,35(52)53)25(38)9-10-40(24,39)5)57-33-30(50)28(48)26(46)22(17-43)55-33/h7,20-34,43-51H,8-18H2,1-6H3,(H,52,53)/t20-,21-,22+,23+,24?,25?,26+,27+,28-,29-,30+,31+,32-,33-,34-,38+,39+,40+,41-,42-/m0/s1" "InChIKey=LFWLYNKBYSIXAH-UFPRFPELSA-N" "molecular formula=C42H66O16" "total exact mass=826.4350860320001" "SMILES=[H]OC(=O)C1(C([H])([H])[H])C([H])(OC2([H])OC([H])(C([H])([H])O[H])C([H])(O[H])C([H])(O[H])C2([H])O[H])C([H])(O[H])C([H])([H])C3(C([H])([H])[H])C1([H])C([H])([H])C([H])([H])C4(C([H])([H])[H])C3([H])C([H])([H])C([H])=C5C6([H])C([H])([H])C(C([H])([H])[H])(C([H])([H])[H])C([H])([H])C([H])([H])C6(C(=O)OC7([H])OC([H])(C([H])([H])O[H])C([H])(O[H])C([H])(O[H])C7([H])O[H])C([H])([H])C([H])([H])C54C([H])([H])[H]"
Num Peaks: 19
 101 100.000000; 
 102 4.404404; 
 113 52.652653; 
 114 2.102102; 
 119 78.578579; 
 120 3.903904; 
 131 5.905906; 
 143 7.507508; 
 149 11.411411; 
 161 13.813814; 
 179 42.942943; 
 180 1.801802; 
 439 94.794795; 
 440 28.528529; 
 441 0.500501; 
 441 3.103103; 
 664 0.700701; 
 825 14.314314; 
 826 8.108108; 


Name: 3-Glu-28-Glu Medicagenic acid
SYNON: $:00in-source
DB#: MetaboBASE1186
InChIKey: LFWLYNKBYSIXAH-UFPRFPELSA-N
Spectrum_type: MS2
PrecursorMZ: 825.426
Instrument_type: LC-ESI-TOF
Instrument: impact HD
Ion_mode: N
Collision_energy: 49.0056
InChIKey: LFWLYNKBYSIXAH-UFPRFPELSA-N
Formula: C42H66O16
MW: 826
ExactMass: 826.4350860320001
Comments: "license=License CC-BY-NC-SA 4.0 International" "author=Plant Biology, The Noble Foundation, Ardmore, OK, US/Dennis Fine, Daniel Wherritt, and Lloyd Sumner" "instrument type=LC-ESI-TOF" "instrument=impact HD" "ionization=ESI" "ionization mode=negative" "ms level=MS2" "precursor m/z=825.426" "collision energy=49.0056" "peak width=0.0056" "date=2014-12-12 20:57:07+01:00" "column=Waters Acquity BEH C18 1.7um x 2.1 x 150 mm" "retention time=778.2" "raw data file=C:\Data\Noble-Bruker MS libr eval complex mix\2014Dec_A17 aer rt mix MSMS_1-A,2_01_1447.d" "Last Auto-Curation=1505110279878" "SMILES=[C@H]1([C@@H]([C@@](C2[C@](C1)(C1[C@@](CC2)([C@]2(C(=CC1)[C@H]1[C@@](CC2)(CCC(C1)(C)C)C(=O)O[C@H]1[C@@H]([C@H]([C@@H]([C@H](O1)CO)O)O)O)C)C)C)(C)C(=O)O)O[C@@H]1O[C@@H]([C@H]([C@@H]([C@H]1O)O)O)CO)O" "InChI=InChI=1S/C42H66O16/c1-37(2)11-13-42(36(54)58-34-31(51)29(49)27(47)23(18-44)56-34)14-12-39(4)19(20(42)15-37)7-8-24-38(3)16-21(45)32(41(6,35(52)53)25(38)9-10-40(24,39)5)57-33-30(50)28(48)26(46)22(17-43)55-33/h7,20-34,43-51H,8-18H2,1-6H3,(H,52,53)/t20-,21-,22+,23+,24?,25?,26+,27+,28-,29-,30+,31+,32-,33-,34-,38+,39+,40+,41-,42-/m0/s1" "InChIKey=LFWLYNKBYSIXAH-UFPRFPELSA-N" "molecular formula=C42H66O16" "total exact mass=826.4350860320001" "SMILES=[H]OC(=O)C1(C([H])([H])[H])C([H])(OC2([H])OC([H])(C([H])([H])O[H])C([H])(O[H])C([H])(O[H])C2([H])O[H])C([H])(O[H])C([H])([H])C3(C([H])([H])[H])C1([H])C([H])([H])C([H])([H])C4(C([H])([H])[H])C3([H])C([H])([H])C([H])=C5C6([H])C([H])([H])C(C([H])([H])[H])(C([H])([H])[H])C([H])([H])C([H])([H])C6(C(=O)OC7([H])OC([H])(C([H])([H])O[H])C([H])(O[H])C([H])(O[H])C7([H])O[H])C([H])([H])C([H])([H])C54C([H])([H])[H]"
Num Peaks: 22
 101 88.588589; 
 102 5.205205; 
 113 38.138138; 
 114 2.902903; 
 119 33.133133; 
 120 0.700701; 
 131 2.002002; 
 143 5.705706; 
 149 6.106106; 
 161 12.312312; 
 179 22.422422; 
 393 0.800801; 
 402 0.800801; 
 439 100.000000; 
 440 28.628629; 
 441 4.804805; 
 442 1.401401; 
 456 0.700701; 
 663 1.101101; 
 825 12.712713; 
 826 8.308308; 
 827 2.002002; 


Name: 3-(3'-O-Malonyl)Glu(1-4)Glu-28-Glu Bayogenin
SYNON: $:00in-source
DB#: MetaboBASE1187
InChIKey: RHZZPKBPURDXHT-PDXZTVMWSA-N
Precursor_type: [M-H]-
Spectrum_type: MS2
PrecursorMZ: 1059.497
Instrument_type: LC-ESI-TOF
Instrument: impact HD
Ion_mode: N
Collision_energy: 52.5
InChIKey: RHZZPKBPURDXHT-PDXZTVMWSA-N
Formula: C51H80O23
MW: 1060
ExactMass: 1060.50903882
Comments: "license=License CC-BY-NC-SA 4.0 International" "author=Plant Biology, The Noble Foundation, Ardmore, OK, US/Dennis Fine, Daniel Wherritt, and Lloyd Sumner" "instrument type=LC-ESI-TOF" "instrument=impact HD" "ionization=ESI" "ionization mode=negative" "ms level=MS2" "precursor m/z=1059.497" "collision energy=52.5" "peak width=0.028" "date=2014-12-10 21:06:23+01:00" "column=Waters Acquity BEH C18 1.7um x 2.1 x 150 mm" "retention time=726" "raw data file=C:\Data\Noble-Bruker MS libr eval complex mix\2014Dec_A17 aer rt mix MSMS_1-A,2_01_1415.d" "precursor type=[M-H]-" "mass accuracy=4.49535959022905" "mass error=-0.004762819999768908" "SMILES=[C@H]1([C@@H]([C@@](C2[C@](C1)(C1[C@@](CC2)([C@]2(C(=CC1)[C@H]1[C@@](CC2)(CCC(C1)(C)C)C(=O)O[C@H]1[C@@H]([C@H]([C@@H]([C@H](O1)CO)O)O)O)C)C)C)(C)CO)O[C@@H]1O[C@@H]([C@H]([C@@H]([C@H]1O)OC(=O)CC(=O)O)O[C@H]1[C@@H]([C@H]([C@@H]([C@H](O1)CO)O)O)O)CO)O" "InChI=InChI=1S/C51H80O23/c1-46(2)11-13-51(45(67)74-43-37(65)35(63)33(61)26(19-53)69-43)14-12-49(5)22(23(51)16-46)7-8-29-47(3)17-24(56)41(48(4,21-55)28(47)9-10-50(29,49)6)73-44-38(66)40(71-31(59)15-30(57)58)39(27(20-54)70-44)72-42-36(64)34(62)32(60)25(18-52)68-42/h7,23-29,32-44,52-56,60-66H,8-21H2,1-6H3,(H,57,58)/t23-,24-,25+,26+,27+,28?,29?,32+,33+,34-,35-,36+,37+,38+,39+,40+,41-,42-,43-,44-,47-,48-,49+,50+,51-/m0/s1" "InChIKey=RHZZPKBPURDXHT-PDXZTVMWSA-N" "molecular formula=C51H80O23" "total exact mass=1060.50903882" "SMILES=C1(C(C(C2C(C1)(C3C(CC2)(C4(C(=CC3)C5C(CC4)(CCC(C5)(C)C)C(OC6C(C(C(C(O6)CO)O)O)O)=O)C)C)C)(C)CO)OC7OC(C(C(C7O)OC(=O)CC(=O)O)OC8C(C(C(C(O8)CO)O)O)O)CO)O"
Num Peaks: 26
 101 5.005005; 
 112 4.504505; 
 113 3.703704; 
 119 3.303303; 
 232 3.303303; 
 439 15.915916; 
 440 3.103103; 
 487 92.392392; 
 488 34.234234; 
 529 4.404404; 
 631 43.143143; 
 632 3.803804; 
 632 15.415415; 
 649 48.848849; 
 650 24.024024; 
 793 74.174174; 
 794 31.831832; 
 795 3.103103; 
 811 100.000000; 
 812 75.175175; 
 813 14.714715; 
 823 3.903904; 
 853 15.815816; 
 853 30.230230; 
 854 18.418418; 
 855 3.003003; 


Name: 3-(3'-O-Malonyl)Glu(1-4)Glu-28-Glu Bayogenin
SYNON: $:00in-source
DB#: MetaboBASE1188
InChIKey: RHZZPKBPURDXHT-PDXZTVMWSA-N
Instrument_type: LC-ESI-TOF
Instrument: impact HD
Ion_mode: N
Collision_energy: 10
InChIKey: RHZZPKBPURDXHT-PDXZTVMWSA-N
Formula: C51H80O23
MW: 1060
ExactMass: 1060.50903882
Comments: "license=License CC-BY-NC-SA 4.0 International" "author=Plant Biology, The Noble Foundation, Ardmore, OK, US/Dennis Fine, Daniel Wherritt, and Lloyd Sumner" "instrument type=LC-ESI-TOF" "instrument=impact HD" "ionization=ESI" "ionization mode=negative" "collision energy=10" "peak width=0.016" "date=2014-12-18 21:57:58+01:00" "column=Waters Acquity BEH C18 1.7um x 2.1 x 150 mm" "retention time=726" "raw data file=C:\Data\Noble-Bruker MS libr eval complex mix\2014Dec_A17 aerial root mix_1-A,3_01_1483.d" "SMILES=[C@H]1([C@@H]([C@@](C2[C@](C1)(C1[C@@](CC2)([C@]2(C(=CC1)[C@H]1[C@@](CC2)(CCC(C1)(C)C)C(=O)O[C@H]1[C@@H]([C@H]([C@@H]([C@H](O1)CO)O)O)O)C)C)C)(C)CO)O[C@@H]1O[C@@H]([C@H]([C@@H]([C@H]1O)OC(=O)CC(=O)O)O[C@H]1[C@@H]([C@H]([C@@H]([C@H](O1)CO)O)O)O)CO)O" "InChI=InChI=1S/C51H80O23/c1-46(2)11-13-51(45(67)74-43-37(65)35(63)33(61)26(19-53)69-43)14-12-49(5)22(23(51)16-46)7-8-29-47(3)17-24(56)41(48(4,21-55)28(47)9-10-50(29,49)6)73-44-38(66)40(71-31(59)15-30(57)58)39(27(20-54)70-44)72-42-36(64)34(62)32(60)25(18-52)68-42/h7,23-29,32-44,52-56,60-66H,8-21H2,1-6H3,(H,57,58)/t23-,24-,25+,26+,27+,28?,29?,32+,33+,34-,35-,36+,37+,38+,39+,40+,41-,42-,43-,44-,47-,48-,49+,50+,51-/m0/s1" "InChIKey=RHZZPKBPURDXHT-PDXZTVMWSA-N" "molecular formula=C51H80O23" "total exact mass=1060.50903882" "SMILES=C1(C(C(C2C(C1)(C3C(CC2)(C4(C(=CC3)C5C(CC4)(CCC(C5)(C)C)C(OC6C(C(C(C(O6)CO)O)O)O)=O)C)C)C)(C)CO)OC7OC(C(C(C7O)OC(=O)CC(=O)O)OC8C(C(C(C(O8)CO)O)O)O)CO)O"
Num Peaks: 32
 116 1.701702; 
 242 1.901902; 
 503 1.101101; 
 509 2.302302; 
 556 22.822823; 
 557 2.102102; 
 645 5.705706; 
 645 3.703704; 
 646 1.501502; 
 651 3.003003; 
 681 24.224224; 
 682 8.808809; 
 811 8.008008; 
 812 3.703704; 
 853 14.814815; 
 854 6.806807; 
 855 1.901902; 
 973 1.101101; 
 1015 7.707708; 
 1016 4.004004; 
 1059 100.000000; 
 1060 4.904905; 
 1060 59.559560; 
 1061 20.620621; 
 1062 5.405405; 
 1067 3.303303; 
 1073 2.202202; 
 1103 1.201201; 
 1127 12.312312; 
 1128 7.407407; 
 1159 4.804805; 
 1160 2.702703; 


Name: 3-(3'-O-Malonyl)Glu(1-4)Glu-28-Glu Bayogenin
SYNON: $:00in-source
DB#: MetaboBASE1189
InChIKey: RHZZPKBPURDXHT-PDXZTVMWSA-N
Precursor_type: [M-H]-
Spectrum_type: MS2
PrecursorMZ: 1059.496
Instrument_type: LC-ESI-TOF
Instrument: impact HD
Ion_mode: N
Collision_energy: 58.4827
InChIKey: RHZZPKBPURDXHT-PDXZTVMWSA-N
Formula: C51H80O23
MW: 1060
ExactMass: 1060.50903882
Comments: "license=License CC-BY-NC-SA 4.0 International" "author=Plant Biology, The Noble Foundation, Ardmore, OK, US/Dennis Fine, Daniel Wherritt, and Lloyd Sumner" "instrument type=LC-ESI-TOF" "instrument=impact HD" "ionization=ESI" "ionization mode=negative" "ms level=MS2" "precursor m/z=1059.496" "collision energy=58.4827" "collision energy 2=97.4711" "peak width=0.012" "date=2014-12-10 21:06:23+01:00" "column=Waters Acquity BEH C18 1.7um x 2.1 x 150 mm" "retention time=726" "raw data file=C:\Data\Noble-Bruker MS libr eval complex mix\2014Dec_A17 aer rt mix MSMS_1-A,2_01_1415.d" "precursor type=[M-H]-" "mass accuracy=5.439208831128443" "mass error=-0.005762819999745261" "SMILES=[C@H]1([C@@H]([C@@](C2[C@](C1)(C1[C@@](CC2)([C@]2(C(=CC1)[C@H]1[C@@](CC2)(CCC(C1)(C)C)C(=O)O[C@H]1[C@@H]([C@H]([C@@H]([C@H](O1)CO)O)O)O)C)C)C)(C)CO)O[C@@H]1O[C@@H]([C@H]([C@@H]([C@H]1O)OC(=O)CC(=O)O)O[C@H]1[C@@H]([C@H]([C@@H]([C@H](O1)CO)O)O)O)CO)O" "InChI=InChI=1S/C51H80O23/c1-46(2)11-13-51(45(67)74-43-37(65)35(63)33(61)26(19-53)69-43)14-12-49(5)22(23(51)16-46)7-8-29-47(3)17-24(56)41(48(4,21-55)28(47)9-10-50(29,49)6)73-44-38(66)40(71-31(59)15-30(57)58)39(27(20-54)70-44)72-42-36(64)34(62)32(60)25(18-52)68-42/h7,23-29,32-44,52-56,60-66H,8-21H2,1-6H3,(H,57,58)/t23-,24-,25+,26+,27+,28?,29?,32+,33+,34-,35-,36+,37+,38+,39+,40+,41-,42-,43-,44-,47-,48-,49+,50+,51-/m0/s1" "InChIKey=RHZZPKBPURDXHT-PDXZTVMWSA-N" "molecular formula=C51H80O23" "total exact mass=1060.50903882" "SMILES=C1(C(C(C2C(C1)(C3C(CC2)(C4(C(=CC3)C5C(CC4)(CCC(C5)(C)C)C(OC6C(C(C(C(O6)CO)O)O)O)=O)C)C)C)(C)CO)OC7OC(C(C(C7O)OC(=O)CC(=O)O)OC8C(C(C(C(O8)CO)O)O)O)CO)O"
Num Peaks: 10
 487 70.370370; 
 488 15.915916; 
 631 18.418418; 
 632 5.605606; 
 649 26.326326; 
 650 7.007007; 
 793 46.146146; 
 794 12.412412; 
 811 100.000000; 
 812 41.241241; 


Name: 3-(3'-O-Malonyl)Glu(1-4)Glu-28-Glu Bayogenin
SYNON: $:00in-source
DB#: MetaboBASE1190
InChIKey: RHZZPKBPURDXHT-PDXZTVMWSA-N
Instrument_type: LC-ESI-TOF
Instrument: impact HD
Ion_mode: N
InChIKey: RHZZPKBPURDXHT-PDXZTVMWSA-N
Formula: C51H80O23
MW: 1060
ExactMass: 1060.50903882
Comments: "license=License CC-BY-NC-SA 4.0 International" "author=Plant Biology, The Noble Foundation, Ardmore, OK, US/Dennis Fine, Daniel Wherritt, and Lloyd Sumner" "instrument type=LC-ESI-TOF" "instrument=impact HD" "ionization=ESI" "ionization mode=negative" "peak width=0.046" "date=2014-12-10 21:06:23+01:00" "column=Waters Acquity BEH C18 1.7um x 2.1 x 150 mm" "retention time=726" "raw data file=C:\Data\Noble-Bruker MS libr eval complex mix\2014Dec_A17 aer rt mix MSMS_1-A,2_01_1415.d" "SMILES=[C@H]1([C@@H]([C@@](C2[C@](C1)(C1[C@@](CC2)([C@]2(C(=CC1)[C@H]1[C@@](CC2)(CCC(C1)(C)C)C(=O)O[C@H]1[C@@H]([C@H]([C@@H]([C@H](O1)CO)O)O)O)C)C)C)(C)CO)O[C@@H]1O[C@@H]([C@H]([C@@H]([C@H]1O)OC(=O)CC(=O)O)O[C@H]1[C@@H]([C@H]([C@@H]([C@H](O1)CO)O)O)O)CO)O" "InChI=InChI=1S/C51H80O23/c1-46(2)11-13-51(45(67)74-43-37(65)35(63)33(61)26(19-53)69-43)14-12-49(5)22(23(51)16-46)7-8-29-47(3)17-24(56)41(48(4,21-55)28(47)9-10-50(29,49)6)73-44-38(66)40(71-31(59)15-30(57)58)39(27(20-54)70-44)72-42-36(64)34(62)32(60)25(18-52)68-42/h7,23-29,32-44,52-56,60-66H,8-21H2,1-6H3,(H,57,58)/t23-,24-,25+,26+,27+,28?,29?,32+,33+,34-,35-,36+,37+,38+,39+,40+,41-,42-,43-,44-,47-,48-,49+,50+,51-/m0/s1" "InChIKey=RHZZPKBPURDXHT-PDXZTVMWSA-N" "molecular formula=C51H80O23" "total exact mass=1060.50903882" "SMILES=C1(C(C(C2C(C1)(C3C(CC2)(C4(C(=CC3)C5C(CC4)(CCC(C5)(C)C)C(OC6C(C(C(C(O6)CO)O)O)O)=O)C)C)C)(C)CO)OC7OC(C(C(C7O)OC(=O)CC(=O)O)OC8C(C(C(C(O8)CO)O)O)O)CO)O"
Num Peaks: 16
 112 1.401401; 
 161 2.902903; 
 242 54.154154; 
 242 2.202202; 
 242 1.301301; 
 264 8.108108; 
 268 1.501502; 
 269 6.506507; 
 556 3.003003; 
 853 8.608609; 
 1059 100.000000; 
 1059 1.101101; 
 1060 46.646647; 
 1061 13.913914; 
 1127 12.712713; 
 1128 7.107107; 


Name: 3-(4'O-Malonyl)Rha(1-2)Gal(1-2)GluA-Soyasaponenol B
SYNON: $:00in-source
DB#: MetaboBASE1191
InChIKey: UPFQKOYQKKVLFU-NJYNVVEYSA-N
Precursor_type: [M-H]-
Spectrum_type: MS2
PrecursorMZ: 1027.505
Instrument_type: LC-ESI-TOF
Instrument: impact HD
Ion_mode: N
Collision_energy: 57.2822
InChIKey: UPFQKOYQKKVLFU-NJYNVVEYSA-N
Formula: C51H80O21
MW: 1028
ExactMass: 1028.5192095799998
Comments: "license=License CC-BY-NC-SA 4.0 International" "author=Plant Biology, The Noble Foundation, Ardmore, OK, US/Dennis Fine, Daniel Wherritt, and Lloyd Sumner" "instrument type=LC-ESI-TOF" "instrument=impact HD" "ionization=ESI" "ionization mode=negative" "ms level=MS2" "precursor m/z=1027.505" "collision energy=57.2822" "collision energy 2=95.4704" "peak width=0.043" "date=2014-12-12 20:57:07+01:00" "column=Waters Acquity BEH C18 1.7um x 2.1 x 150 mm" "retention time=1086" "raw data file=C:\Data\Noble-Bruker MS libr eval complex mix\2014Dec_A17 aer rt mix MSMS_1-A,2_01_1447.d" "annotformula=119.034;      C52H75N4O17" "precursor type=[M-H]-" "mass accuracy=6.747976895166375" "mass error=-0.006933579999667927" "SMILES=C1[C@@H]([C@@](C2[C@](C1)(C1[C@@](CC2)([C@]2(C(=CC1)[C@H]1[C@@](CC2)([C@@H](CC(C1)(C)C)O)C)C)C)C)(CO)C)O[C@@H]1O[C@@H]([C@H]([C@@H]([C@H]1O[C@@H]1O[C@@H]([C@@H]([C@@H]([C@H]1O[C@@H]1O[C@H]([C@@H]([C@H]([C@H]1O)O)OC(=O)CC(=O)O)C)O)O)CO)O)O)C(=O)O" "InChI=InChI=1S/C51H80O21/c1-22-38(69-31(57)17-30(55)56)36(62)37(63)43(66-22)71-40-33(59)32(58)25(20-52)67-44(40)72-41-35(61)34(60)39(42(64)65)70-45(41)68-29-12-13-48(5)26(49(29,6)21-53)11-14-51(8)27(48)10-9-23-24-18-46(2,3)19-28(54)47(24,4)15-16-50(23,51)7/h9,22,24-29,32-41,43-45,52-54,58-63H,10-21H2,1-8H3,(H,55,56)(H,64,65)/t22-,24-,25+,26?,27?,28+,29-,32-,33-,34-,35-,36-,37+,38-,39-,40+,41+,43-,44-,45+,47+,48-,49+,50+,51+/m0/s1" "InChIKey=UPFQKOYQKKVLFU-NJYNVVEYSA-N" "molecular formula=C51H80O21" "total exact mass=1028.5192095799998" "SMILES=C1C(C(C2C(C1)(C3C(CC2)(C4(C(=CC3)C5C(CC4)(C(CC(C5)(C)C)O)C)C)C)C)(CO)C)OC6OC(C(C(C6OC7OC(C(C(C7OC8OC(C(C(C8O)O)OC(=O)CC(O)=O)C)O)O)CO)O)O)C(O)=O"
Num Peaks: 40
 99 1.401401; 
 99 0.100100; 
 101 1.901902; 
 112 0.200200; 
 113 2.202202; 
 114 0.100100; 
 119 0.500501; 
 131 0.300300; 
 139 0.200200; 
 143 0.300300; 
 145 0.700701; 
 157 0.100100; 
 157 0.600601; 
 161 0.300300; 
 205 1.701702; 
 247 2.002002; 
 286 0.100100; 
 286 0.100100; 
 287 0.100100; 
 289 1.301301; 
 409 0.100100; 
 437 0.200200; 
 455 0.300300; 
 457 0.800801; 
 597 0.200200; 
 615 1.801802; 
 616 0.500501; 
 733 0.200200; 
 879 1.301301; 
 880 0.800801; 
 923 0.700701; 
 941 2.302302; 
 942 0.600601; 
 965 0.600601; 
 983 100.000000; 
 984 54.154154; 
 984 0.100100; 
 985 16.216216; 
 986 2.502503; 
 1260 0.100100; 


Name: 3-(4'O-Malonyl)Rha(1-2)Gal(1-2)GluA-Soyasaponenol B
SYNON: $:00in-source
DB#: MetaboBASE1192
InChIKey: UPFQKOYQKKVLFU-NJYNVVEYSA-N
Instrument_type: LC-ESI-TOF
Instrument: impact HD
Ion_mode: N
InChIKey: UPFQKOYQKKVLFU-NJYNVVEYSA-N
Formula: C51H80O21
MW: 1028
ExactMass: 1028.51920958
Comments: "license=License CC-BY-NC-SA 4.0 International" "author=Plant Biology, The Noble Foundation, Ardmore, OK, US/Dennis Fine, Daniel Wherritt, and Lloyd Sumner" "instrument type=LC-ESI-TOF" "instrument=impact HD" "ionization=ESI" "ionization mode=negative" "peak width=0.04" "date=2014-12-12 20:57:07+01:00" "column=Waters Acquity BEH C18 1.7um x 2.1 x 150 mm" "retention time=1086" "raw data file=C:\Data\Noble-Bruker MS libr eval complex mix\2014Dec_A17 aer rt mix MSMS_1-A,2_01_1447.d" "annotformula=1027.513;      C52H75N4O17" "SMILES=C1[C@@H]([C@@](C2[C@](C1)(C1[C@@](CC2)([C@]2(C(=CC1)[C@H]1[C@@](CC2)([C@@H](CC(C1)(C)C)O)C)C)C)C)(CO)C)O[C@@H]1O[C@@H]([C@H]([C@@H]([C@H]1O[C@@H]1O[C@@H]([C@@H]([C@@H]([C@H]1O[C@@H]1O[C@H]([C@@H]([C@H]([C@H]1O)O)OC(=O)CC(=O)O)C)O)O)CO)O)O)C(=O)O" "InChI=InChI=1S/C51H80O21/c1-22-38(69-31(57)17-30(55)56)36(62)37(63)43(66-22)71-40-33(59)32(58)25(20-52)67-44(40)72-41-35(61)34(60)39(42(64)65)70-45(41)68-29-12-13-48(5)26(49(29,6)21-53)11-14-51(8)27(48)10-9-23-24-18-46(2,3)19-28(54)47(24,4)15-16-50(23,51)7/h9,22,24-29,32-41,43-45,52-54,58-63H,10-21H2,1-8H3,(H,55,56)(H,64,65)/t22-,24-,25+,26?,27?,28+,29-,32-,33-,34-,35-,36-,37+,38-,39-,40+,41+,43-,44-,45+,47+,48-,49+,50+,51+/m0/s1" "InChIKey=UPFQKOYQKKVLFU-NJYNVVEYSA-N" "molecular formula=C51H80O21" "total exact mass=1028.51920958" "SMILES=C1C(C(C2C(C1)(C3C(CC2)(C4(C(=CC3)C5C(CC4)(C(CC(C5)(C)C)O)C)C)C)C)(CO)C)OC6OC(C(C(C6OC7OC(C(C(C7OC8OC(C(C(C8O)O)OC(=O)CC(O)=O)C)O)O)CO)O)O)C(O)=O"
Num Peaks: 15
 937 7.407407; 
 938 3.903904; 
 983 2.002002; 
 1013 5.205205; 
 1014 2.902903; 
 1027 100.000000; 
 1028 58.858859; 
 1029 21.621622; 
 1030 5.905906; 
 1049 7.807808; 
 1050 4.504505; 
 1051 1.601602; 
 1127 5.305305; 
 1128 3.503504; 
 1129 1.901902; 


Name: 3-(4'O-Malonyl)Rha(1-2)Gal(1-2)GluA-Soyasaponenol B
SYNON: $:00in-source
DB#: MetaboBASE1193
InChIKey: UPFQKOYQKKVLFU-NJYNVVEYSA-N
Instrument_type: LC-ESI-TOF
Instrument: impact HD
Ion_mode: N
Collision_energy: 10
InChIKey: UPFQKOYQKKVLFU-NJYNVVEYSA-N
Formula: C51H80O21
MW: 1028
ExactMass: 1028.51920958
Comments: "license=License CC-BY-NC-SA 4.0 International" "author=Plant Biology, The Noble Foundation, Ardmore, OK, US/Dennis Fine, Daniel Wherritt, and Lloyd Sumner" "instrument type=LC-ESI-TOF" "instrument=impact HD" "ionization=ESI" "ionization mode=negative" "collision energy=10" "peak width=0.022" "date=2015-02-04 01:41:50+01:00" "column=Waters Acquity BEH C18 1.7um x 2.1 x 150 mm" "retention time=1093.8" "raw data file=G:\Sumner Lab Data Management Workspace Jun2013\Projects\NSF-JST Metabolomics Nov2011-Sep2014\UPLC-MS-MSMS\2015Mar17 R108 A17 root aerial for poster\A17 aerial" "SMILES=C1[C@@H]([C@@](C2[C@](C1)(C1[C@@](CC2)([C@]2(C(=CC1)[C@H]1[C@@](CC2)([C@@H](CC(C1)(C)C)O)C)C)C)C)(CO)C)O[C@@H]1O[C@@H]([C@H]([C@@H]([C@H]1O[C@@H]1O[C@@H]([C@@H]([C@@H]([C@H]1O[C@@H]1O[C@H]([C@@H]([C@H]([C@H]1O)O)OC(=O)CC(=O)O)C)O)O)CO)O)O)C(=O)O" "InChI=InChI=1S/C51H80O21/c1-22-38(69-31(57)17-30(55)56)36(62)37(63)43(66-22)71-40-33(59)32(58)25(20-52)67-44(40)72-41-35(61)34(60)39(42(64)65)70-45(41)68-29-12-13-48(5)26(49(29,6)21-53)11-14-51(8)27(48)10-9-23-24-18-46(2,3)19-28(54)47(24,4)15-16-50(23,51)7/h9,22,24-29,32-41,43-45,52-54,58-63H,10-21H2,1-8H3,(H,55,56)(H,64,65)/t22-,24-,25+,26?,27?,28+,29-,32-,33-,34-,35-,36-,37+,38-,39-,40+,41+,43-,44-,45+,47+,48-,49+,50+,51+/m0/s1" "InChIKey=UPFQKOYQKKVLFU-NJYNVVEYSA-N" "molecular formula=C51H80O21" "total exact mass=1028.51920958" "SMILES=C1C(C(C2C(C1)(C3C(CC2)(C4(C(=CC3)C5C(CC4)(C(CC(C5)(C)C)O)C)C)C)C)(CO)C)OC6OC(C(C(C6OC7OC(C(C(C7OC8OC(C(C(C8O)O)OC(=O)CC(O)=O)C)O)O)CO)O)O)C(O)=O"
Num Peaks: 11
 557 1.201201; 
 666 1.001001; 
 683 1.201201; 
 983 2.402402; 
 1027 100.000000; 
 1028 60.460460; 
 1029 20.320320; 
 1030 5.905906; 
 1049 10.210210; 
 1050 6.106106; 
 1117 2.802803; 


Name: 7-Glu Chrysoeriol
SYNON: $:00in-source
DB#: MetaboBASE1194
InChIKey: GAMYVSCDDLXAQW-MIUGBVLSSA-N
Instrument_type: LC-ESI-TOF
Instrument: impact HD
Ion_mode: N
InChIKey: GAMYVSCDDLXAQW-MIUGBVLSSA-N
Formula: C22H22O11
MW: 462
ExactMass: 462.116211524
Comments: "license=License CC-BY-NC-SA 4.0 International" "author=Plant Biology, The Noble Foundation, Ardmore, OK, US/Dennis Fine, Daniel Wherritt, and Lloyd Sumner" "instrument type=LC-ESI-TOF" "instrument=impact HD" "ionization=ESI" "ionization mode=negative" "peak width=0.015" "date=2015-04-27 18:32:14+02:00" "column=Waters Acquity BEH C18 1.7um x 2.1 x 150 mm" "retention time=424.8" "raw data file=C:\Data\Noble-Bruker MS libr eval complex mix\Data\Noble data\31Mar15_extended gradient\A17_A-Rt mix Noble27Apr15\2015Apr_A17AR 1-1mix Bremen_2-B,2_01_1975.d" "SMILES=c1(cc(c2c(c1)oc(cc2=O)c1ccc(c(c1)OC)O)O)O[C@@H]1O[C@@H]([C@H]([C@@H]([C@H]1O)O)O)CO" "InChI=InChI=1S/C22H22O11/c1-30-15-4-9(2-3-11(15)24)14-7-13(26)18-12(25)5-10(6-16(18)32-14)31-22-21(29)20(28)19(27)17(8-23)33-22/h2-7,17,19-25,27-29H,8H2,1H3/t17-,19-,20+,21-,22-/m1/s1" "InChIKey=GAMYVSCDDLXAQW-MIUGBVLSSA-N" "molecular formula=C22H22O11" "total exact mass=462.116211524" "SMILES=C1(=CC(=C2C(=C1)OC(=CC2=O)C3=CC=C(C(=C3)OC)O)O)OC4OC(C(C(C4O)O)O)CO"
Num Peaks: 28
 269 2.502503; 
 405 1.401401; 
 461 100.000000; 
 462 23.923924; 
 463 5.005005; 
 464 0.100100; 
 489 2.702703; 
 490 0.200200; 
 503 1.701702; 
 503 22.822823; 
 504 1.901902; 
 504 4.904905; 
 505 10.010010; 
 507 1.301301; 
 507 0.800801; 
 549 20.220220; 
 550 5.905906; 
 591 2.602603; 
 591 2.502503; 
 606 2.602603; 
 607 0.500501; 
 797 2.202202; 
 798 0.500501; 
 967 4.404404; 
 968 2.302302; 
 969 0.200200; 
 973 1.301301; 
 974 0.400400; 


Name: 7-Glu Chrysoeriol
SYNON: $:00in-source
DB#: MetaboBASE1195
InChIKey: GAMYVSCDDLXAQW-MIUGBVLSSA-N
Precursor_type: [M-H]-
Spectrum_type: MS2
PrecursorMZ: 461.1091
Instrument_type: LC-ESI-TOF
Instrument: impact HD
Ion_mode: N
Collision_energy: 35.3135
InChIKey: GAMYVSCDDLXAQW-MIUGBVLSSA-N
Formula: C22H22O11
MW: 462
ExactMass: 462.116211524
Comments: "license=License CC-BY-NC-SA 4.0 International" "author=Plant Biology, The Noble Foundation, Ardmore, OK, US/Dennis Fine, Daniel Wherritt, and Lloyd Sumner" "instrument type=LC-ESI-TOF" "instrument=impact HD" "ionization=ESI" "ionization mode=negative" "ms level=MS2" "precursor m/z=461.1091" "collision energy=35.3135" "collision energy 2=58.8558" "peak width=0.016" "date=2015-04-27 18:32:14+02:00" "column=Waters Acquity BEH C18 1.7um x 2.1 x 150 mm" "retention time=424.8" "raw data file=C:\Data\Noble-Bruker MS libr eval complex mix\Data\Noble data\31Mar15_extended gradient\A17_A-Rt mix Noble27Apr15\2015Apr_A17AR 1-1mix Bremen_2-B,2_01_1975.d" "precursor type=[M-H]-" "mass accuracy=0.35669649549101784" "mass error=1.644760000090173E-4" "SMILES=c1(cc(c2c(c1)oc(cc2=O)c1ccc(c(c1)OC)O)O)O[C@@H]1O[C@@H]([C@H]([C@@H]([C@H]1O)O)O)CO" "InChI=InChI=1S/C22H22O11/c1-30-15-4-9(2-3-11(15)24)14-7-13(26)18-12(25)5-10(6-16(18)32-14)31-22-21(29)20(28)19(27)17(8-23)33-22/h2-7,17,19-25,27-29H,8H2,1H3/t17-,19-,20+,21-,22-/m1/s1" "InChIKey=GAMYVSCDDLXAQW-MIUGBVLSSA-N" "molecular formula=C22H22O11" "total exact mass=462.116211524" "SMILES=C1(=CC(=C2C(=C1)OC(=CC2=O)C3=CC=C(C(=C3)OC)O)O)OC4OC(C(C(C4O)O)O)CO"
Num Peaks: 12
 255 100.000000; 
 256 16.816817; 
 269 2.102102; 
 283 48.648649; 
 284 10.510511; 
 297 8.908909; 
 298 19.619620; 
 299 9.009009; 
 446 30.930931; 
 447 5.005005; 
 461 15.415415; 
 462 3.103103; 


Name: 3-Glu-28-Xyl(1-4)Rha(1-2)Ara Medicagenic acid
SYNON: $:00in-source
DB#: MetaboBASE1196
InChIKey: VHMKOKUNAPLSBJ-OJTFIBOXSA-M
Precursor_type: [M]-
Spectrum_type: MS2
PrecursorMZ: 1073.533
Instrument_type: LC-ESI-TOF
Instrument: impact HD
Ion_mode: N
Collision_energy: 59.0074
InChIKey: VHMKOKUNAPLSBJ-OJTFIBOXSA-M
Formula: C52H81O23
MW: 1073
ExactMass: 1073.5174124319092
Comments: "license=License CC-BY-NC-SA 4.0 International" "author=Plant Biology, The Noble Foundation, Ardmore, OK, US/Dennis Fine, Daniel Wherritt, and Lloyd Sumner" "instrument type=LC-ESI-TOF" "instrument=impact HD" "ionization=ESI" "ionization mode=negative" "ms level=MS2" "precursor m/z=1073.533" "collision energy=59.0074" "collision energy 2=98.3456" "peak width=0.015" "date=2014-12-12 20:57:07+01:00" "column=Waters Acquity BEH C18 1.7um x 2.1 x 150 mm" "retention time=819" "raw data file=C:\Data\Noble-Bruker MS libr eval complex mix\2014Dec_A17 aer rt mix MSMS_1-A,2_01_1447.d" "precursor type=[M]-" "mass accuracy=15.030882143552397" "mass error=0.016136148000214234" "SMILES=[C@H]1([C@@H]([C@@](C2[C@](C1)(C1[C@@](CC2)([C@]2(C(=CC1)[C@H]1[C@@](CC2)(CCC(C1)(C)C)C(=O)O[C@H]1[C@@H]([C@H]([C@H](CO1)O)O)OC1[C@@H]([C@@H]([C@H]([C@@H](O1)C)O[C@H]1[C@@H]([C@H]([C@@H](CO1)O)O)O)O)O)C)C)C)(C)C(=O)[O-])O[C@@H]1O[C@@H]([C@H]([C@@H]([C@H]1O)O)O)CO)O" "InChI=InChI=1S/C52H82O23/c1-21-38(72-41-35(62)30(57)25(55)19-68-41)34(61)37(64)42(70-21)73-39-31(58)26(56)20-69-44(39)75-46(67)52-14-12-47(2,3)16-23(52)22-8-9-28-48(4)17-24(54)40(74-43-36(63)33(60)32(59)27(18-53)71-43)51(7,45(65)66)29(48)10-11-50(28,6)49(22,5)13-15-52/h8,21,23-44,53-64H,9-20H2,1-7H3,(H,65,66)/p-1/t21-,23-,24-,25+,26-,27+,28?,29?,30-,31-,32+,33-,34-,35+,36+,37+,38-,39+,40-,41-,42?,43-,44-,48+,49+,50+,51-,52-/m0/s1" "InChIKey=VHMKOKUNAPLSBJ-OJTFIBOXSA-M" "molecular formula=C52H81O23" "total exact mass=1073.5174124319092" "SMILES=C1(C(C(C2C(C1)(C3C(CC2)(C4(C(=CC3)C5C(CC4)(CCC(C5)(C)C)C(OC6C(C(C(CO6)O)O)OC7C(C(C(C(O7)C)OC8C(C(C(CO8)O)O)O)O)O)=O)C)C)C)(C)C(=O)[O-])OC9OC(C(C(C9O)O)O)CO)O" "InChI=InChI=1S/C52H82O23/c1-21-38(72-41-35(62)30(57)25(55)19-68-41)34(61)37(64)42(70-21)73-39-31(58)26(56)20-69-44(39)75-46(67)52-14-12-47(2,3)16-23(52)22-8-9-28-48(4)17-24(54)40(74-43-36(63)33(60)32(59)27(18-53)71-43)51(7,45(65)66)29(48)10-11-50(28,6)49(22,5)13-15-52/h8,21,23-44,53-64H,9-20H2,1-7H3,(H,65,66)/p-1/t21-,23-,24-,25+,26-,27+,28?,29?,30-,31-,32+,33-,34-,35+,36+,37+,38-,39+,40-,41-,42-,43-,44-,48+,49+,50+,51-,52-/m0/s1" "InChIKey=VHMKOKUNAPLSBJ-GQVSKFISSA-M"
Num Peaks: 22
 101 2.102102; 
 113 2.802803; 
 116 1.401401; 
 119 2.002002; 
 131 4.304304; 
 143 0.600601; 
 149 1.401401; 
 205 0.600601; 
 277 0.800801; 
 295 1.701702; 
 337 16.416416; 
 409 2.102102; 
 439 100.000000; 
 440 22.922923; 
 441 3.103103; 
 849 5.005005; 
 849 1.001001; 
 850 1.801802; 
 1073 75.175175; 
 1074 43.143143; 
 1075 11.711712; 
 1076 0.900901; 


Name: 3-Glu-28-Xyl(1-4)Rha(1-2)Ara Medicagenic acid
SYNON: $:00in-source
DB#: MetaboBASE1197
InChIKey: VHMKOKUNAPLSBJ-OJTFIBOXSA-M
Instrument_type: LC-ESI-TOF
Instrument: impact HD
Ion_mode: N
InChIKey: VHMKOKUNAPLSBJ-OJTFIBOXSA-M
Formula: C52H81O23
MW: 1073
ExactMass: 1073.5174124319092
Comments: "license=License CC-BY-NC-SA 4.0 International" "author=Plant Biology, The Noble Foundation, Ardmore, OK, US/Dennis Fine, Daniel Wherritt, and Lloyd Sumner" "instrument type=LC-ESI-TOF" "instrument=impact HD" "ionization=ESI" "ionization mode=negative" "peak width=0.014" "date=2014-12-12 20:57:07+01:00" "column=Waters Acquity BEH C18 1.7um x 2.1 x 150 mm" "retention time=819" "raw data file=C:\Data\Noble-Bruker MS libr eval complex mix\2014Dec_A17 aer rt mix MSMS_1-A,2_01_1447.d" "SMILES=[C@H]1([C@@H]([C@@](C2[C@](C1)(C1[C@@](CC2)([C@]2(C(=CC1)[C@H]1[C@@](CC2)(CCC(C1)(C)C)C(=O)O[C@H]1[C@@H]([C@H]([C@H](CO1)O)O)OC1[C@@H]([C@@H]([C@H]([C@@H](O1)C)O[C@H]1[C@@H]([C@H]([C@@H](CO1)O)O)O)O)O)C)C)C)(C)C(=O)[O-])O[C@@H]1O[C@@H]([C@H]([C@@H]([C@H]1O)O)O)CO)O" "InChI=InChI=1S/C52H82O23/c1-21-38(72-41-35(62)30(57)25(55)19-68-41)34(61)37(64)42(70-21)73-39-31(58)26(56)20-69-44(39)75-46(67)52-14-12-47(2,3)16-23(52)22-8-9-28-48(4)17-24(54)40(74-43-36(63)33(60)32(59)27(18-53)71-43)51(7,45(65)66)29(48)10-11-50(28,6)49(22,5)13-15-52/h8,21,23-44,53-64H,9-20H2,1-7H3,(H,65,66)/p-1/t21-,23-,24-,25+,26-,27+,28?,29?,30-,31-,32+,33-,34-,35+,36+,37+,38-,39+,40-,41-,42?,43-,44-,48+,49+,50+,51-,52-/m0/s1" "InChIKey=VHMKOKUNAPLSBJ-OJTFIBOXSA-M" "molecular formula=C52H81O23" "total exact mass=1073.5174124319092" "SMILES=C1(C(C(C2C(C1)(C3C(CC2)(C4(C(=CC3)C5C(CC4)(CCC(C5)(C)C)C(OC6C(C(C(CO6)O)O)OC7C(C(C(C(O7)C)OC8C(C(C(CO8)O)O)O)O)O)=O)C)C)C)(C)C(=O)[O-])OC9OC(C(C(C9O)O)O)CO)O" "InChI=InChI=1S/C52H82O23/c1-21-38(72-41-35(62)30(57)25(55)19-68-41)34(61)37(64)42(70-21)73-39-31(58)26(56)20-69-44(39)75-46(67)52-14-12-47(2,3)16-23(52)22-8-9-28-48(4)17-24(54)40(74-43-36(63)33(60)32(59)27(18-53)71-43)51(7,45(65)66)29(48)10-11-50(28,6)49(22,5)13-15-52/h8,21,23-44,53-64H,9-20H2,1-7H3,(H,65,66)/p-1/t21-,23-,24-,25+,26-,27+,28?,29?,30-,31-,32+,33-,34-,35+,36+,37+,38-,39+,40-,41-,42-,43-,44-,48+,49+,50+,51-,52-/m0/s1" "InChIKey=VHMKOKUNAPLSBJ-GQVSKFISSA-M"
Num Peaks: 25
 853 2.802803; 
 856 1.201201; 
 911 9.109109; 
 912 3.503504; 
 914 1.601602; 
 1015 1.001001; 
 1073 100.000000; 
 1074 58.858859; 
 1075 1.401401; 
 1075 19.019019; 
 1076 4.604605; 
 1141 10.210210; 
 1142 6.506507; 
 1143 2.202202; 
 1173 5.505506; 
 1174 3.703704; 
 1175 1.901902; 
 1203 1.601602; 
 1204 1.301301; 
 1209 1.201201; 
 1210 1.101101; 
 1219 1.301301; 
 1347 1.801802; 
 1479 1.601602; 
 1479 1.901902; 


Name: 3-GluA-28-Xyl(1-4)Rha(1-2)Ara Zanhic acid
SYNON: $:00in-source
DB#: MetaboBASE1198
InChIKey: XBQCXFMLWNUHRQ-SEOMNULOSA-M
Precursor_type: [M]-
Spectrum_type: MS2
PrecursorMZ: 1103.527
Instrument_type: LC-ESI-TOF
Instrument: impact HD
Ion_mode: N
Collision_energy: 60.1313
InChIKey: XBQCXFMLWNUHRQ-SEOMNULOSA-M
Formula: C52H79O25
MW: 1103
ExactMass: 1103.4915916079092
Comments: "license=License CC-BY-NC-SA 4.0 International" "author=Plant Biology, The Noble Foundation, Ardmore, OK, US/Dennis Fine, Daniel Wherritt, and Lloyd Sumner" "instrument type=LC-ESI-TOF" "instrument=impact HD" "ionization=ESI" "ionization mode=negative" "ms level=MS2" "precursor m/z=1103.527" "collision energy=60.1313" "collision energy 2=100.219" "peak width=0.015" "date=2014-12-12 20:57:07+01:00" "column=Waters Acquity BEH C18 1.7um x 2.1 x 150 mm" "retention time=681" "raw data file=C:\Data\Noble-Bruker MS libr eval complex mix\2014Dec_A17 aer rt mix MSMS_1-A,2_01_1447.d" "precursor type=[M]-" "mass accuracy=32.58368123330847" "mass error=0.0359569720003492" "SMILES=[C@H]1([C@@H]([C@@](C2[C@](C1)(C1[C@@](CC2)([C@]2(C(=CC1)[C@H]1[C@@]([C@@H](C2)O)(CCC(C1)(C)C)C(=O)O[C@H]1[C@@H]([C@H]([C@H](CO1)O)O)OC1[C@@H]([C@@H]([C@H]([C@@H](O1)C)O[C@H]1[C@@H]([C@H]([C@@H](CO1)O)O)O)O)O)C)C)C)(C)C(=O)[O-])O[C@@H]1O[C@@H]([C@H]([C@@H]([C@H]1O)O)O)C(=O)O)O" "InChI=InChI=1S/C52H80O25/c1-19-36(73-41-33(62)28(57)23(54)17-70-41)32(61)35(64)42(72-19)75-38-29(58)24(55)18-71-44(38)77-46(69)52-13-12-47(2,3)14-21(52)20-8-9-25-48(4)15-22(53)39(76-43-34(63)30(59)31(60)37(74-43)40(65)66)51(7,45(67)68)26(48)10-11-49(25,5)50(20,6)16-27(52)56/h8,19,21-39,41-44,53-64H,9-18H2,1-7H3,(H,65,66)(H,67,68)/p-1/t19-,21-,22-,23+,24-,25?,26?,27+,28-,29-,30-,31-,32-,33+,34+,35+,36-,37-,38+,39-,41-,42?,43-,44-,48+,49+,50+,51-,52+/m0/s1" "InChIKey=XBQCXFMLWNUHRQ-SEOMNULOSA-M" "molecular formula=C52H79O25" "total exact mass=1103.4915916079092" "SMILES=C1(C(C(C2C(C1)(C3C(CC2)(C4(C(=CC3)C5C(C(C4)O)(CCC(C5)(C)C)C(OC6C(C(C(CO6)O)O)OC7C(C(C(C(O7)C)OC8C(C(C(CO8)O)O)O)O)O)=O)C)C)C)(C)C(=O)[O-])OC9OC(C(C(C9O)O)O)C(O)=O)O" "InChI=InChI=1S/C52H80O25/c1-19-36(73-41-33(62)28(57)23(54)17-70-41)32(61)35(64)42(72-19)75-38-29(58)24(55)18-71-44(38)77-46(69)52-13-12-47(2,3)14-21(52)20-8-9-25-48(4)15-22(53)39(76-43-34(63)30(59)31(60)37(74-43)40(65)66)51(7,45(67)68)26(48)10-11-49(25,5)50(20,6)16-27(52)56/h8,19,21-39,41-44,53-64H,9-18H2,1-7H3,(H,65,66)(H,67,68)/p-1/t19-,21-,22-,23+,24-,25?,26?,27+,28-,29-,30-,31-,32-,33+,34+,35+,36-,37-,38+,39-,41-,42-,43-,44-,48+,49+,50+,51-,52+/m0/s1" "InChIKey=XBQCXFMLWNUHRQ-GRUHRAIASA-M"
Num Peaks: 10
 101 3.103103; 
 103 2.802803; 
 113 9.709710; 
 131 2.302302; 
 133 1.701702; 
 193 54.354354; 
 194 1.401401; 
 1103 100.000000; 
 1104 59.259259; 
 1105 21.121121; 


Name: 3-GluA-28-Xyl(1-4)Rha(1-2)Ara Zanhic acid
SYNON: $:00in-source
DB#: MetaboBASE1199
InChIKey: XBQCXFMLWNUHRQ-SEOMNULOSA-M
Instrument_type: LC-ESI-TOF
Instrument: impact HD
Ion_mode: N
InChIKey: XBQCXFMLWNUHRQ-SEOMNULOSA-M
Formula: C52H79O25
MW: 1103
ExactMass: 1103.4915916079092
Comments: "license=License CC-BY-NC-SA 4.0 International" "author=Plant Biology, The Noble Foundation, Ardmore, OK, US/Dennis Fine, Daniel Wherritt, and Lloyd Sumner" "instrument type=LC-ESI-TOF" "instrument=impact HD" "ionization=ESI" "ionization mode=negative" "peak width=0.014" "date=2014-12-12 20:57:07+01:00" "column=Waters Acquity BEH C18 1.7um x 2.1 x 150 mm" "retention time=681" "raw data file=C:\Data\Noble-Bruker MS libr eval complex mix\2014Dec_A17 aer rt mix MSMS_1-A,2_01_1447.d" "SMILES=[C@H]1([C@@H]([C@@](C2[C@](C1)(C1[C@@](CC2)([C@]2(C(=CC1)[C@H]1[C@@]([C@@H](C2)O)(CCC(C1)(C)C)C(=O)O[C@H]1[C@@H]([C@H]([C@H](CO1)O)O)OC1[C@@H]([C@@H]([C@H]([C@@H](O1)C)O[C@H]1[C@@H]([C@H]([C@@H](CO1)O)O)O)O)O)C)C)C)(C)C(=O)[O-])O[C@@H]1O[C@@H]([C@H]([C@@H]([C@H]1O)O)O)C(=O)O)O" "InChI=InChI=1S/C52H80O25/c1-19-36(73-41-33(62)28(57)23(54)17-70-41)32(61)35(64)42(72-19)75-38-29(58)24(55)18-71-44(38)77-46(69)52-13-12-47(2,3)14-21(52)20-8-9-25-48(4)15-22(53)39(76-43-34(63)30(59)31(60)37(74-43)40(65)66)51(7,45(67)68)26(48)10-11-49(25,5)50(20,6)16-27(52)56/h8,19,21-39,41-44,53-64H,9-18H2,1-7H3,(H,65,66)(H,67,68)/p-1/t19-,21-,22-,23+,24-,25?,26?,27+,28-,29-,30-,31-,32-,33+,34+,35+,36-,37-,38+,39-,41-,42?,43-,44-,48+,49+,50+,51-,52+/m0/s1" "InChIKey=XBQCXFMLWNUHRQ-SEOMNULOSA-M" "molecular formula=C52H79O25" "total exact mass=1103.4915916079092" "SMILES=C1(C(C(C2C(C1)(C3C(CC2)(C4(C(=CC3)C5C(C(C4)O)(CCC(C5)(C)C)C(OC6C(C(C(CO6)O)O)OC7C(C(C(C(O7)C)OC8C(C(C(CO8)O)O)O)O)O)=O)C)C)C)(C)C(=O)[O-])OC9OC(C(C(C9O)O)O)C(O)=O)O" "InChI=InChI=1S/C52H80O25/c1-19-36(73-41-33(62)28(57)23(54)17-70-41)32(61)35(64)42(72-19)75-38-29(58)24(55)18-71-44(38)77-46(69)52-13-12-47(2,3)14-21(52)20-8-9-25-48(4)15-22(53)39(76-43-34(63)30(59)31(60)37(74-43)40(65)66)51(7,45(67)68)26(48)10-11-49(25,5)50(20,6)16-27(52)56/h8,19,21-39,41-44,53-64H,9-18H2,1-7H3,(H,65,66)(H,67,68)/p-1/t19-,21-,22-,23+,24-,25?,26?,27+,28-,29-,30-,31-,32-,33+,34+,35+,36-,37-,38+,39-,41-,42-,43-,44-,48+,49+,50+,51-,52+/m0/s1" "InChIKey=XBQCXFMLWNUHRQ-GRUHRAIASA-M"
Num Peaks: 45
 259 6.406406; 
 499 2.302302; 
 499 1.001001; 
 551 12.912913; 
 551 8.308308; 
 552 2.202202; 
 556 1.301301; 
 614 22.022022; 
 614 13.613614; 
 615 6.706707; 
 615 1.701702; 
 629 2.902903; 
 629 1.901902; 
 648 1.501502; 
 648 1.101101; 
 827 5.605606; 
 828 2.602603; 
 959 2.102102; 
 1038 1.101101; 
 1038 1.501502; 
 1103 100.000000; 
 1103 1.001001; 
 1103 1.201201; 
 1104 59.459459; 
 1105 22.822823; 
 1106 5.505506; 
 1114 1.701702; 
 1114 2.102102; 
 1125 9.909910; 
 1126 5.405405; 
 1127 2.502503; 
 1166 2.902903; 
 1167 2.902903; 
 1167 3.003003; 
 1168 1.501502; 
 1181 2.602603; 
 1182 3.203203; 
 1182 3.103103; 
 1183 1.401401; 
 1187 2.002002; 
 1193 2.002002; 
 1203 3.803804; 
 1204 3.803804; 
 1229 2.702703; 
 1230 1.601602; 


Name: 4-Malonyl ononin
SYNON: $:00in-source
DB#: MetaboBASE1200
InChIKey: QMHKWODSZRYFTD-FSIWAFGDSA-N
Spectrum_type: MS2
PrecursorMZ: 267.0706
Instrument_type: LC-ESI-TOF
Instrument: impact HD
Ion_mode: N
Collision_energy: 24.3977
InChIKey: QMHKWODSZRYFTD-FSIWAFGDSA-N
Formula: C25H24O12
MW: 516
ExactMass: 516.1267762079999
Comments: "license=License CC-BY-NC-SA 4.0 International" "author=Plant Biology, The Noble Foundation, Ardmore, OK, US/Dennis Fine, Daniel Wherritt, and Lloyd Sumner" "instrument type=LC-ESI-TOF" "instrument=impact HD" "ionization=ESI" "ionization mode=negative" "ms level=MS2" "precursor m/z=267.0706" "collision energy=24.3977" "collision energy 2=40.6628" "peak width=0.018" "date=2014-12-12 20:57:07+01:00" "column=Waters Acquity BEH C18 1.7um x 2.1 x 150 mm" "retention time=550.8" "raw data file=C:\Data\Noble-Bruker MS libr eval complex mix\2014Dec_A17 aer rt mix MSMS_1-A,2_01_1447.d" "Last Auto-Curation=1505111014372" "SMILES=c1(ccc2c(c1)occ(c2=O)c1ccc(cc1)OC)O[C@@H]1O[C@@H]([C@H]([C@@H]([C@H]1O)O)OC(=O)CC(=O)O)CO" "InChI=InChI=1S/C25H24O12/c1-33-13-4-2-12(3-5-13)16-11-34-17-8-14(6-7-15(17)21(16)30)35-25-23(32)22(31)24(18(10-26)36-25)37-20(29)9-19(27)28/h2-8,11,18,22-26,31-32H,9-10H2,1H3,(H,27,28)/t18-,22-,23-,24-,25-/m1/s1" "InChIKey=QMHKWODSZRYFTD-FSIWAFGDSA-N" "molecular formula=C25H24O12" "total exact mass=516.1267762079999" "SMILES=[H]OC(=O)C([H])([H])C(=O)OC1([H])C([H])(O[H])C([H])(O[H])C([H])(OC2=C([H])C([H])=C3C(=O)C(=C([H])OC3=C2[H])C=4C([H])=C([H])C(OC([H])([H])[H])=C([H])C4[H])OC1([H])C([H])([H])O[H]"
Num Peaks: 8
 132 1.401401; 
 195 3.103103; 
 223 29.529530; 
 224 10.510511; 
 251 12.312312; 
 252 100.000000; 
 253 11.111111; 
 267 16.816817; 


Name: 3-(Glc(1-2)Glc(1-2)Glc)-28-(Xyl(1-4)[Api(1-3)]Rha(1-2)Ara Zanhic acid
SYNON: $:00in-source
DB#: MetaboBASE1201
InChIKey: QSAJFYGMYZDTSH-FRZBVZJDSA-M
Precursor_type: [M]-
Spectrum_type: MS2
PrecursorMZ: 1545.652
Instrument_type: LC-ESI-TOF
Instrument: impact HD
Ion_mode: N
Collision_energy: 75
InChIKey: QSAJFYGMYZDTSH-FRZBVZJDSA-M
Formula: C69H109O38
MW: 1545
ExactMass: 1545.6602326279092
Comments: "synonym=3-Glc(1-2)Glc(1-2)Glc-28-Xyl(1-4)[Api(1-3)]Rha(1-2)Ara Zanhic acid (NMR)" "license=License CC-BY-NC-SA 4.0 International" "author=Plant Biology, The Noble Foundation, Ardmore, OK, US/Dennis Fine, Daniel Wherritt, and Lloyd Sumner" "instrument type=LC-ESI-TOF" "instrument=impact HD" "ionization=ESI" "ionization mode=negative" "ms level=MS2" "precursor m/z=1545.652" "isolation width=15" "collision energy=75" "collision energy 2=125" "peak width=0.025" "date=2014-11-20 08:02:12+01:00" "column=Waters Acquity BEH C18 1.7um x 2.1 x 150 mm" "retention time=658.2" "raw data file=C:\Data\2014Nov12_A-17 aerial root MS MSMS\A-17 aeial better  MSMS_1-A,2_01_1297.d" "precursor type=[M]-" "mass accuracy=4.971395889660986" "mass error=-0.007684047999646282" "SMILES=[C@H]1([C@@H]([C@@](C2[C@](C1)(C1[C@@](CC2)([C@]2(C(=CC1)[C@H]1[C@@]([C@@H](C2)O)(CCC(C1)(C)C)C(=O)O[C@H]1[C@@H]([C@H]([C@H](CO1)O)O)OC1[C@@H]([C@@H]([C@H]([C@@H](O1)C)O[C@H]1[C@@H]([C@H]([C@@H](CO1)O)O)O)O[C@@H]1OC[C@@]([C@H]1O)(CO)O)O)C)C)C)(C)C(=O)[O-])O[C@@H]1O[C@@H]([C@H]([C@@H]([C@H]1O[C@@H]1O[C@@H]([C@H]([C@@H]([C@H]1O[C@@H]1O[C@@H]([C@H]([C@@H]([C@H]1O)O)O)CO)O)O)CO)O)O)CO)O" "InChI=InChI=1S/C69H110O38/c1-24-47(101-54-44(86)36(78)28(75)20-94-54)48(102-60-52(89)68(93,22-73)23-96-60)46(88)56(97-24)103-49-37(79)29(76)21-95-57(49)107-62(92)69-13-12-63(2,3)14-26(69)25-8-9-33-64(4)15-27(74)53(67(7,61(90)91)34(64)10-11-65(33,5)66(25,6)16-35(69)77)106-59-51(43(85)40(82)32(19-72)100-59)105-58-50(42(84)39(81)31(18-71)99-58)104-55-45(87)41(83)38(80)30(17-70)98-55/h8,24,26-60,70-89,93H,9-23H2,1-7H3,(H,90,91)/p-1/t24-,26-,27-,28+,29-,30+,31+,32+,33?,34?,35+,36-,37-,38+,39+,40+,41-,42-,43-,44+,45+,46+,47-,48-,49+,50+,51+,52-,53-,54-,55-,56?,57-,58-,59-,60-,64+,65+,66+,67-,68+,69+/m0/s1" "InChIKey=QSAJFYGMYZDTSH-FRZBVZJDSA-M" "molecular formula=C69H109O38" "total exact mass=1545.6602326279092" "SMILES=C1(C(C(C2C(C1)(C3C(CC2)(C4(C(=CC3)C5C(C(C4)O)(CCC(C5)(C)C)C(OC6C(C(C(CO6)O)O)OC7C(C(C(C(O7)C)OC8C(C(C(CO8)O)O)O)OC9OCC(C9O)(CO)O)O)=O)C)C)C)(C)C(=O)[O-])OC%10OC(C(C(C%10OC%11OC(C(C(C%11OC%12OC(C(C(C%12O)O)O)CO)O)O)CO)O)O)CO)O" "InChI=InChI=1S/C69H110O38/c1-24-47(101-54-44(86)36(78)28(75)20-94-54)48(102-60-52(89)68(93,22-73)23-96-60)46(88)56(97-24)103-49-37(79)29(76)21-95-57(49)107-62(92)69-13-12-63(2,3)14-26(69)25-8-9-33-64(4)15-27(74)53(67(7,61(90)91)34(64)10-11-65(33,5)66(25,6)16-35(69)77)106-59-51(43(85)40(82)32(19-72)100-59)105-58-50(42(84)39(81)31(18-71)99-58)104-55-45(87)41(83)38(80)30(17-70)98-55/h8,24,26-60,70-89,93H,9-23H2,1-7H3,(H,90,91)/p-1/t24-,26-,27-,28+,29-,30+,31+,32+,33?,34?,35+,36-,37-,38+,39+,40+,41-,42-,43-,44+,45+,46+,47-,48-,49+,50+,51+,52-,53-,54-,55-,56-,57-,58-,59-,60-,64+,65+,66+,67-,68+,69+/m0/s1" "InChIKey=QSAJFYGMYZDTSH-SUYAQSJUSA-M"
Num Peaks: 31
 101 3.003003; 
 113 4.804805; 
 119 1.701702; 
 131 3.303303; 
 149 1.901902; 
 161 7.307307; 
 179 3.903904; 
 205 1.901902; 
 221 24.024024; 
 222 1.801802; 
 233 2.602603; 
 263 4.104104; 
 277 4.204204; 
 337 31.231231; 
 338 3.403403; 
 383 36.136136; 
 384 6.306306; 
 391 4.204204; 
 392 2.002002; 
 393 4.104104; 
 409 9.509510; 
 455 47.047047; 
 456 15.215215; 
 457 1.601602; 
 469 19.619620; 
 470 4.104104; 
 1545 100.000000; 
 1546 73.473473; 
 1547 31.031031; 
 1548 8.608609; 
 1549 2.302302; 


Name: 3-(Glc(1-2)Glc(1-2)Glc)-28-(Xyl(1-4)[Api(1-3)]Rha(1-2)Ara Zanhic acid
SYNON: $:00in-source
DB#: MetaboBASE1202
InChIKey: QSAJFYGMYZDTSH-FRZBVZJDSA-M
Instrument_type: LC-ESI-TOF
Instrument: impact HD
Ion_mode: N
Collision_energy: 10
InChIKey: QSAJFYGMYZDTSH-FRZBVZJDSA-M
Formula: C69H109O38
MW: 1545
ExactMass: 1545.6602326279092
Comments: "synonym=3-Glc(1-2)Glc(1-2)Glc-28-Xyl(1-4)[Api(1-3)]Rha(1-2)Ara Zanhic acid (NMR)" "license=License CC-BY-NC-SA 4.0 International" "author=Plant Biology, The Noble Foundation, Ardmore, OK, US/Dennis Fine, Daniel Wherritt, and Lloyd Sumner" "instrument type=LC-ESI-TOF" "instrument=impact HD" "ionization=ESI" "ionization mode=negative" "collision energy=10" "peak width=0.021" "date=2015-02-04 01:41:50+01:00" "column=Waters Acquity BEH C18 1.7um x 2.1 x 150 mm" "retention time=658.2" "raw data file=C:\Data\2015Mar17 R108 A17 root aerial for poster\A17 aerial" "SMILES=[C@H]1([C@@H]([C@@](C2[C@](C1)(C1[C@@](CC2)([C@]2(C(=CC1)[C@H]1[C@@]([C@@H](C2)O)(CCC(C1)(C)C)C(=O)O[C@H]1[C@@H]([C@H]([C@H](CO1)O)O)OC1[C@@H]([C@@H]([C@H]([C@@H](O1)C)O[C@H]1[C@@H]([C@H]([C@@H](CO1)O)O)O)O[C@@H]1OC[C@@]([C@H]1O)(CO)O)O)C)C)C)(C)C(=O)[O-])O[C@@H]1O[C@@H]([C@H]([C@@H]([C@H]1O[C@@H]1O[C@@H]([C@H]([C@@H]([C@H]1O[C@@H]1O[C@@H]([C@H]([C@@H]([C@H]1O)O)O)CO)O)O)CO)O)O)CO)O" "InChI=InChI=1S/C69H110O38/c1-24-47(101-54-44(86)36(78)28(75)20-94-54)48(102-60-52(89)68(93,22-73)23-96-60)46(88)56(97-24)103-49-37(79)29(76)21-95-57(49)107-62(92)69-13-12-63(2,3)14-26(69)25-8-9-33-64(4)15-27(74)53(67(7,61(90)91)34(64)10-11-65(33,5)66(25,6)16-35(69)77)106-59-51(43(85)40(82)32(19-72)100-59)105-58-50(42(84)39(81)31(18-71)99-58)104-55-45(87)41(83)38(80)30(17-70)98-55/h8,24,26-60,70-89,93H,9-23H2,1-7H3,(H,90,91)/p-1/t24-,26-,27-,28+,29-,30+,31+,32+,33?,34?,35+,36-,37-,38+,39+,40+,41-,42-,43-,44+,45+,46+,47-,48-,49+,50+,51+,52-,53-,54-,55-,56?,57-,58-,59-,60-,64+,65+,66+,67-,68+,69+/m0/s1" "InChIKey=QSAJFYGMYZDTSH-FRZBVZJDSA-M" "molecular formula=C69H109O38" "total exact mass=1545.6602326279092" "SMILES=C1(C(C(C2C(C1)(C3C(CC2)(C4(C(=CC3)C5C(C(C4)O)(CCC(C5)(C)C)C(OC6C(C(C(CO6)O)O)OC7C(C(C(C(O7)C)OC8C(C(C(CO8)O)O)O)OC9OCC(C9O)(CO)O)O)=O)C)C)C)(C)C(=O)[O-])OC%10OC(C(C(C%10OC%11OC(C(C(C%11OC%12OC(C(C(C%12O)O)O)CO)O)O)CO)O)O)CO)O" "InChI=InChI=1S/C69H110O38/c1-24-47(101-54-44(86)36(78)28(75)20-94-54)48(102-60-52(89)68(93,22-73)23-96-60)46(88)56(97-24)103-49-37(79)29(76)21-95-57(49)107-62(92)69-13-12-63(2,3)14-26(69)25-8-9-33-64(4)15-27(74)53(67(7,61(90)91)34(64)10-11-65(33,5)66(25,6)16-35(69)77)106-59-51(43(85)40(82)32(19-72)100-59)105-58-50(42(84)39(81)31(18-71)99-58)104-55-45(87)41(83)38(80)30(17-70)98-55/h8,24,26-60,70-89,93H,9-23H2,1-7H3,(H,90,91)/p-1/t24-,26-,27-,28+,29-,30+,31+,32+,33?,34?,35+,36-,37-,38+,39+,40+,41-,42-,43-,44+,45+,46+,47-,48-,49+,50+,51+,52-,53-,54-,55-,56-,57-,58-,59-,60-,64+,65+,66+,67-,68+,69+/m0/s1" "InChIKey=QSAJFYGMYZDTSH-SUYAQSJUSA-M"
Num Peaks: 39
 431 1.001001; 
 434 1.101101; 
 436 1.001001; 
 557 1.101101; 
 698 7.707708; 
 698 5.505506; 
 699 2.502503; 
 721 1.601602; 
 721 1.101101; 
 772 10.510511; 
 772 7.907908; 
 773 4.204204; 
 773 1.701702; 
 795 7.907908; 
 795 6.606607; 
 796 3.403403; 
 796 1.501502; 
 1397 9.609610; 
 1398 7.007007; 
 1399 2.502503; 
 1471 4.004004; 
 1472 6.006006; 
 1472 5.205205; 
 1473 3.203203; 
 1473 1.401401; 
 1515 1.401401; 
 1545 100.000000; 
 1545 2.102102; 
 1546 21.721722; 
 1546 2.802803; 
 1546 85.985986; 
 1547 11.111111; 
 1547 37.437437; 
 1548 2.302302; 
 1548 11.811812; 
 1549 3.203203; 
 1556 1.701702; 
 1557 2.202202; 
 1557 1.901902; 


Name: 3-(Glc(1-2)Glc(1-2)Glc)-28-(Xyl(1-4)[Api(1-3)]Rha(1-2)Ara Zanhic acid
SYNON: $:00in-source
DB#: MetaboBASE1203
InChIKey: QSAJFYGMYZDTSH-FRZBVZJDSA-M
Precursor_type: [M]-
Spectrum_type: MS2
PrecursorMZ: 1545.656
Instrument_type: LC-ESI-TOF
Instrument: impact HD
Ion_mode: N
Collision_energy: 101.522
InChIKey: QSAJFYGMYZDTSH-FRZBVZJDSA-M
Formula: C69H109O38
MW: 1545
ExactMass: 1545.6602326279092
Comments: "synonym=3-Glc(1-2)Glc(1-2)Glc-28-Xyl(1-4)[Api(1-3)]Rha(1-2)Ara Zanhic acid (NMR)" "license=License CC-BY-NC-SA 4.0 International" "author=Plant Biology, The Noble Foundation, Ardmore, OK, US/Dennis Fine, Daniel Wherritt, and Lloyd Sumner" "instrument type=LC-ESI-TOF" "instrument=impact HD" "ionization=ESI" "ionization mode=negative" "ms level=MS2" "precursor m/z=1545.656" "collision energy=101.522" "peak width=0.022" "date=2015-01-15 20:34:31+01:00" "column=Waters Acquity BEH C18 1.7um x 2.1 x 150 mm" "retention time=657.6" "raw data file=C:\Data\Noble-Bruker MS libr eval complex mix\2015Jan15 A-17 aerial MSMS_1-F,4_01_1569.d" "precursor type=[M]-" "mass accuracy=2.3834850702490527" "mass error=-0.0036840479997408693" "SMILES=[C@H]1([C@@H]([C@@](C2[C@](C1)(C1[C@@](CC2)([C@]2(C(=CC1)[C@H]1[C@@]([C@@H](C2)O)(CCC(C1)(C)C)C(=O)O[C@H]1[C@@H]([C@H]([C@H](CO1)O)O)OC1[C@@H]([C@@H]([C@H]([C@@H](O1)C)O[C@H]1[C@@H]([C@H]([C@@H](CO1)O)O)O)O[C@@H]1OC[C@@]([C@H]1O)(CO)O)O)C)C)C)(C)C(=O)[O-])O[C@@H]1O[C@@H]([C@H]([C@@H]([C@H]1O[C@@H]1O[C@@H]([C@H]([C@@H]([C@H]1O[C@@H]1O[C@@H]([C@H]([C@@H]([C@H]1O)O)O)CO)O)O)CO)O)O)CO)O" "InChI=InChI=1S/C69H110O38/c1-24-47(101-54-44(86)36(78)28(75)20-94-54)48(102-60-52(89)68(93,22-73)23-96-60)46(88)56(97-24)103-49-37(79)29(76)21-95-57(49)107-62(92)69-13-12-63(2,3)14-26(69)25-8-9-33-64(4)15-27(74)53(67(7,61(90)91)34(64)10-11-65(33,5)66(25,6)16-35(69)77)106-59-51(43(85)40(82)32(19-72)100-59)105-58-50(42(84)39(81)31(18-71)99-58)104-55-45(87)41(83)38(80)30(17-70)98-55/h8,24,26-60,70-89,93H,9-23H2,1-7H3,(H,90,91)/p-1/t24-,26-,27-,28+,29-,30+,31+,32+,33?,34?,35+,36-,37-,38+,39+,40+,41-,42-,43-,44+,45+,46+,47-,48-,49+,50+,51+,52-,53-,54-,55-,56?,57-,58-,59-,60-,64+,65+,66+,67-,68+,69+/m0/s1" "InChIKey=QSAJFYGMYZDTSH-FRZBVZJDSA-M" "molecular formula=C69H109O38" "total exact mass=1545.6602326279092" "SMILES=C1(C(C(C2C(C1)(C3C(CC2)(C4(C(=CC3)C5C(C(C4)O)(CCC(C5)(C)C)C(OC6C(C(C(CO6)O)O)OC7C(C(C(C(O7)C)OC8C(C(C(CO8)O)O)O)OC9OCC(C9O)(CO)O)O)=O)C)C)C)(C)C(=O)[O-])OC%10OC(C(C(C%10OC%11OC(C(C(C%11OC%12OC(C(C(C%12O)O)O)CO)O)O)CO)O)O)CO)O" "InChI=InChI=1S/C69H110O38/c1-24-47(101-54-44(86)36(78)28(75)20-94-54)48(102-60-52(89)68(93,22-73)23-96-60)46(88)56(97-24)103-49-37(79)29(76)21-95-57(49)107-62(92)69-13-12-63(2,3)14-26(69)25-8-9-33-64(4)15-27(74)53(67(7,61(90)91)34(64)10-11-65(33,5)66(25,6)16-35(69)77)106-59-51(43(85)40(82)32(19-72)100-59)105-58-50(42(84)39(81)31(18-71)99-58)104-55-45(87)41(83)38(80)30(17-70)98-55/h8,24,26-60,70-89,93H,9-23H2,1-7H3,(H,90,91)/p-1/t24-,26-,27-,28+,29-,30+,31+,32+,33?,34?,35+,36-,37-,38+,39+,40+,41-,42-,43-,44+,45+,46+,47-,48-,49+,50+,51+,52-,53-,54-,55-,56-,57-,58-,59-,60-,64+,65+,66+,67-,68+,69+/m0/s1" "InChIKey=QSAJFYGMYZDTSH-SUYAQSJUSA-M"
Num Peaks: 65
 101 2.502503; 
 113 2.802803; 
 119 2.702703; 
 127 0.200200; 
 131 3.703704; 
 143 1.201201; 
 145 0.200200; 
 149 3.503504; 
 161 4.804805; 
 179 9.009009; 
 205 0.800801; 
 221 25.725726; 
 222 2.002002; 
 223 0.200200; 
 233 0.900901; 
 233 0.300300; 
 259 0.500501; 
 263 24.724725; 
 264 2.302302; 
 265 0.200200; 
 277 4.604605; 
 299 0.400400; 
 323 1.701702; 
 337 35.035035; 
 338 4.604605; 
 339 0.200200; 
 339 0.300300; 
 341 1.701702; 
 383 100.000000; 
 384 15.615616; 
 385 3.003003; 
 391 1.301301; 
 393 1.201201; 
 394 0.300300; 
 409 29.329329; 
 409 0.400400; 
 410 5.205205; 
 411 0.900901; 
 427 0.400400; 
 433 0.100100; 
 455 72.872873; 
 456 22.322322; 
 457 3.703704; 
 458 0.300300; 
 469 0.200200; 
 469 72.172172; 
 470 14.514515; 
 471 3.403403; 
 541 4.504505; 
 542 0.600601; 
 997 2.302302; 
 998 1.101101; 
 1003 5.905906; 
 1004 3.303303; 
 1005 0.300300; 
 1545 0.400400; 
 1545 0.700701; 
 1545 37.137137; 
 1546 30.330330; 
 1546 0.600601; 
 1547 0.300300; 
 1547 12.612613; 
 1548 0.400400; 
 1548 4.804805; 
 1549 0.300300; 


Name: 3-(Glc(1-2)Glc(1-2)Glc)-28-(Xyl(1-4)[Api(1-3)]Rha(1-2)Ara Zanhic acid
SYNON: $:00in-source
DB#: MetaboBASE1204
InChIKey: QSAJFYGMYZDTSH-FRZBVZJDSA-M
Instrument_type: LC-ESI-TOF
Instrument: impact HD
Ion_mode: N
InChIKey: QSAJFYGMYZDTSH-FRZBVZJDSA-M
Formula: C69H109O38
MW: 1545
ExactMass: 1545.6602326279094
Comments: "synonym=3-Glc(1-2)Glc(1-2)Glc-28-Xyl(1-4)[Api(1-3)]Rha(1-2)Ara Zanhic acid (NMR)" "license=License CC-BY-NC-SA 4.0 International" "author=Plant Biology, The Noble Foundation, Ardmore, OK, US/Dennis Fine, Daniel Wherritt, and Lloyd Sumner" "instrument type=LC-ESI-TOF" "instrument=impact HD" "ionization=ESI" "ionization mode=negative" "peak width=0.019" "date=2015-01-15 20:34:31+01:00" "column=Waters Acquity BEH C18 1.7um x 2.1 x 150 mm" "retention time=657.6" "raw data file=C:\Data\Noble-Bruker MS libr eval complex mix\2015Jan15 A-17 aerial MSMS_1-F,4_01_1569.d" "SMILES=[C@H]1([C@@H]([C@@](C2[C@](C1)(C1[C@@](CC2)([C@]2(C(=CC1)[C@H]1[C@@]([C@@H](C2)O)(CCC(C1)(C)C)C(=O)O[C@H]1[C@@H]([C@H]([C@H](CO1)O)O)OC1[C@@H]([C@@H]([C@H]([C@@H](O1)C)O[C@H]1[C@@H]([C@H]([C@@H](CO1)O)O)O)O[C@@H]1OC[C@@]([C@H]1O)(CO)O)O)C)C)C)(C)C(=O)[O-])O[C@@H]1O[C@@H]([C@H]([C@@H]([C@H]1O[C@@H]1O[C@@H]([C@H]([C@@H]([C@H]1O[C@@H]1O[C@@H]([C@H]([C@@H]([C@H]1O)O)O)CO)O)O)CO)O)O)CO)O" "InChI=InChI=1S/C69H110O38/c1-24-47(101-54-44(86)36(78)28(75)20-94-54)48(102-60-52(89)68(93,22-73)23-96-60)46(88)56(97-24)103-49-37(79)29(76)21-95-57(49)107-62(92)69-13-12-63(2,3)14-26(69)25-8-9-33-64(4)15-27(74)53(67(7,61(90)91)34(64)10-11-65(33,5)66(25,6)16-35(69)77)106-59-51(43(85)40(82)32(19-72)100-59)105-58-50(42(84)39(81)31(18-71)99-58)104-55-45(87)41(83)38(80)30(17-70)98-55/h8,24,26-60,70-89,93H,9-23H2,1-7H3,(H,90,91)/p-1/t24-,26-,27-,28+,29-,30+,31+,32+,33?,34?,35+,36-,37-,38+,39+,40+,41-,42-,43-,44+,45+,46+,47-,48-,49+,50+,51+,52-,53-,54-,55-,56?,57-,58-,59-,60-,64+,65+,66+,67-,68+,69+/m0/s1" "InChIKey=QSAJFYGMYZDTSH-FRZBVZJDSA-M" "molecular formula=C69H109O38" "total exact mass=1545.6602326279094" "SMILES=C1(C(C(C2C(C1)(C3C(CC2)(C4(C(=CC3)C5C(C(C4)O)(CCC(C5)(C)C)C(OC6C(C(C(CO6)O)O)OC7C(C(C(C(O7)C)OC8C(C(C(CO8)O)O)O)OC9OCC(C9O)(CO)O)O)=O)C)C)C)(C)C(=O)[O-])OC%10OC(C(C(C%10OC%11OC(C(C(C%11OC%12OC(C(C(C%12O)O)O)CO)O)O)CO)O)O)CO)O" "InChI=InChI=1S/C69H110O38/c1-24-47(101-54-44(86)36(78)28(75)20-94-54)48(102-60-52(89)68(93,22-73)23-96-60)46(88)56(97-24)103-49-37(79)29(76)21-95-57(49)107-62(92)69-13-12-63(2,3)14-26(69)25-8-9-33-64(4)15-27(74)53(67(7,61(90)91)34(64)10-11-65(33,5)66(25,6)16-35(69)77)106-59-51(43(85)40(82)32(19-72)100-59)105-58-50(42(84)39(81)31(18-71)99-58)104-55-45(87)41(83)38(80)30(17-70)98-55/h8,24,26-60,70-89,93H,9-23H2,1-7H3,(H,90,91)/p-1/t24-,26-,27-,28+,29-,30+,31+,32+,33?,34?,35+,36-,37-,38+,39+,40+,41-,42-,43-,44+,45+,46+,47-,48-,49+,50+,51+,52-,53-,54-,55-,56-,57-,58-,59-,60-,64+,65+,66+,67-,68+,69+/m0/s1" "InChIKey=QSAJFYGMYZDTSH-SUYAQSJUSA-M"
Num Peaks: 60
 772 8.308308; 
 772 7.107107; 
 772 0.300300; 
 773 3.203203; 
 773 1.401401; 
 795 6.906907; 
 795 5.105105; 
 796 2.502503; 
 796 1.101101; 
 1471 0.100100; 
 1471 2.802803; 
 1472 4.304304; 
 1472 0.200200; 
 1472 3.803804; 
 1473 2.102102; 
 1473 1.101101; 
 1474 0.300300; 
 1545 100.000000; 
 1545 1.001001; 
 1545 2.402402; 
 1546 20.120120; 
 1546 3.103103; 
 1546 0.600601; 
 1546 0.800801; 
 1546 85.185185; 
 1546 0.800801; 
 1546 1.701702; 
 1547 10.310310; 
 1547 1.901902; 
 1547 0.600601; 
 1547 37.437437; 
 1547 0.800801; 
 1547 0.400400; 
 1548 1.901902; 
 1548 11.211211; 
 1549 0.200200; 
 1549 3.203203; 
 1556 1.001001; 
 1557 1.801802; 
 1557 2.102102; 
 1558 0.500501; 
 1558 1.301301; 
 1558 0.200200; 
 1598 2.102102; 
 1599 0.100100; 
 1599 2.102102; 
 1599 0.200200; 
 1600 0.300300; 
 1613 8.408408; 
 1614 7.007007; 
 1615 0.100100; 
 1615 4.004004; 
 1616 0.400400; 
 1616 0.200200; 
 1616 1.701702; 
 1617 0.200200; 
 1645 3.503504; 
 1646 2.902903; 
 1647 2.002002; 
 1648 0.400400; 


Name: 3-(Glc(1-2)Glc(1-2)Glc)-28-(Xyl(1-4)[Ara(1-3)]Rha(1-2)Ara Zanhic acid
SYNON: $:00in-source
DB#: MetaboBASE1205
InChIKey: VAWKNYRBJUUQEH-OYQXJFROSA-M
Spectrum_type: MS2
PrecursorMZ: 1545.667
Instrument_type: LC-ESI-TOF
Instrument: impact HD
Ion_mode: N
Collision_energy: 75
InChIKey: VAWKNYRBJUUQEH-OYQXJFROSA-M
Formula: C69H108O38
MW: 1544
ExactMass: 1544.6529561758186
Comments: "license=License CC-BY-NC-SA 4.0 International" "author=Plant Biology, The Noble Foundation, Ardmore, OK, US/Dennis Fine, Daniel Wherritt, and Lloyd Sumner" "instrument type=LC-ESI-TOF" "instrument=impact HD" "ionization=ESI" "ionization mode=negative" "ms level=MS2" "precursor m/z=1545.667" "isolation width=15" "collision energy=75" "collision energy 2=125" "peak width=0.025" "date=2014-11-20 08:02:12+01:00" "column=Waters Acquity BEH C18 1.7um x 2.1 x 150 mm" "retention time=667.2" "raw data file=C:\Data\2014Nov12_A-17 aerial root MS MSMS\A-17 aeial better  MSMS_1-A,2_01_1297.d" "SMILES=[C@H]1([C@@H]([C@@](C2[C@](C1)(C1[C@@](CC2)([C@]2(C(=CC1)[C@H]1[C@@]([C@@H](C2)O)(CCC(C1)(C)C)C(=O)O[C@H]1[C@@H]([C@H]([C@H](CO1)O)O)OC1[C@@H]([C@@H]([C@H]([C@@H](O1)C)O[C@H]1[C@@H]([C@H]([C@@H](CO1)O)O)O)O[C@@H]1OC[C@@H]([C@@H]([C@H]1O)O)[O-])O)C)C)C)(C)C(=O)[O-])O[C@@H]1O[C@@H]([C@H]([C@@H]([C@H]1O[C@@H]1O[C@@H]([C@H]([C@@H]([C@H]1O[C@@H]1O[C@@H]([C@H]([C@@H]([C@H]1O)O)O)CO)O)O)CO)O)O)CO)O" "InChI=InChI=1S/C69H109O38/c1-23-49(101-55-45(87)36(78)27(74)20-94-55)50(102-56-46(88)37(79)28(75)21-95-56)48(90)58(97-23)103-51-38(80)29(76)22-96-59(51)107-63(93)69-13-12-64(2,3)14-25(69)24-8-9-33-65(4)15-26(73)54(68(7,62(91)92)34(65)10-11-66(33,5)67(24,6)16-35(69)77)106-61-53(44(86)41(83)32(19-72)100-61)105-60-52(43(85)40(82)31(18-71)99-60)104-57-47(89)42(84)39(81)30(17-70)98-57/h8,23,25-61,70-74,76-90H,9-22H2,1-7H3,(H,91,92)/q-1/p-1/t23-,25-,26-,27+,28-,29-,30+,31+,32+,33?,34?,35+,36-,37-,38-,39+,40+,41+,42-,43-,44-,45+,46+,47+,48+,49-,50-,51+,52+,53+,54-,55-,56-,57-,58?,59-,60-,61-,65+,66+,67+,68-,69+/m0/s1" "InChIKey=VAWKNYRBJUUQEH-OYQXJFROSA-M" "molecular formula=C69H108O38" "total exact mass=1544.6529561758186" "SMILES=C1(C(C(C2C(C1)(C3C(CC2)(C4(C(=CC3)C5C(C(C4)O)(CCC(C5)(C)C)C(OC6C(C(C(CO6)O)O)OC7C(C(C(C(O7)C)OC8C(C(C(CO8)O)O)O)OC9OCC(C(C9O)O)[O-])O)=O)C)C)C)(C)C(=O)[O-])OC%10OC(C(C(C%10OC%11OC(C(C(C%11OC%12OC(C(C(C%12O)O)O)CO)O)O)CO)O)O)CO)O" "InChI=InChI=1S/C69H109O38/c1-23-49(101-55-45(87)36(78)27(74)20-94-55)50(102-56-46(88)37(79)28(75)21-95-56)48(90)58(97-23)103-51-38(80)29(76)22-96-59(51)107-63(93)69-13-12-64(2,3)14-25(69)24-8-9-33-65(4)15-26(73)54(68(7,62(91)92)34(65)10-11-66(33,5)67(24,6)16-35(69)77)106-61-53(44(86)41(83)32(19-72)100-61)105-60-52(43(85)40(82)31(18-71)99-60)104-57-47(89)42(84)39(81)30(17-70)98-57/h8,23,25-61,70-74,76-90H,9-22H2,1-7H3,(H,91,92)/q-1/p-1/t23-,25-,26-,27+,28-,29-,30+,31+,32+,33?,34?,35+,36-,37-,38-,39+,40+,41+,42-,43-,44-,45+,46+,47+,48+,49-,50-,51+,52+,53+,54-,55-,56-,57-,58-,59-,60-,61-,65+,66+,67+,68-,69+/m0/s1" "InChIKey=VAWKNYRBJUUQEH-IZMRLMBRSA-M"
Num Peaks: 35
 101 5.705706; 
 113 3.303303; 
 119 3.903904; 
 131 5.805806; 
 159 2.102102; 
 161 11.611612; 
 179 6.206206; 
 221 37.537538; 
 222 2.902903; 
 233 2.902903; 
 263 9.509510; 
 337 9.409409; 
 338 2.502503; 
 383 72.972973; 
 384 12.612613; 
 385 2.102102; 
 391 4.704705; 
 393 3.103103; 
 427 2.002002; 
 428 2.002002; 
 428 2.602603; 
 435 2.202202; 
 437 2.002002; 
 437 2.002002; 
 453 2.102102; 
 455 53.953954; 
 456 14.614615; 
 469 6.506507; 
 1003 2.302302; 
 1545 100.000000; 
 1545 2.202202; 
 1546 69.569570; 
 1547 30.530531; 
 1548 11.211211; 
 1549 3.003003; 


Name: 3-(Glc(1-2)Glc(1-2)Glc)-28-(Xyl(1-4)[Ara(1-3)]Rha(1-2)Ara Zanhic acid
SYNON: $:00in-source
DB#: MetaboBASE1206
InChIKey: VAWKNYRBJUUQEH-OYQXJFROSA-M
Instrument_type: LC-ESI-TOF
Instrument: impact HD
Ion_mode: N
Collision_energy: 10
InChIKey: VAWKNYRBJUUQEH-OYQXJFROSA-M
Formula: C69H108O38
MW: 1544
ExactMass: 1544.6529561758186
Comments: "license=License CC-BY-NC-SA 4.0 International" "author=Plant Biology, The Noble Foundation, Ardmore, OK, US/Dennis Fine, Daniel Wherritt, and Lloyd Sumner" "instrument type=LC-ESI-TOF" "instrument=impact HD" "ionization=ESI" "ionization mode=negative" "collision energy=10" "peak width=0.021" "date=2015-02-04 01:41:50+01:00" "column=Waters Acquity BEH C18 1.7um x 2.1 x 150 mm" "retention time=667.2" "raw data file=C:\Data\2015Mar17 R108 A17 root aerial for poster\A17 aerial" "SMILES=[C@H]1([C@@H]([C@@](C2[C@](C1)(C1[C@@](CC2)([C@]2(C(=CC1)[C@H]1[C@@]([C@@H](C2)O)(CCC(C1)(C)C)C(=O)O[C@H]1[C@@H]([C@H]([C@H](CO1)O)O)OC1[C@@H]([C@@H]([C@H]([C@@H](O1)C)O[C@H]1[C@@H]([C@H]([C@@H](CO1)O)O)O)O[C@@H]1OC[C@@H]([C@@H]([C@H]1O)O)[O-])O)C)C)C)(C)C(=O)[O-])O[C@@H]1O[C@@H]([C@H]([C@@H]([C@H]1O[C@@H]1O[C@@H]([C@H]([C@@H]([C@H]1O[C@@H]1O[C@@H]([C@H]([C@@H]([C@H]1O)O)O)CO)O)O)CO)O)O)CO)O" "InChI=InChI=1S/C69H109O38/c1-23-49(101-55-45(87)36(78)27(74)20-94-55)50(102-56-46(88)37(79)28(75)21-95-56)48(90)58(97-23)103-51-38(80)29(76)22-96-59(51)107-63(93)69-13-12-64(2,3)14-25(69)24-8-9-33-65(4)15-26(73)54(68(7,62(91)92)34(65)10-11-66(33,5)67(24,6)16-35(69)77)106-61-53(44(86)41(83)32(19-72)100-61)105-60-52(43(85)40(82)31(18-71)99-60)104-57-47(89)42(84)39(81)30(17-70)98-57/h8,23,25-61,70-74,76-90H,9-22H2,1-7H3,(H,91,92)/q-1/p-1/t23-,25-,26-,27+,28-,29-,30+,31+,32+,33?,34?,35+,36-,37-,38-,39+,40+,41+,42-,43-,44-,45+,46+,47+,48+,49-,50-,51+,52+,53+,54-,55-,56-,57-,58?,59-,60-,61-,65+,66+,67+,68-,69+/m0/s1" "InChIKey=VAWKNYRBJUUQEH-OYQXJFROSA-M" "molecular formula=C69H108O38" "total exact mass=1544.6529561758186" "SMILES=C1(C(C(C2C(C1)(C3C(CC2)(C4(C(=CC3)C5C(C(C4)O)(CCC(C5)(C)C)C(OC6C(C(C(CO6)O)O)OC7C(C(C(C(O7)C)OC8C(C(C(CO8)O)O)O)OC9OCC(C(C9O)O)[O-])O)=O)C)C)C)(C)C(=O)[O-])OC%10OC(C(C(C%10OC%11OC(C(C(C%11OC%12OC(C(C(C%12O)O)O)CO)O)O)CO)O)O)CO)O" "InChI=InChI=1S/C69H109O38/c1-23-49(101-55-45(87)36(78)27(74)20-94-55)50(102-56-46(88)37(79)28(75)21-95-56)48(90)58(97-23)103-51-38(80)29(76)22-96-59(51)107-63(93)69-13-12-64(2,3)14-25(69)24-8-9-33-65(4)15-26(73)54(68(7,62(91)92)34(65)10-11-66(33,5)67(24,6)16-35(69)77)106-61-53(44(86)41(83)32(19-72)100-61)105-60-52(43(85)40(82)31(18-71)99-60)104-57-47(89)42(84)39(81)30(17-70)98-57/h8,23,25-61,70-74,76-90H,9-22H2,1-7H3,(H,91,92)/q-1/p-1/t23-,25-,26-,27+,28-,29-,30+,31+,32+,33?,34?,35+,36-,37-,38-,39+,40+,41+,42-,43-,44-,45+,46+,47+,48+,49-,50-,51+,52+,53+,54-,55-,56-,57-,58-,59-,60-,61-,65+,66+,67+,68-,69+/m0/s1" "InChIKey=VAWKNYRBJUUQEH-IZMRLMBRSA-M"
Num Peaks: 59
 426 1.201201; 
 426 1.301301; 
 426 1.301301; 
 427 1.701702; 
 428 1.501502; 
 429 1.301301; 
 430 1.201201; 
 430 1.101101; 
 432 1.101101; 
 433 1.201201; 
 434 1.101101; 
 435 1.001001; 
 436 1.101101; 
 436 1.001001; 
 438 1.001001; 
 440 1.101101; 
 442 1.001001; 
 447 1.101101; 
 455 1.001001; 
 477 7.507508; 
 478 1.801802; 
 566 2.302302; 
 566 1.601602; 
 617 8.308308; 
 617 5.005005; 
 618 2.502503; 
 632 2.702703; 
 632 1.101101; 
 772 1.501502; 
 795 6.306306; 
 795 5.105105; 
 796 2.902903; 
 1235 12.912913; 
 1236 8.408408; 
 1237 3.403403; 
 1390 4.204204; 
 1391 5.905906; 
 1391 4.804805; 
 1392 2.502503; 
 1392 1.301301; 
 1515 1.901902; 
 1516 1.101101; 
 1545 100.000000; 
 1545 2.202202; 
 1546 21.321321; 
 1546 2.302302; 
 1546 84.984985; 
 1547 10.910911; 
 1547 37.937938; 
 1548 2.502503; 
 1548 11.911912; 
 1549 3.203203; 
 1557 1.301301; 
 1580 1.601602; 
 1580 1.501502; 
 1613 8.108108; 
 1614 6.406406; 
 1615 3.303303; 
 1645 1.401401; 


Name: 3-(Glc(1-2)Glc(1-2)Glc)-28-(Xyl(1-4)[Api(1-3)]Rha(1-2)Ara Medicagenic acid
SYNON: $:00in-source
DB#: MetaboBASE1207
InChIKey: XZNDCLRCHSKEES-HHPGVKTASA-M
Instrument_type: LC-ESI-TOF
Instrument: impact HD
Ion_mode: N
Collision_energy: 10
InChIKey: XZNDCLRCHSKEES-HHPGVKTASA-M
Formula: C69H109O37
MW: 1529
ExactMass: 1529.6653180079093
Comments: "synonym=3-Glc(1-2)Glc(1-2)Glc-28-Xyl(1-4)[Api(1-3)]Rha(1-2)Ara Medicagenic acid (NMR)" "license=License CC-BY-NC-SA 4.0 International" "author=Plant Biology, The Noble Foundation, Ardmore, OK, US/Dennis Fine, Daniel Wherritt, and Lloyd Sumner" "instrument type=LC-ESI-TOF" "instrument=impact HD" "ionization=ESI" "ionization mode=negative" "collision energy=10" "peak width=0.021" "date=2015-02-04 01:41:50+01:00" "column=Waters Acquity BEH C18 1.7um x 2.1 x 150 mm" "retention time=756.6" "raw data file=C:\Data\2015Mar17 R108 A17 root aerial for poster\A17 aerial" "SMILES=[C@H]1([C@@H]([C@@](C2[C@](C1)(C1[C@@](CC2)([C@]2(C(=CC1)[C@H]1[C@@](CC2)(CCC(C1)(C)C)C(=O)O[C@H]1[C@@H]([C@H]([C@H](CO1)O)O)OC1[C@@H]([C@@H]([C@H]([C@@H](O1)C)O[C@H]1[C@@H]([C@H]([C@@H](CO1)O)O)O)O[C@@H]1OC[C@@]([C@H]1O)(CO)O)O)C)C)C)(C)C(=O)[O-])O[C@@H]1O[C@@H]([C@H]([C@@H]([C@H]1O[C@@H]1O[C@@H]([C@H]([C@@H]([C@H]1O[C@@H]1O[C@@H]([C@H]([C@@H]([C@H]1O)O)O)CO)O)O)CO)O)O)CO)O" "InChI=InChI=1S/C69H110O37/c1-25-47(100-54-44(85)36(77)29(75)21-93-54)48(101-60-52(88)69(92,23-73)24-95-60)46(87)56(96-25)102-49-37(78)30(76)22-94-57(49)106-62(91)68-14-12-63(2,3)16-27(68)26-8-9-34-64(4)17-28(74)53(67(7,61(89)90)35(64)10-11-66(34,6)65(26,5)13-15-68)105-59-51(43(84)40(81)33(20-72)99-59)104-58-50(42(83)39(80)32(19-71)98-58)103-55-45(86)41(82)38(79)31(18-70)97-55/h8,25,27-60,70-88,92H,9-24H2,1-7H3,(H,89,90)/p-1/t25-,27-,28-,29+,30-,31+,32+,33+,34?,35?,36-,37-,38+,39+,40+,41-,42-,43-,44+,45+,46+,47-,48-,49+,50+,51+,52-,53-,54-,55-,56?,57-,58-,59-,60-,64+,65+,66+,67-,68-,69+/m0/s1" "InChIKey=XZNDCLRCHSKEES-HHPGVKTASA-M" "molecular formula=C69H109O37" "total exact mass=1529.6653180079093" "SMILES=C1(C(C(C2C(C1)(C3C(CC2)(C4(C(=CC3)C5C(CC4)(CCC(C5)(C)C)C(OC6C(C(C(CO6)O)O)OC7C(C(C(C(O7)C)OC8C(C(C(CO8)O)O)O)OC9OCC(C9O)(CO)O)O)=O)C)C)C)(C)C(=O)[O-])OC%10OC(C(C(C%10OC%11OC(C(C(C%11OC%12OC(C(C(C%12O)O)O)CO)O)O)CO)O)O)CO)O" "InChI=InChI=1S/C69H110O37/c1-25-47(100-54-44(85)36(77)29(75)21-93-54)48(101-60-52(88)69(92,23-73)24-95-60)46(87)56(96-25)102-49-37(78)30(76)22-94-57(49)106-62(91)68-14-12-63(2,3)16-27(68)26-8-9-34-64(4)17-28(74)53(67(7,61(89)90)35(64)10-11-66(34,6)65(26,5)13-15-68)105-59-51(43(84)40(81)33(20-72)99-59)104-58-50(42(83)39(80)32(19-71)98-58)103-55-45(86)41(82)38(79)31(18-70)97-55/h8,25,27-60,70-88,92H,9-24H2,1-7H3,(H,89,90)/p-1/t25-,27-,28-,29+,30-,31+,32+,33+,34?,35?,36-,37-,38+,39+,40+,41-,42-,43-,44+,45+,46+,47-,48-,49+,50+,51+,52-,53-,54-,55-,56-,57-,58-,59-,60-,64+,65+,66+,67-,68-,69+/m0/s1" "InChIKey=XZNDCLRCHSKEES-KTAVYKHVSA-M"
Num Peaks: 37
 112 3.203203; 
 174 3.703704; 
 304 1.901902; 
 423 1.001001; 
 424 1.101101; 
 424 1.101101; 
 426 1.101101; 
 427 1.001001; 
 428 1.001001; 
 431 1.001001; 
 431 1.201201; 
 432 1.301301; 
 434 1.201201; 
 435 1.001001; 
 479 1.001001; 
 543 2.102102; 
 543 2.202202; 
 557 6.906907; 
 616 4.204204; 
 666 4.004004; 
 764 6.706707; 
 764 5.505506; 
 787 3.003003; 
 787 1.301301; 
 971 1.801802; 
 1073 2.502503; 
 1087 8.908909; 
 1088 3.303303; 
 1235 2.202202; 
 1529 100.000000; 
 1530 75.775776; 
 1531 36.536537; 
 1532 12.812813; 
 1533 2.702703; 
 1597 10.910911; 
 1598 8.608609; 
 1599 1.501502; 


Name: 3-(Glc(1-2)Glc(1-2)Glc)-28-(Xyl(1-4)[Api(1-3)]Rha(1-2)Ara Medicagenic acid
SYNON: $:00in-source
DB#: MetaboBASE1208
InChIKey: XZNDCLRCHSKEES-HHPGVKTASA-M
Instrument_type: LC-ESI-TOF
Instrument: impact HD
Ion_mode: N
Collision_energy: 10
InChIKey: XZNDCLRCHSKEES-HHPGVKTASA-M
Formula: C69H109O37
MW: 1529
ExactMass: 1529.6653180079093
Comments: "synonym=3-Glc(1-2)Glc(1-2)Glc-28-Xyl(1-4)[Api(1-3)]Rha(1-2)Ara Medicagenic acid (NMR)" "license=License CC-BY-NC-SA 4.0 International" "author=Plant Biology, The Noble Foundation, Ardmore, OK, US/Dennis Fine, Daniel Wherritt, and Lloyd Sumner" "instrument type=LC-ESI-TOF" "instrument=impact HD" "ionization=ESI" "ionization mode=negative" "collision energy=10" "peak width=0.022" "date=2015-02-04 01:41:50+01:00" "column=Waters Acquity BEH C18 1.7um x 2.1 x 150 mm" "retention time=756.6" "raw data file=G:\Sumner Lab Data Management Workspace Jun2013\Projects\NSF-JST Metabolomics Nov2011-Sep2014\UPLC-MS-MSMS\2015Mar17 R108 A17 root aerial for poster\A17 aerial" "SMILES=[C@H]1([C@@H]([C@@](C2[C@](C1)(C1[C@@](CC2)([C@]2(C(=CC1)[C@H]1[C@@](CC2)(CCC(C1)(C)C)C(=O)O[C@H]1[C@@H]([C@H]([C@H](CO1)O)O)OC1[C@@H]([C@@H]([C@H]([C@@H](O1)C)O[C@H]1[C@@H]([C@H]([C@@H](CO1)O)O)O)O[C@@H]1OC[C@@]([C@H]1O)(CO)O)O)C)C)C)(C)C(=O)[O-])O[C@@H]1O[C@@H]([C@H]([C@@H]([C@H]1O[C@@H]1O[C@@H]([C@H]([C@@H]([C@H]1O[C@@H]1O[C@@H]([C@H]([C@@H]([C@H]1O)O)O)CO)O)O)CO)O)O)CO)O" "InChI=InChI=1S/C69H110O37/c1-25-47(100-54-44(85)36(77)29(75)21-93-54)48(101-60-52(88)69(92,23-73)24-95-60)46(87)56(96-25)102-49-37(78)30(76)22-94-57(49)106-62(91)68-14-12-63(2,3)16-27(68)26-8-9-34-64(4)17-28(74)53(67(7,61(89)90)35(64)10-11-66(34,6)65(26,5)13-15-68)105-59-51(43(84)40(81)33(20-72)99-59)104-58-50(42(83)39(80)32(19-71)98-58)103-55-45(86)41(82)38(79)31(18-70)97-55/h8,25,27-60,70-88,92H,9-24H2,1-7H3,(H,89,90)/p-1/t25-,27-,28-,29+,30-,31+,32+,33+,34?,35?,36-,37-,38+,39+,40+,41-,42-,43-,44+,45+,46+,47-,48-,49+,50+,51+,52-,53-,54-,55-,56?,57-,58-,59-,60-,64+,65+,66+,67-,68-,69+/m0/s1" "InChIKey=XZNDCLRCHSKEES-HHPGVKTASA-M" "molecular formula=C69H109O37" "total exact mass=1529.6653180079093" "SMILES=C1(C(C(C2C(C1)(C3C(CC2)(C4(C(=CC3)C5C(CC4)(CCC(C5)(C)C)C(OC6C(C(C(CO6)O)O)OC7C(C(C(C(O7)C)OC8C(C(C(CO8)O)O)O)OC9OCC(C9O)(CO)O)O)=O)C)C)C)(C)C(=O)[O-])OC%10OC(C(C(C%10OC%11OC(C(C(C%11OC%12OC(C(C(C%12O)O)O)CO)O)O)CO)O)O)CO)O" "InChI=InChI=1S/C69H110O37/c1-25-47(100-54-44(85)36(77)29(75)21-93-54)48(101-60-52(88)69(92,23-73)24-95-60)46(87)56(96-25)102-49-37(78)30(76)22-94-57(49)106-62(91)68-14-12-63(2,3)16-27(68)26-8-9-34-64(4)17-28(74)53(67(7,61(89)90)35(64)10-11-66(34,6)65(26,5)13-15-68)105-59-51(43(84)40(81)33(20-72)99-59)104-58-50(42(83)39(80)32(19-71)98-58)103-55-45(86)41(82)38(79)31(18-70)97-55/h8,25,27-60,70-88,92H,9-24H2,1-7H3,(H,89,90)/p-1/t25-,27-,28-,29+,30-,31+,32+,33+,34?,35?,36-,37-,38+,39+,40+,41-,42-,43-,44+,45+,46+,47-,48-,49+,50+,51+,52-,53-,54-,55-,56-,57-,58-,59-,60-,64+,65+,66+,67-,68-,69+/m0/s1" "InChIKey=XZNDCLRCHSKEES-KTAVYKHVSA-M"
Num Peaks: 24
 431 2.202202; 
 431 1.601602; 
 432 2.602603; 
 536 2.902903; 
 536 1.901902; 
 543 4.904905; 
 543 2.602603; 
 616 4.304304; 
 666 1.101101; 
 764 6.306306; 
 764 4.004004; 
 787 4.304304; 
 787 1.301301; 
 971 6.206206; 
 972 2.502503; 
 1073 5.405405; 
 1087 6.106106; 
 1529 100.000000; 
 1530 15.015015; 
 1531 40.040040; 
 1532 14.514515; 
 1533 2.002002; 
 1597 12.312312; 
 1598 9.709710; 


Name: 3-(Glc(1-2)Glc(1-2)Glc)-28-(Xyl(1-4)[Api(1-3)]Rha(1-2)Ara Medicagenic acid
SYNON: $:00in-source
DB#: MetaboBASE1209
InChIKey: XZNDCLRCHSKEES-HHPGVKTASA-M
Precursor_type: [M]-
Spectrum_type: MS2
PrecursorMZ: 1529.65
Instrument_type: LC-ESI-TOF
Instrument: impact HD
Ion_mode: N
Collision_energy: 75
InChIKey: XZNDCLRCHSKEES-HHPGVKTASA-M
Formula: C69H109O37
MW: 1529
ExactMass: 1529.6653180079093
Comments: "synonym=3-Glc(1-2)Glc(1-2)Glc-28-Xyl(1-4)[Api(1-3)]Rha(1-2)Ara Medicagenic acid (NMR)" "license=License CC-BY-NC-SA 4.0 International" "author=Plant Biology, The Noble Foundation, Ardmore, OK, US/Dennis Fine, Daniel Wherritt, and Lloyd Sumner" "instrument type=LC-ESI-TOF" "instrument=impact HD" "ionization=ESI" "ionization mode=negative" "ms level=MS2" "precursor m/z=1529.65" "isolation width=15" "collision energy=75" "collision energy 2=125" "peak width=0.023" "date=2014-11-20 08:02:12+01:00" "column=Waters Acquity BEH C18 1.7um x 2.1 x 150 mm" "retention time=756.6" "raw data file=C:\Data\2014Nov12_A-17 aerial root MS MSMS\A-17 aeial better  MSMS_1-A,2_01_1297.d" "precursor type=[M]-" "mass accuracy=9.655429673246353" "mass error=-0.014769427999681284" "SMILES=[C@H]1([C@@H]([C@@](C2[C@](C1)(C1[C@@](CC2)([C@]2(C(=CC1)[C@H]1[C@@](CC2)(CCC(C1)(C)C)C(=O)O[C@H]1[C@@H]([C@H]([C@H](CO1)O)O)OC1[C@@H]([C@@H]([C@H]([C@@H](O1)C)O[C@H]1[C@@H]([C@H]([C@@H](CO1)O)O)O)O[C@@H]1OC[C@@]([C@H]1O)(CO)O)O)C)C)C)(C)C(=O)[O-])O[C@@H]1O[C@@H]([C@H]([C@@H]([C@H]1O[C@@H]1O[C@@H]([C@H]([C@@H]([C@H]1O[C@@H]1O[C@@H]([C@H]([C@@H]([C@H]1O)O)O)CO)O)O)CO)O)O)CO)O" "InChI=InChI=1S/C69H110O37/c1-25-47(100-54-44(85)36(77)29(75)21-93-54)48(101-60-52(88)69(92,23-73)24-95-60)46(87)56(96-25)102-49-37(78)30(76)22-94-57(49)106-62(91)68-14-12-63(2,3)16-27(68)26-8-9-34-64(4)17-28(74)53(67(7,61(89)90)35(64)10-11-66(34,6)65(26,5)13-15-68)105-59-51(43(84)40(81)33(20-72)99-59)104-58-50(42(83)39(80)32(19-71)98-58)103-55-45(86)41(82)38(79)31(18-70)97-55/h8,25,27-60,70-88,92H,9-24H2,1-7H3,(H,89,90)/p-1/t25-,27-,28-,29+,30-,31+,32+,33+,34?,35?,36-,37-,38+,39+,40+,41-,42-,43-,44+,45+,46+,47-,48-,49+,50+,51+,52-,53-,54-,55-,56?,57-,58-,59-,60-,64+,65+,66+,67-,68-,69+/m0/s1" "InChIKey=XZNDCLRCHSKEES-HHPGVKTASA-M" "molecular formula=C69H109O37" "total exact mass=1529.6653180079093" "SMILES=C1(C(C(C2C(C1)(C3C(CC2)(C4(C(=CC3)C5C(CC4)(CCC(C5)(C)C)C(OC6C(C(C(CO6)O)O)OC7C(C(C(C(O7)C)OC8C(C(C(CO8)O)O)O)OC9OCC(C9O)(CO)O)O)=O)C)C)C)(C)C(=O)[O-])OC%10OC(C(C(C%10OC%11OC(C(C(C%11OC%12OC(C(C(C%12O)O)O)CO)O)O)CO)O)O)CO)O" "InChI=InChI=1S/C69H110O37/c1-25-47(100-54-44(85)36(77)29(75)21-93-54)48(101-60-52(88)69(92,23-73)24-95-60)46(87)56(96-25)102-49-37(78)30(76)22-94-57(49)106-62(91)68-14-12-63(2,3)16-27(68)26-8-9-34-64(4)17-28(74)53(67(7,61(89)90)35(64)10-11-66(34,6)65(26,5)13-15-68)105-59-51(43(84)40(81)33(20-72)99-59)104-58-50(42(83)39(80)32(19-71)98-58)103-55-45(86)41(82)38(79)31(18-70)97-55/h8,25,27-60,70-88,92H,9-24H2,1-7H3,(H,89,90)/p-1/t25-,27-,28-,29+,30-,31+,32+,33+,34?,35?,36-,37-,38+,39+,40+,41-,42-,43-,44+,45+,46+,47-,48-,49+,50+,51+,52-,53-,54-,55-,56-,57-,58-,59-,60-,64+,65+,66+,67-,68-,69+/m0/s1" "InChIKey=XZNDCLRCHSKEES-KTAVYKHVSA-M"
Num Peaks: 87
 101 2.902903; 
 113 4.404404; 
 119 5.505506; 
 143 4.704705; 
 149 2.602603; 
 161 8.308308; 
 179 3.303303; 
 205 4.004004; 
 221 27.427427; 
 233 2.302302; 
 263 3.003003; 
 277 2.702703; 
 300 2.302302; 
 302 3.603604; 
 306 2.102102; 
 314 2.302302; 
 336 2.102102; 
 337 33.033033; 
 338 7.207207; 
 383 2.802803; 
 383 47.147147; 
 384 6.906907; 
 409 3.803804; 
 420 2.102102; 
 420 4.104104; 
 421 3.603604; 
 422 2.702703; 
 422 2.102102; 
 422 2.602603; 
 422 2.302302; 
 423 3.203203; 
 424 2.202202; 
 424 2.502503; 
 425 2.402402; 
 425 2.502503; 
 425 2.302302; 
 425 2.502503; 
 426 2.102102; 
 427 2.802803; 
 427 3.103103; 
 428 2.402402; 
 428 2.202202; 
 428 3.103103; 
 428 2.802803; 
 429 2.702703; 
 429 2.402402; 
 430 3.103103; 
 430 2.802803; 
 431 3.003003; 
 431 2.102102; 
 431 4.804805; 
 431 2.102102; 
 434 2.402402; 
 434 2.402402; 
 435 2.102102; 
 435 2.202202; 
 436 2.302302; 
 436 2.102102; 
 437 2.202202; 
 438 2.502503; 
 439 40.440440; 
 440 14.514515; 
 441 4.704705; 
 442 2.302302; 
 442 2.302302; 
 444 2.902903; 
 446 2.102102; 
 446 2.202202; 
 447 3.303303; 
 451 4.804805; 
 451 2.402402; 
 451 2.102102; 
 452 2.702703; 
 457 2.102102; 
 466 2.202202; 
 469 7.107107; 
 470 2.702703; 
 967 2.402402; 
 1152 2.402402; 
 1408 2.302302; 
 1529 100.000000; 
 1530 71.071071; 
 1531 27.927928; 
 1532 10.610611; 
 1532 3.203203; 
 1533 3.203203; 
 1903 2.302302; 


Name: 3-(Glc(1-2)Glc(1-2)Glc)-28-(Xyl(1-4)[Api(1-3)]Rha(1-2)Ara Medicagenic acid
SYNON: $:00in-source
DB#: MetaboBASE1210
InChIKey: XZNDCLRCHSKEES-HHPGVKTASA-M
Instrument_type: LC-ESI-TOF
Instrument: impact HD
Ion_mode: N
InChIKey: XZNDCLRCHSKEES-HHPGVKTASA-M
Formula: C69H109O37
MW: 1529
ExactMass: 1529.6653180079093
Comments: "synonym=3-Glc(1-2)Glc(1-2)Glc-28-Xyl(1-4)[Api(1-3)]Rha(1-2)Ara Medicagenic acid (NMR)" "license=License CC-BY-NC-SA 4.0 International" "author=Plant Biology, The Noble Foundation, Ardmore, OK, US/Dennis Fine, Daniel Wherritt, and Lloyd Sumner" "instrument type=LC-ESI-TOF" "instrument=impact HD" "ionization=ESI" "ionization mode=negative" "peak width=0.019" "date=2015-01-15 20:34:31+01:00" "column=Waters Acquity BEH C18 1.7um x 2.1 x 150 mm" "retention time=755.4" "raw data file=C:\Data\Noble-Bruker MS libr eval complex mix\2015Jan15 A-17 aerial MSMS_1-F,4_01_1569.d" "SMILES=[C@H]1([C@@H]([C@@](C2[C@](C1)(C1[C@@](CC2)([C@]2(C(=CC1)[C@H]1[C@@](CC2)(CCC(C1)(C)C)C(=O)O[C@H]1[C@@H]([C@H]([C@H](CO1)O)O)OC1[C@@H]([C@@H]([C@H]([C@@H](O1)C)O[C@H]1[C@@H]([C@H]([C@@H](CO1)O)O)O)O[C@@H]1OC[C@@]([C@H]1O)(CO)O)O)C)C)C)(C)C(=O)[O-])O[C@@H]1O[C@@H]([C@H]([C@@H]([C@H]1O[C@@H]1O[C@@H]([C@H]([C@@H]([C@H]1O[C@@H]1O[C@@H]([C@H]([C@@H]([C@H]1O)O)O)CO)O)O)CO)O)O)CO)O" "InChI=InChI=1S/C69H110O37/c1-25-47(100-54-44(85)36(77)29(75)21-93-54)48(101-60-52(88)69(92,23-73)24-95-60)46(87)56(96-25)102-49-37(78)30(76)22-94-57(49)106-62(91)68-14-12-63(2,3)16-27(68)26-8-9-34-64(4)17-28(74)53(67(7,61(89)90)35(64)10-11-66(34,6)65(26,5)13-15-68)105-59-51(43(84)40(81)33(20-72)99-59)104-58-50(42(83)39(80)32(19-71)98-58)103-55-45(86)41(82)38(79)31(18-70)97-55/h8,25,27-60,70-88,92H,9-24H2,1-7H3,(H,89,90)/p-1/t25-,27-,28-,29+,30-,31+,32+,33+,34?,35?,36-,37-,38+,39+,40+,41-,42-,43-,44+,45+,46+,47-,48-,49+,50+,51+,52-,53-,54-,55-,56?,57-,58-,59-,60-,64+,65+,66+,67-,68-,69+/m0/s1" "InChIKey=XZNDCLRCHSKEES-HHPGVKTASA-M" "molecular formula=C69H109O37" "total exact mass=1529.6653180079093" "SMILES=C1(C(C(C2C(C1)(C3C(CC2)(C4(C(=CC3)C5C(CC4)(CCC(C5)(C)C)C(OC6C(C(C(CO6)O)O)OC7C(C(C(C(O7)C)OC8C(C(C(CO8)O)O)O)OC9OCC(C9O)(CO)O)O)=O)C)C)C)(C)C(=O)[O-])OC%10OC(C(C(C%10OC%11OC(C(C(C%11OC%12OC(C(C(C%12O)O)O)CO)O)O)CO)O)O)CO)O" "InChI=InChI=1S/C69H110O37/c1-25-47(100-54-44(85)36(77)29(75)21-93-54)48(101-60-52(88)69(92,23-73)24-95-60)46(87)56(96-25)102-49-37(78)30(76)22-94-57(49)106-62(91)68-14-12-63(2,3)16-27(68)26-8-9-34-64(4)17-28(74)53(67(7,61(89)90)35(64)10-11-66(34,6)65(26,5)13-15-68)105-59-51(43(84)40(81)33(20-72)99-59)104-58-50(42(83)39(80)32(19-71)98-58)103-55-45(86)41(82)38(79)31(18-70)97-55/h8,25,27-60,70-88,92H,9-24H2,1-7H3,(H,89,90)/p-1/t25-,27-,28-,29+,30-,31+,32+,33+,34?,35?,36-,37-,38+,39+,40+,41-,42-,43-,44+,45+,46+,47-,48-,49+,50+,51+,52-,53-,54-,55-,56-,57-,58-,59-,60-,64+,65+,66+,67-,68-,69+/m0/s1" "InChIKey=XZNDCLRCHSKEES-KTAVYKHVSA-M"
Num Peaks: 29
 479 1.801802; 
 565 2.302302; 
 565 0.700701; 
 839 2.102102; 
 840 2.302302; 
 971 15.215215; 
 972 8.208208; 
 973 3.103103; 
 1073 13.013013; 
 1074 0.200200; 
 1087 11.811812; 
 1088 7.607608; 
 1089 0.300300; 
 1529 0.900901; 
 1529 100.000000; 
 1530 1.001001; 
 1530 1.401401; 
 1530 79.079079; 
 1531 36.536537; 
 1532 13.213213; 
 1533 1.501502; 
 1597 14.314314; 
 1598 9.009009; 
 1599 4.104104; 
 1599 0.200200; 
 1600 0.400400; 
 1629 2.902903; 
 1630 1.201201; 
 1630 1.201201; 


Name: 3-(Glc(1-2)Glc(1-2)Glc)-28-(Xyl(1-4)[Api(1-3)]Rha(1-2)Ara Medicagenic acid
SYNON: $:00in-source
DB#: MetaboBASE1211
InChIKey: XZNDCLRCHSKEES-HHPGVKTASA-M
Precursor_type: [M]-
Spectrum_type: MS2
PrecursorMZ: 1529.658
Instrument_type: LC-ESI-TOF
Instrument: impact HD
Ion_mode: N
Collision_energy: 100.989
InChIKey: XZNDCLRCHSKEES-HHPGVKTASA-M
Formula: C69H109O37
MW: 1529
ExactMass: 1529.6653180079093
Comments: "synonym=3-Glc(1-2)Glc(1-2)Glc-28-Xyl(1-4)[Api(1-3)]Rha(1-2)Ara Medicagenic acid (NMR)" "license=License CC-BY-NC-SA 4.0 International" "author=Plant Biology, The Noble Foundation, Ardmore, OK, US/Dennis Fine, Daniel Wherritt, and Lloyd Sumner" "instrument type=LC-ESI-TOF" "instrument=impact HD" "ionization=ESI" "ionization mode=negative" "ms level=MS2" "precursor m/z=1529.658" "collision energy=100.989" "peak width=0.02" "date=2015-01-15 20:34:31+01:00" "column=Waters Acquity BEH C18 1.7um x 2.1 x 150 mm" "retention time=755.4" "raw data file=C:\Data\Noble-Bruker MS libr eval complex mix\2015Jan15 A-17 aerial MSMS_1-F,4_01_1569.d" "precursor type=[M]-" "mass accuracy=4.425451963687609" "mass error=-0.006769427999870459" "SMILES=[C@H]1([C@@H]([C@@](C2[C@](C1)(C1[C@@](CC2)([C@]2(C(=CC1)[C@H]1[C@@](CC2)(CCC(C1)(C)C)C(=O)O[C@H]1[C@@H]([C@H]([C@H](CO1)O)O)OC1[C@@H]([C@@H]([C@H]([C@@H](O1)C)O[C@H]1[C@@H]([C@H]([C@@H](CO1)O)O)O)O[C@@H]1OC[C@@]([C@H]1O)(CO)O)O)C)C)C)(C)C(=O)[O-])O[C@@H]1O[C@@H]([C@H]([C@@H]([C@H]1O[C@@H]1O[C@@H]([C@H]([C@@H]([C@H]1O[C@@H]1O[C@@H]([C@H]([C@@H]([C@H]1O)O)O)CO)O)O)CO)O)O)CO)O" "InChI=InChI=1S/C69H110O37/c1-25-47(100-54-44(85)36(77)29(75)21-93-54)48(101-60-52(88)69(92,23-73)24-95-60)46(87)56(96-25)102-49-37(78)30(76)22-94-57(49)106-62(91)68-14-12-63(2,3)16-27(68)26-8-9-34-64(4)17-28(74)53(67(7,61(89)90)35(64)10-11-66(34,6)65(26,5)13-15-68)105-59-51(43(84)40(81)33(20-72)99-59)104-58-50(42(83)39(80)32(19-71)98-58)103-55-45(86)41(82)38(79)31(18-70)97-55/h8,25,27-60,70-88,92H,9-24H2,1-7H3,(H,89,90)/p-1/t25-,27-,28-,29+,30-,31+,32+,33+,34?,35?,36-,37-,38+,39+,40+,41-,42-,43-,44+,45+,46+,47-,48-,49+,50+,51+,52-,53-,54-,55-,56?,57-,58-,59-,60-,64+,65+,66+,67-,68-,69+/m0/s1" "InChIKey=XZNDCLRCHSKEES-HHPGVKTASA-M" "molecular formula=C69H109O37" "total exact mass=1529.6653180079093" "SMILES=C1(C(C(C2C(C1)(C3C(CC2)(C4(C(=CC3)C5C(CC4)(CCC(C5)(C)C)C(OC6C(C(C(CO6)O)O)OC7C(C(C(C(O7)C)OC8C(C(C(CO8)O)O)O)OC9OCC(C9O)(CO)O)O)=O)C)C)C)(C)C(=O)[O-])OC%10OC(C(C(C%10OC%11OC(C(C(C%11OC%12OC(C(C(C%12O)O)O)CO)O)O)CO)O)O)CO)O" "InChI=InChI=1S/C69H110O37/c1-25-47(100-54-44(85)36(77)29(75)21-93-54)48(101-60-52(88)69(92,23-73)24-95-60)46(87)56(96-25)102-49-37(78)30(76)22-94-57(49)106-62(91)68-14-12-63(2,3)16-27(68)26-8-9-34-64(4)17-28(74)53(67(7,61(89)90)35(64)10-11-66(34,6)65(26,5)13-15-68)105-59-51(43(84)40(81)33(20-72)99-59)104-58-50(42(83)39(80)32(19-71)98-58)103-55-45(86)41(82)38(79)31(18-70)97-55/h8,25,27-60,70-88,92H,9-24H2,1-7H3,(H,89,90)/p-1/t25-,27-,28-,29+,30-,31+,32+,33+,34?,35?,36-,37-,38+,39+,40+,41-,42-,43-,44+,45+,46+,47-,48-,49+,50+,51+,52-,53-,54-,55-,56-,57-,58-,59-,60-,64+,65+,66+,67-,68-,69+/m0/s1" "InChIKey=XZNDCLRCHSKEES-KTAVYKHVSA-M"
Num Peaks: 27
 101 1.401401; 
 149 2.202202; 
 161 5.205205; 
 179 6.206206; 
 221 32.332332; 
 263 24.324324; 
 277 5.805806; 
 337 42.942943; 
 338 3.203203; 
 383 100.000000; 
 383 1.201201; 
 384 16.316316; 
 385 2.202202; 
 409 20.320320; 
 410 2.302302; 
 439 24.724725; 
 440 7.207207; 
 469 41.941942; 
 470 5.705706; 
 541 2.502503; 
 541 3.103103; 
 981 4.504505; 
 1529 1.901902; 
 1529 47.447447; 
 1530 33.133133; 
 1531 3.803804; 
 1531 15.315315; 


Name: 3-(Glc(1-2)Glc(1-2)Glc)-28-(Xyl(1-4)[Ara(1-3)]Rha(1-2)Ara Medicagenic acid
SYNON: $:00in-source
DB#: MetaboBASE1212
InChIKey: JCNQPOPIDLZOHH-OFMSYKCLSA-M
Instrument_type: LC-ESI-TOF
Instrument: impact HD
Ion_mode: N
Collision_energy: 10
InChIKey: JCNQPOPIDLZOHH-OFMSYKCLSA-M
Formula: C69H108O37
MW: 1528
ExactMass: 1528.6580415558185
Comments: "synonym=3-Glc(1-2)Glc(1-2)Glc-28-Xyl(1-4)[Ara(1-3)]Rha(1-2)Ara Medicagenic acid (NMR)" "synonym=3-(Glc(1-2)Glc(1-2)Glc)-28-(Xyl(1-4)[Ara(1-3)]Rha(1-2)Ara Medicagenic acid (NMR)" "license=License CC-BY-NC-SA 4.0 International" "author=Plant Biology, The Noble Foundation, Ardmore, OK, US/Dennis Fine, Daniel Wherritt, and Lloyd Sumner" "instrument type=LC-ESI-TOF" "instrument=impact HD" "ionization=ESI" "ionization mode=negative" "collision energy=10" "peak width=0.022" "date=2015-02-04 01:41:50+01:00" "column=Waters Acquity BEH C18 1.7um x 2.1 x 150 mm" "retention time=761.4" "raw data file=C:\Data\2015Mar17 R108 A17 root aerial for poster\A17 aerial" "SMILES=[C@H]1([C@@H]([C@@](C2[C@](C1)(C1[C@@](CC2)([C@]2(C(=CC1)[C@H]1[C@@](CC2)(CCC(C1)(C)C)C(=O)O[C@H]1[C@@H]([C@H]([C@H](CO1)O)O)OC1[C@@H]([C@@H]([C@H]([C@@H](O1)C)O[C@H]1[C@@H]([C@H]([C@@H](CO1)O)O)O)O[C@@H]1OC[C@@H]([C@@H]([C@H]1O)O)[O-])O)C)C)C)(C)C(=O)[O-])O[C@@H]1O[C@@H]([C@H]([C@@H]([C@H]1O[C@@H]1O[C@@H]([C@H]([C@@H]([C@H]1O[C@@H]1O[C@@H]([C@H]([C@@H]([C@H]1O)O)O)CO)O)O)CO)O)O)CO)O" "InChI=InChI=1S/C69H109O37/c1-24-49(100-55-45(86)36(77)28(74)21-93-55)50(101-56-46(87)37(78)29(75)22-94-56)48(89)58(96-24)102-51-38(79)30(76)23-95-59(51)106-63(92)69-14-12-64(2,3)16-26(69)25-8-9-34-65(4)17-27(73)54(68(7,62(90)91)35(65)10-11-67(34,6)66(25,5)13-15-69)105-61-53(44(85)41(82)33(20-72)99-61)104-60-52(43(84)40(81)32(19-71)98-60)103-57-47(88)42(83)39(80)31(18-70)97-57/h8,24,26-61,70-74,76-89H,9-23H2,1-7H3,(H,90,91)/q-1/p-1/t24-,26-,27-,28+,29-,30-,31+,32+,33+,34?,35?,36-,37-,38-,39+,40+,41+,42-,43-,44-,45+,46+,47+,48+,49-,50-,51+,52+,53+,54-,55-,56-,57-,58?,59-,60-,61-,65+,66+,67+,68-,69-/m0/s1" "InChIKey=JCNQPOPIDLZOHH-OFMSYKCLSA-M" "molecular formula=C69H108O37" "total exact mass=1528.6580415558185" "SMILES=C1(C(C(C2C(C1)(C3C(CC2)(C4(C(=CC3)C5C(CC4)(CCC(C5)(C)C)C(OC6C(C(C(CO6)O)O)OC7C(C(C(C(O7)C)OC8C(C(C(CO8)O)O)O)OC9OCC(C(C9O)O)[O-])O)=O)C)C)C)(C)C(=O)[O-])OC%10OC(C(C(C%10OC%11OC(C(C(C%11OC%12OC(C(C(C%12O)O)O)CO)O)O)CO)O)O)CO)O" "InChI=InChI=1S/C69H109O37/c1-24-49(100-55-45(86)36(77)28(74)21-93-55)50(101-56-46(87)37(78)29(75)22-94-56)48(89)58(96-24)102-51-38(79)30(76)23-95-59(51)106-63(92)69-14-12-64(2,3)16-26(69)25-8-9-34-65(4)17-27(73)54(68(7,62(90)91)35(65)10-11-67(34,6)66(25,5)13-15-69)105-61-53(44(85)41(82)33(20-72)99-61)104-60-52(43(84)40(81)32(19-71)98-60)103-57-47(88)42(83)39(80)31(18-70)97-57/h8,24,26-61,70-74,76-89H,9-23H2,1-7H3,(H,90,91)/q-1/p-1/t24-,26-,27-,28+,29-,30-,31+,32+,33+,34?,35?,36-,37-,38-,39+,40+,41+,42-,43-,44-,45+,46+,47+,48+,49-,50-,51+,52+,53+,54-,55-,56-,57-,58-,59-,60-,61-,65+,66+,67+,68-,69-/m0/s1" "InChIKey=JCNQPOPIDLZOHH-WLPKCRDHSA-M"
Num Peaks: 25
 112 2.202202; 
 174 2.702703; 
 213 4.204204; 
 557 5.805806; 
 564 7.007007; 
 564 2.802803; 
 666 4.504505; 
 787 1.001001; 
 825 5.105105; 
 826 1.101101; 
 971 9.509510; 
 972 3.603604; 
 1017 1.201201; 
 1367 1.101101; 
 1529 100.000000; 
 1530 2.502503; 
 1530 81.981982; 
 1531 36.536537; 
 1532 12.612613; 
 1597 10.710711; 
 1598 7.707708; 
 1599 1.101101; 
 1661 14.514515; 
 1662 11.911912; 
 1663 4.304304; 


Name: 3-(Glc(1-2)Glc(1-2)Glc)-28-(Xyl(1-4)[Ara(1-3)]Rha(1-2)Ara Medicagenic acid
SYNON: $:00in-source
DB#: MetaboBASE1213
InChIKey: JCNQPOPIDLZOHH-OFMSYKCLSA-M
Spectrum_type: MS2
PrecursorMZ: 1529.655
Instrument_type: LC-ESI-TOF
Instrument: impact HD
Ion_mode: N
Collision_energy: 75
InChIKey: JCNQPOPIDLZOHH-OFMSYKCLSA-M
Formula: C69H108O37
MW: 1528
ExactMass: 1528.6580415558185
Comments: "synonym=3-Glc(1-2)Glc(1-2)Glc-28-Xyl(1-4)[Ara(1-3)]Rha(1-2)Ara Medicagenic acid (NMR)" "synonym=3-(Glc(1-2)Glc(1-2)Glc)-28-(Xyl(1-4)[Ara(1-3)]Rha(1-2)Ara Medicagenic acid (NMR)" "license=License CC-BY-NC-SA 4.0 International" "author=Plant Biology, The Noble Foundation, Ardmore, OK, US/Dennis Fine, Daniel Wherritt, and Lloyd Sumner" "instrument type=LC-ESI-TOF" "instrument=impact HD" "ionization=ESI" "ionization mode=negative" "ms level=MS2" "precursor m/z=1529.655" "isolation width=15" "collision energy=75" "collision energy 2=125" "peak width=0.021" "date=2014-11-20 08:02:12+01:00" "column=Waters Acquity BEH C18 1.7um x 2.1 x 150 mm" "retention time=761.4" "raw data file=C:\Data\2014Nov12_A-17 aerial root MS MSMS\A-17 aeial better  MSMS_1-A,2_01_1297.d" "SMILES=[C@H]1([C@@H]([C@@](C2[C@](C1)(C1[C@@](CC2)([C@]2(C(=CC1)[C@H]1[C@@](CC2)(CCC(C1)(C)C)C(=O)O[C@H]1[C@@H]([C@H]([C@H](CO1)O)O)OC1[C@@H]([C@@H]([C@H]([C@@H](O1)C)O[C@H]1[C@@H]([C@H]([C@@H](CO1)O)O)O)O[C@@H]1OC[C@@H]([C@@H]([C@H]1O)O)[O-])O)C)C)C)(C)C(=O)[O-])O[C@@H]1O[C@@H]([C@H]([C@@H]([C@H]1O[C@@H]1O[C@@H]([C@H]([C@@H]([C@H]1O[C@@H]1O[C@@H]([C@H]([C@@H]([C@H]1O)O)O)CO)O)O)CO)O)O)CO)O" "InChI=InChI=1S/C69H109O37/c1-24-49(100-55-45(86)36(77)28(74)21-93-55)50(101-56-46(87)37(78)29(75)22-94-56)48(89)58(96-24)102-51-38(79)30(76)23-95-59(51)106-63(92)69-14-12-64(2,3)16-26(69)25-8-9-34-65(4)17-27(73)54(68(7,62(90)91)35(65)10-11-67(34,6)66(25,5)13-15-69)105-61-53(44(85)41(82)33(20-72)99-61)104-60-52(43(84)40(81)32(19-71)98-60)103-57-47(88)42(83)39(80)31(18-70)97-57/h8,24,26-61,70-74,76-89H,9-23H2,1-7H3,(H,90,91)/q-1/p-1/t24-,26-,27-,28+,29-,30-,31+,32+,33+,34?,35?,36-,37-,38-,39+,40+,41+,42-,43-,44-,45+,46+,47+,48+,49-,50-,51+,52+,53+,54-,55-,56-,57-,58?,59-,60-,61-,65+,66+,67+,68-,69-/m0/s1" "InChIKey=JCNQPOPIDLZOHH-OFMSYKCLSA-M" "molecular formula=C69H108O37" "total exact mass=1528.6580415558185" "SMILES=C1(C(C(C2C(C1)(C3C(CC2)(C4(C(=CC3)C5C(CC4)(CCC(C5)(C)C)C(OC6C(C(C(CO6)O)O)OC7C(C(C(C(O7)C)OC8C(C(C(CO8)O)O)O)OC9OCC(C(C9O)O)[O-])O)=O)C)C)C)(C)C(=O)[O-])OC%10OC(C(C(C%10OC%11OC(C(C(C%11OC%12OC(C(C(C%12O)O)O)CO)O)O)CO)O)O)CO)O" "InChI=InChI=1S/C69H109O37/c1-24-49(100-55-45(86)36(77)28(74)21-93-55)50(101-56-46(87)37(78)29(75)22-94-56)48(89)58(96-24)102-51-38(79)30(76)23-95-59(51)106-63(92)69-14-12-64(2,3)16-26(69)25-8-9-34-65(4)17-27(73)54(68(7,62(90)91)35(65)10-11-67(34,6)66(25,5)13-15-69)105-61-53(44(85)41(82)33(20-72)99-61)104-60-52(43(84)40(81)32(19-71)98-60)103-57-47(88)42(83)39(80)31(18-70)97-57/h8,24,26-61,70-74,76-89H,9-23H2,1-7H3,(H,90,91)/q-1/p-1/t24-,26-,27-,28+,29-,30-,31+,32+,33+,34?,35?,36-,37-,38-,39+,40+,41+,42-,43-,44-,45+,46+,47+,48+,49-,50-,51+,52+,53+,54-,55-,56-,57-,58-,59-,60-,61-,65+,66+,67+,68-,69-/m0/s1" "InChIKey=JCNQPOPIDLZOHH-WLPKCRDHSA-M"
Num Peaks: 89
 99 3.003003; 
 101 3.403403; 
 113 7.807808; 
 119 4.804805; 
 131 4.304304; 
 149 2.202202; 
 161 9.109109; 
 179 4.204204; 
 221 42.242242; 
 263 7.807808; 
 337 6.206206; 
 355 2.302302; 
 383 42.442442; 
 384 7.307307; 
 418 2.002002; 
 420 2.302302; 
 422 2.402402; 
 422 2.202202; 
 423 2.102102; 
 423 2.702703; 
 423 2.402402; 
 423 2.202202; 
 424 2.002002; 
 424 2.302302; 
 425 2.502503; 
 426 2.302302; 
 426 3.503504; 
 426 2.102102; 
 427 2.102102; 
 427 3.103103; 
 427 2.802803; 
 427 3.003003; 
 427 2.002002; 
 427 3.203203; 
 428 2.202202; 
 428 2.002002; 
 428 3.203203; 
 428 3.603604; 
 428 2.402402; 
 428 2.102102; 
 429 2.402402; 
 429 2.302302; 
 429 2.902903; 
 429 3.003003; 
 430 2.202202; 
 430 2.602603; 
 430 2.502503; 
 430 3.803804; 
 432 2.402402; 
 432 2.902903; 
 433 2.002002; 
 433 2.002002; 
 434 2.402402; 
 434 2.702703; 
 435 2.002002; 
 435 2.102102; 
 435 2.402402; 
 437 2.402402; 
 437 2.802803; 
 437 2.502503; 
 437 2.502503; 
 438 2.602603; 
 439 2.202202; 
 439 49.149149; 
 439 2.702703; 
 439 2.602603; 
 439 2.002002; 
 440 13.713714; 
 441 5.605606; 
 441 2.202202; 
 444 2.302302; 
 445 2.302302; 
 446 2.602603; 
 447 2.702703; 
 448 2.202202; 
 450 2.302302; 
 450 3.103103; 
 452 2.602603; 
 455 2.402402; 
 469 3.203203; 
 1529 100.000000; 
 1529 4.504505; 
 1530 82.182182; 
 1530 3.003003; 
 1531 32.332332; 
 1532 9.209209; 
 1533 2.002002; 
 1641 2.002002; 
 1794 1.901902; 


Name: 3-(Glc(1-2)Glc(1-2)Glc)-28-(Xyl(1-4)[Ara(1-3)]Rha(1-2)Ara Medicagenic acid
SYNON: $:00in-source
DB#: MetaboBASE1214
InChIKey: JCNQPOPIDLZOHH-OFMSYKCLSA-M
Spectrum_type: MS2
PrecursorMZ: 1529.659
Instrument_type: LC-ESI-TOF
Instrument: impact HD
Ion_mode: N
Collision_energy: 100.989
InChIKey: JCNQPOPIDLZOHH-OFMSYKCLSA-M
Formula: C69H108O37
MW: 1528
ExactMass: 1528.6580415558185
Comments: "synonym=3-Glc(1-2)Glc(1-2)Glc-28-Xyl(1-4)[Ara(1-3)]Rha(1-2)Ara Medicagenic acid (NMR)" "synonym=3-(Glc(1-2)Glc(1-2)Glc)-28-(Xyl(1-4)[Ara(1-3)]Rha(1-2)Ara Medicagenic acid (NMR)" "license=License CC-BY-NC-SA 4.0 International" "author=Plant Biology, The Noble Foundation, Ardmore, OK, US/Dennis Fine, Daniel Wherritt, and Lloyd Sumner" "instrument type=LC-ESI-TOF" "instrument=impact HD" "ionization=ESI" "ionization mode=negative" "ms level=MS2" "precursor m/z=1529.659" "isolation width=15.1979" "collision energy=100.989" "peak width=0.02" "date=2015-01-15 20:34:31+01:00" "column=Waters Acquity BEH C18 1.7um x 2.1 x 150 mm" "retention time=760.8" "raw data file=C:\Data\Noble-Bruker MS libr eval complex mix\2015Jan15 A-17 aerial MSMS_1-F,4_01_1569.d" "SMILES=[C@H]1([C@@H]([C@@](C2[C@](C1)(C1[C@@](CC2)([C@]2(C(=CC1)[C@H]1[C@@](CC2)(CCC(C1)(C)C)C(=O)O[C@H]1[C@@H]([C@H]([C@H](CO1)O)O)OC1[C@@H]([C@@H]([C@H]([C@@H](O1)C)O[C@H]1[C@@H]([C@H]([C@@H](CO1)O)O)O)O[C@@H]1OC[C@@H]([C@@H]([C@H]1O)O)[O-])O)C)C)C)(C)C(=O)[O-])O[C@@H]1O[C@@H]([C@H]([C@@H]([C@H]1O[C@@H]1O[C@@H]([C@H]([C@@H]([C@H]1O[C@@H]1O[C@@H]([C@H]([C@@H]([C@H]1O)O)O)CO)O)O)CO)O)O)CO)O" "InChI=InChI=1S/C69H109O37/c1-24-49(100-55-45(86)36(77)28(74)21-93-55)50(101-56-46(87)37(78)29(75)22-94-56)48(89)58(96-24)102-51-38(79)30(76)23-95-59(51)106-63(92)69-14-12-64(2,3)16-26(69)25-8-9-34-65(4)17-27(73)54(68(7,62(90)91)35(65)10-11-67(34,6)66(25,5)13-15-69)105-61-53(44(85)41(82)33(20-72)99-61)104-60-52(43(84)40(81)32(19-71)98-60)103-57-47(88)42(83)39(80)31(18-70)97-57/h8,24,26-61,70-74,76-89H,9-23H2,1-7H3,(H,90,91)/q-1/p-1/t24-,26-,27-,28+,29-,30-,31+,32+,33+,34?,35?,36-,37-,38-,39+,40+,41+,42-,43-,44-,45+,46+,47+,48+,49-,50-,51+,52+,53+,54-,55-,56-,57-,58?,59-,60-,61-,65+,66+,67+,68-,69-/m0/s1" "InChIKey=JCNQPOPIDLZOHH-OFMSYKCLSA-M" "molecular formula=C69H108O37" "total exact mass=1528.6580415558185" "SMILES=C1(C(C(C2C(C1)(C3C(CC2)(C4(C(=CC3)C5C(CC4)(CCC(C5)(C)C)C(OC6C(C(C(CO6)O)O)OC7C(C(C(C(O7)C)OC8C(C(C(CO8)O)O)O)OC9OCC(C(C9O)O)[O-])O)=O)C)C)C)(C)C(=O)[O-])OC%10OC(C(C(C%10OC%11OC(C(C(C%11OC%12OC(C(C(C%12O)O)O)CO)O)O)CO)O)O)CO)O" "InChI=InChI=1S/C69H109O37/c1-24-49(100-55-45(86)36(77)28(74)21-93-55)50(101-56-46(87)37(78)29(75)22-94-56)48(89)58(96-24)102-51-38(79)30(76)23-95-59(51)106-63(92)69-14-12-64(2,3)16-26(69)25-8-9-34-65(4)17-27(73)54(68(7,62(90)91)35(65)10-11-67(34,6)66(25,5)13-15-69)105-61-53(44(85)41(82)33(20-72)99-61)104-60-52(43(84)40(81)32(19-71)98-60)103-57-47(88)42(83)39(80)31(18-70)97-57/h8,24,26-61,70-74,76-89H,9-23H2,1-7H3,(H,90,91)/q-1/p-1/t24-,26-,27-,28+,29-,30-,31+,32+,33+,34?,35?,36-,37-,38-,39+,40+,41+,42-,43-,44-,45+,46+,47+,48+,49-,50-,51+,52+,53+,54-,55-,56-,57-,58-,59-,60-,61-,65+,66+,67+,68-,69-/m0/s1" "InChIKey=JCNQPOPIDLZOHH-WLPKCRDHSA-M"
Num Peaks: 21
 101 3.703704; 
 113 2.202202; 
 131 1.601602; 
 161 4.904905; 
 179 10.410410; 
 221 25.525526; 
 222 3.903904; 
 263 29.029029; 
 337 6.206206; 
 341 2.602603; 
 383 100.000000; 
 384 16.716717; 
 385 3.103103; 
 409 2.402402; 
 439 23.823824; 
 440 6.006006; 
 469 7.407407; 
 1529 35.935936; 
 1530 22.522523; 
 1531 10.810811; 
 1532 4.504505; 


Name: 3-(Glc(1-2)Glc(1-2)Glc)-28-(Xyl(1-4)[Ara(1-3)]Rha(1-2)Ara Medicagenic acid
SYNON: $:00in-source
DB#: MetaboBASE1215
InChIKey: JCNQPOPIDLZOHH-OFMSYKCLSA-M
Instrument_type: LC-ESI-TOF
Instrument: impact HD
Ion_mode: N
InChIKey: JCNQPOPIDLZOHH-OFMSYKCLSA-M
Formula: C69H108O37
MW: 1528
ExactMass: 1528.6580415558185
Comments: "synonym=3-Glc(1-2)Glc(1-2)Glc-28-Xyl(1-4)[Ara(1-3)]Rha(1-2)Ara Medicagenic acid (NMR)" "synonym=3-(Glc(1-2)Glc(1-2)Glc)-28-(Xyl(1-4)[Ara(1-3)]Rha(1-2)Ara Medicagenic acid (NMR)" "license=License CC-BY-NC-SA 4.0 International" "author=Plant Biology, The Noble Foundation, Ardmore, OK, US/Dennis Fine, Daniel Wherritt, and Lloyd Sumner" "instrument type=LC-ESI-TOF" "instrument=impact HD" "ionization=ESI" "ionization mode=negative" "peak width=0.019" "date=2015-01-15 20:34:31+01:00" "column=Waters Acquity BEH C18 1.7um x 2.1 x 150 mm" "retention time=760.8" "raw data file=C:\Data\Noble-Bruker MS libr eval complex mix\2015Jan15 A-17 aerial MSMS_1-F,4_01_1569.d" "SMILES=[C@H]1([C@@H]([C@@](C2[C@](C1)(C1[C@@](CC2)([C@]2(C(=CC1)[C@H]1[C@@](CC2)(CCC(C1)(C)C)C(=O)O[C@H]1[C@@H]([C@H]([C@H](CO1)O)O)OC1[C@@H]([C@@H]([C@H]([C@@H](O1)C)O[C@H]1[C@@H]([C@H]([C@@H](CO1)O)O)O)O[C@@H]1OC[C@@H]([C@@H]([C@H]1O)O)[O-])O)C)C)C)(C)C(=O)[O-])O[C@@H]1O[C@@H]([C@H]([C@@H]([C@H]1O[C@@H]1O[C@@H]([C@H]([C@@H]([C@H]1O[C@@H]1O[C@@H]([C@H]([C@@H]([C@H]1O)O)O)CO)O)O)CO)O)O)CO)O" "InChI=InChI=1S/C69H109O37/c1-24-49(100-55-45(86)36(77)28(74)21-93-55)50(101-56-46(87)37(78)29(75)22-94-56)48(89)58(96-24)102-51-38(79)30(76)23-95-59(51)106-63(92)69-14-12-64(2,3)16-26(69)25-8-9-34-65(4)17-27(73)54(68(7,62(90)91)35(65)10-11-67(34,6)66(25,5)13-15-69)105-61-53(44(85)41(82)33(20-72)99-61)104-60-52(43(84)40(81)32(19-71)98-60)103-57-47(88)42(83)39(80)31(18-70)97-57/h8,24,26-61,70-74,76-89H,9-23H2,1-7H3,(H,90,91)/q-1/p-1/t24-,26-,27-,28+,29-,30-,31+,32+,33+,34?,35?,36-,37-,38-,39+,40+,41+,42-,43-,44-,45+,46+,47+,48+,49-,50-,51+,52+,53+,54-,55-,56-,57-,58?,59-,60-,61-,65+,66+,67+,68-,69-/m0/s1" "InChIKey=JCNQPOPIDLZOHH-OFMSYKCLSA-M" "molecular formula=C69H108O37" "total exact mass=1528.6580415558185" "SMILES=C1(C(C(C2C(C1)(C3C(CC2)(C4(C(=CC3)C5C(CC4)(CCC(C5)(C)C)C(OC6C(C(C(CO6)O)O)OC7C(C(C(C(O7)C)OC8C(C(C(CO8)O)O)O)OC9OCC(C(C9O)O)[O-])O)=O)C)C)C)(C)C(=O)[O-])OC%10OC(C(C(C%10OC%11OC(C(C(C%11OC%12OC(C(C(C%12O)O)O)CO)O)O)CO)O)O)CO)O" "InChI=InChI=1S/C69H109O37/c1-24-49(100-55-45(86)36(77)28(74)21-93-55)50(101-56-46(87)37(78)29(75)22-94-56)48(89)58(96-24)102-51-38(79)30(76)23-95-59(51)106-63(92)69-14-12-64(2,3)16-26(69)25-8-9-34-65(4)17-27(73)54(68(7,62(90)91)35(65)10-11-67(34,6)66(25,5)13-15-69)105-61-53(44(85)41(82)33(20-72)99-61)104-60-52(43(84)40(81)32(19-71)98-60)103-57-47(88)42(83)39(80)31(18-70)97-57/h8,24,26-61,70-74,76-89H,9-23H2,1-7H3,(H,90,91)/q-1/p-1/t24-,26-,27-,28+,29-,30-,31+,32+,33+,34?,35?,36-,37-,38-,39+,40+,41+,42-,43-,44-,45+,46+,47+,48+,49-,50-,51+,52+,53+,54-,55-,56-,57-,58-,59-,60-,61-,65+,66+,67+,68-,69-/m0/s1" "InChIKey=JCNQPOPIDLZOHH-WLPKCRDHSA-M"
Num Peaks: 60
 100 1.101101; 
 112 1.401401; 
 174 0.800801; 
 213 3.203203; 
 243 1.501502; 
 304 1.901902; 
 305 0.200200; 
 557 0.700701; 
 564 6.106106; 
 564 3.603604; 
 565 2.802803; 
 565 1.201201; 
 644 0.700701; 
 644 1.701702; 
 646 2.702703; 
 646 1.401401; 
 787 2.502503; 
 787 1.201201; 
 788 0.100100; 
 825 6.206206; 
 826 0.800801; 
 971 1.501502; 
 974 0.800801; 
 1087 2.902903; 
 1088 1.101101; 
 1177 1.701702; 
 1178 1.801802; 
 1236 1.201201; 
 1291 1.901902; 
 1529 1.201201; 
 1529 100.000000; 
 1529 0.200200; 
 1530 2.902903; 
 1530 76.576577; 
 1531 0.800801; 
 1531 37.137137; 
 1532 1.301301; 
 1532 12.812813; 
 1533 4.904905; 
 1534 0.900901; 
 1566 1.001001; 
 1567 1.001001; 
 1582 1.501502; 
 1583 2.302302; 
 1597 9.109109; 
 1598 7.607608; 
 1599 4.404404; 
 1600 0.200200; 
 1629 4.704705; 
 1629 0.800801; 
 1630 1.701702; 
 1630 5.105105; 
 1631 3.003003; 
 1632 1.201201; 
 1659 0.800801; 
 1661 1.001001; 
 1662 0.200200; 
 1665 1.601602; 
 1666 0.800801; 
 1666 3.003003; 


Name: 3-(Glc(1-2)Glc(1-2)Glc)-28-(Xyl(1-4)[Ara(1-3)]Rha(1-2)Ara Medicagenic acid
SYNON: $:00in-source
DB#: MetaboBASE1216
InChIKey: JCNQPOPIDLZOHH-OFMSYKCLSA-M
Instrument_type: LC-ESI-TOF
Instrument: impact HD
Ion_mode: N
Collision_energy: 10
InChIKey: JCNQPOPIDLZOHH-OFMSYKCLSA-M
Formula: C69H108O37
MW: 1528
ExactMass: 1528.6580415558185
Comments: "synonym=3-Glc(1-2)Glc(1-2)Glc-28-Xyl(1-4)[Ara(1-3)]Rha(1-2)Ara Medicagenic acid (NMR)" "synonym=3-(Glc(1-2)Glc(1-2)Glc)-28-(Xyl(1-4)[Ara(1-3)]Rha(1-2)Ara Medicagenic acid (NMR)" "license=License CC-BY-NC-SA 4.0 International" "author=Plant Biology, The Noble Foundation, Ardmore, OK, US/Dennis Fine, Daniel Wherritt, and Lloyd Sumner" "instrument type=LC-ESI-TOF" "instrument=impact HD" "ionization=ESI" "ionization mode=negative" "collision energy=10" "peak width=0.022" "date=2015-02-04 01:41:50+01:00" "column=Waters Acquity BEH C18 1.7um x 2.1 x 150 mm" "retention time=760.8" "raw data file=G:\Sumner Lab Data Management Workspace Jun2013\Projects\NSF-JST Metabolomics Nov2011-Sep2014\UPLC-MS-MSMS\2015Mar17 R108 A17 root aerial for poster\A17 aerial" "SMILES=[C@H]1([C@@H]([C@@](C2[C@](C1)(C1[C@@](CC2)([C@]2(C(=CC1)[C@H]1[C@@](CC2)(CCC(C1)(C)C)C(=O)O[C@H]1[C@@H]([C@H]([C@H](CO1)O)O)OC1[C@@H]([C@@H]([C@H]([C@@H](O1)C)O[C@H]1[C@@H]([C@H]([C@@H](CO1)O)O)O)O[C@@H]1OC[C@@H]([C@@H]([C@H]1O)O)[O-])O)C)C)C)(C)C(=O)[O-])O[C@@H]1O[C@@H]([C@H]([C@@H]([C@H]1O[C@@H]1O[C@@H]([C@H]([C@@H]([C@H]1O[C@@H]1O[C@@H]([C@H]([C@@H]([C@H]1O)O)O)CO)O)O)CO)O)O)CO)O" "InChI=InChI=1S/C69H109O37/c1-24-49(100-55-45(86)36(77)28(74)21-93-55)50(101-56-46(87)37(78)29(75)22-94-56)48(89)58(96-24)102-51-38(79)30(76)23-95-59(51)106-63(92)69-14-12-64(2,3)16-26(69)25-8-9-34-65(4)17-27(73)54(68(7,62(90)91)35(65)10-11-67(34,6)66(25,5)13-15-69)105-61-53(44(85)41(82)33(20-72)99-61)104-60-52(43(84)40(81)32(19-71)98-60)103-57-47(88)42(83)39(80)31(18-70)97-57/h8,24,26-61,70-74,76-89H,9-23H2,1-7H3,(H,90,91)/q-1/p-1/t24-,26-,27-,28+,29-,30-,31+,32+,33+,34?,35?,36-,37-,38-,39+,40+,41+,42-,43-,44-,45+,46+,47+,48+,49-,50-,51+,52+,53+,54-,55-,56-,57-,58?,59-,60-,61-,65+,66+,67+,68-,69-/m0/s1" "InChIKey=JCNQPOPIDLZOHH-OFMSYKCLSA-M" "molecular formula=C69H108O37" "total exact mass=1528.6580415558185" "SMILES=C1(C(C(C2C(C1)(C3C(CC2)(C4(C(=CC3)C5C(CC4)(CCC(C5)(C)C)C(OC6C(C(C(CO6)O)O)OC7C(C(C(C(O7)C)OC8C(C(C(CO8)O)O)O)OC9OCC(C(C9O)O)[O-])O)=O)C)C)C)(C)C(=O)[O-])OC%10OC(C(C(C%10OC%11OC(C(C(C%11OC%12OC(C(C(C%12O)O)O)CO)O)O)CO)O)O)CO)O" "InChI=InChI=1S/C69H109O37/c1-24-49(100-55-45(86)36(77)28(74)21-93-55)50(101-56-46(87)37(78)29(75)22-94-56)48(89)58(96-24)102-51-38(79)30(76)23-95-59(51)106-63(92)69-14-12-64(2,3)16-26(69)25-8-9-34-65(4)17-27(73)54(68(7,62(90)91)35(65)10-11-67(34,6)66(25,5)13-15-69)105-61-53(44(85)41(82)33(20-72)99-61)104-60-52(43(84)40(81)32(19-71)98-60)103-57-47(88)42(83)39(80)31(18-70)97-57/h8,24,26-61,70-74,76-89H,9-23H2,1-7H3,(H,90,91)/q-1/p-1/t24-,26-,27-,28+,29-,30-,31+,32+,33+,34?,35?,36-,37-,38-,39+,40+,41+,42-,43-,44-,45+,46+,47+,48+,49-,50-,51+,52+,53+,54-,55-,56-,57-,58-,59-,60-,61-,65+,66+,67+,68-,69-/m0/s1" "InChIKey=JCNQPOPIDLZOHH-WLPKCRDHSA-M"
Num Peaks: 16
 213 3.803804; 
 557 4.104104; 
 564 7.707708; 
 564 3.503504; 
 666 1.101101; 
 825 4.104104; 
 826 1.901902; 
 971 8.108108; 
 972 3.103103; 
 1529 100.000000; 
 1530 2.202202; 
 1530 16.516517; 
 1531 37.137137; 
 1532 13.013013; 
 1597 11.011011; 
 1598 8.308308; 


Name: 3-(Glc(1-2)Glc(1-2)Glc)-28-(Xyl(1-4)Rha(1-2)Ara Medicagenic acid
SYNON: $:00in-source
DB#: MetaboBASE1217
InChIKey: BAMZIPMKRIZGEQ-QLAQRCBASA-M
Precursor_type: [M]-
Spectrum_type: MS2
PrecursorMZ: 1397.588
Instrument_type: LC-ESI-TOF
Instrument: impact HD
Ion_mode: N
Collision_energy: 71.1607
InChIKey: BAMZIPMKRIZGEQ-QLAQRCBASA-M
Formula: C64H101O33
MW: 1397
ExactMass: 1397.6230592719094
Comments: "license=License CC-BY-NC-SA 4.0 International" "author=Plant Biology, The Noble Foundation, Ardmore, OK, US/Dennis Fine, Daniel Wherritt, and Lloyd Sumner" "instrument type=LC-ESI-TOF" "instrument=impact HD" "ionization=ESI" "ionization mode=negative" "ms level=MS2" "precursor m/z=1397.588" "isolation width=13.9762" "collision energy=71.1607" "collision energy 2=118.601" "peak width=0.024" "date=2014-11-20 08:02:12+01:00" "column=Waters Acquity BEH C18 1.7um x 2.1 x 150 mm" "retention time=768.6" "raw data file=C:\Data\2014Nov12_A-17 aerial root MS MSMS\A-17 aeial better  MSMS_1-A,2_01_1297.d" "precursor type=[M]-" "mass accuracy=24.6930368605859" "mass error=-0.034510691999912524" "SMILES=[C@H]1([C@@H]([C@@](C2[C@](C1)(C1[C@@](CC2)([C@]2(C(=CC1)[C@H]1[C@@](CC2)(CCC(C1)(C)C)C(=O)O[C@H]1[C@@H]([C@H]([C@H](CO1)O)O)OC1[C@@H]([C@@H]([C@H]([C@@H](O1)C)O[C@H]1[C@@H]([C@H]([C@@H](CO1)O)O)O)O)O)C)C)C)(C)C(=O)[O-])O[C@@H]1O[C@@H]([C@H]([C@@H]([C@H]1O[C@@H]1O[C@@H]([C@H]([C@@H]([C@H]1O[C@@H]1O[C@@H]([C@H]([C@@H]([C@H]1O)O)O)CO)O)O)CO)O)O)CO)O" "InChI=InChI=1S/C64H102O33/c1-23-46(92-51-43(80)34(71)27(69)21-86-51)42(79)45(82)52(88-23)93-47-35(72)28(70)22-87-54(47)97-58(85)64-14-12-59(2,3)16-25(64)24-8-9-32-60(4)17-26(68)50(63(7,57(83)84)33(60)10-11-62(32,6)61(24,5)13-15-64)96-56-49(41(78)38(75)31(20-67)91-56)95-55-48(40(77)37(74)30(19-66)90-55)94-53-44(81)39(76)36(73)29(18-65)89-53/h8,23,25-56,65-82H,9-22H2,1-7H3,(H,83,84)/p-1/t23-,25-,26-,27+,28-,29+,30+,31+,32?,33?,34-,35-,36+,37+,38+,39-,40-,41-,42-,43+,44+,45+,46-,47+,48+,49+,50-,51-,52?,53-,54-,55-,56-,60+,61+,62+,63-,64-/m0/s1" "InChIKey=BAMZIPMKRIZGEQ-QLAQRCBASA-M" "molecular formula=C64H101O33" "total exact mass=1397.6230592719094" "SMILES=C1(C(C(C2C(C1)(C3C(CC2)(C4(C(=CC3)C5C(CC4)(CCC(C5)(C)C)C(OC6C(C(C(CO6)O)O)OC7C(C(C(C(O7)C)OC8C(C(C(CO8)O)O)O)O)O)=O)C)C)C)(C)C(=O)[O-])OC9OC(C(C(C9OC%10OC(C(C(C%10OC%11OC(C(C(C%11O)O)O)CO)O)O)CO)O)O)CO)O" "InChI=InChI=1S/C64H102O33/c1-23-46(92-51-43(80)34(71)27(69)21-86-51)42(79)45(82)52(88-23)93-47-35(72)28(70)22-87-54(47)97-58(85)64-14-12-59(2,3)16-25(64)24-8-9-32-60(4)17-26(68)50(63(7,57(83)84)33(60)10-11-62(32,6)61(24,5)13-15-64)96-56-49(41(78)38(75)31(20-67)91-56)95-55-48(40(77)37(74)30(19-66)90-55)94-53-44(81)39(76)36(73)29(18-65)89-53/h8,23,25-56,65-82H,9-22H2,1-7H3,(H,83,84)/p-1/t23-,25-,26-,27+,28-,29+,30+,31+,32?,33?,34-,35-,36+,37+,38+,39-,40-,41-,42-,43+,44+,45+,46-,47+,48+,49+,50-,51-,52-,53-,54-,55-,56-,60+,61+,62+,63-,64-/m0/s1" "InChIKey=BAMZIPMKRIZGEQ-RVVSSWROSA-M"
Num Peaks: 81
 101 6.406406; 
 113 8.908909; 
 119 3.203203; 
 131 7.907908; 
 143 1.601602; 
 161 11.511512; 
 175 2.202202; 
 179 4.304304; 
 221 29.229229; 
 263 6.106106; 
 341 1.801802; 
 383 47.847848; 
 384 7.507508; 
 388 1.501502; 
 388 1.701702; 
 388 1.701702; 
 389 2.002002; 
 390 2.002002; 
 390 1.501502; 
 390 1.701702; 
 390 1.901902; 
 391 1.901902; 
 391 1.701702; 
 391 1.601602; 
 392 1.801802; 
 392 1.601602; 
 392 1.801802; 
 392 2.802803; 
 392 2.102102; 
 392 1.501502; 
 393 1.601602; 
 393 1.501502; 
 393 1.801802; 
 393 1.501502; 
 393 1.901902; 
 393 1.701702; 
 394 1.701702; 
 394 3.003003; 
 394 2.802803; 
 394 1.801802; 
 394 2.302302; 
 395 2.002002; 
 395 2.402402; 
 395 2.002002; 
 395 1.901902; 
 395 1.501502; 
 395 1.701702; 
 395 1.801802; 
 396 1.501502; 
 396 1.701702; 
 396 1.601602; 
 396 1.801802; 
 396 1.601602; 
 396 2.002002; 
 397 1.501502; 
 397 2.402402; 
 397 1.701702; 
 398 1.701702; 
 398 1.501502; 
 398 1.701702; 
 399 2.002002; 
 400 1.801802; 
 400 1.501502; 
 401 1.801802; 
 401 1.601602; 
 401 1.901902; 
 402 1.501502; 
 405 2.002002; 
 407 1.801802; 
 413 1.501502; 
 439 25.625626; 
 440 5.105105; 
 441 1.801802; 
 1381 3.903904; 
 1382 3.703704; 
 1397 100.000000; 
 1398 69.769770; 
 1399 27.727728; 
 1400 7.507508; 
 1401 1.501502; 
 1403 1.501502; 


Name: 3-(Glc(1-2)Glc(1-2)Glc)-28-(Xyl(1-4)Rha(1-2)Ara Medicagenic acid
SYNON: $:00in-source
DB#: MetaboBASE1218
InChIKey: BAMZIPMKRIZGEQ-QLAQRCBASA-M
Instrument_type: LC-ESI-TOF
Instrument: impact HD
Ion_mode: N
Collision_energy: 10
InChIKey: BAMZIPMKRIZGEQ-QLAQRCBASA-M
Formula: C64H101O33
MW: 1397
ExactMass: 1397.6230592719094
Comments: "license=License CC-BY-NC-SA 4.0 International" "author=Plant Biology, The Noble Foundation, Ardmore, OK, US/Dennis Fine, Daniel Wherritt, and Lloyd Sumner" "instrument type=LC-ESI-TOF" "instrument=impact HD" "ionization=ESI" "ionization mode=negative" "collision energy=10" "peak width=0.021" "date=2015-02-04 01:41:50+01:00" "column=Waters Acquity BEH C18 1.7um x 2.1 x 150 mm" "retention time=768.6" "raw data file=C:\Data\2015Mar17 R108 A17 root aerial for poster\A17 aerial" "SMILES=[C@H]1([C@@H]([C@@](C2[C@](C1)(C1[C@@](CC2)([C@]2(C(=CC1)[C@H]1[C@@](CC2)(CCC(C1)(C)C)C(=O)O[C@H]1[C@@H]([C@H]([C@H](CO1)O)O)OC1[C@@H]([C@@H]([C@H]([C@@H](O1)C)O[C@H]1[C@@H]([C@H]([C@@H](CO1)O)O)O)O)O)C)C)C)(C)C(=O)[O-])O[C@@H]1O[C@@H]([C@H]([C@@H]([C@H]1O[C@@H]1O[C@@H]([C@H]([C@@H]([C@H]1O[C@@H]1O[C@@H]([C@H]([C@@H]([C@H]1O)O)O)CO)O)O)CO)O)O)CO)O" "InChI=InChI=1S/C64H102O33/c1-23-46(92-51-43(80)34(71)27(69)21-86-51)42(79)45(82)52(88-23)93-47-35(72)28(70)22-87-54(47)97-58(85)64-14-12-59(2,3)16-25(64)24-8-9-32-60(4)17-26(68)50(63(7,57(83)84)33(60)10-11-62(32,6)61(24,5)13-15-64)96-56-49(41(78)38(75)31(20-67)91-56)95-55-48(40(77)37(74)30(19-66)90-55)94-53-44(81)39(76)36(73)29(18-65)89-53/h8,23,25-56,65-82H,9-22H2,1-7H3,(H,83,84)/p-1/t23-,25-,26-,27+,28-,29+,30+,31+,32?,33?,34-,35-,36+,37+,38+,39-,40-,41-,42-,43+,44+,45+,46-,47+,48+,49+,50-,51-,52?,53-,54-,55-,56-,60+,61+,62+,63-,64-/m0/s1" "InChIKey=BAMZIPMKRIZGEQ-QLAQRCBASA-M" "molecular formula=C64H101O33" "total exact mass=1397.6230592719094" "SMILES=C1(C(C(C2C(C1)(C3C(CC2)(C4(C(=CC3)C5C(CC4)(CCC(C5)(C)C)C(OC6C(C(C(CO6)O)O)OC7C(C(C(C(O7)C)OC8C(C(C(CO8)O)O)O)O)O)=O)C)C)C)(C)C(=O)[O-])OC9OC(C(C(C9OC%10OC(C(C(C%10OC%11OC(C(C(C%11O)O)O)CO)O)O)CO)O)O)CO)O" "InChI=InChI=1S/C64H102O33/c1-23-46(92-51-43(80)34(71)27(69)21-86-51)42(79)45(82)52(88-23)93-47-35(72)28(70)22-87-54(47)97-58(85)64-14-12-59(2,3)16-25(64)24-8-9-32-60(4)17-26(68)50(63(7,57(83)84)33(60)10-11-62(32,6)61(24,5)13-15-64)96-56-49(41(78)38(75)31(20-67)91-56)95-55-48(40(77)37(74)30(19-66)90-55)94-53-44(81)39(76)36(73)29(18-65)89-53/h8,23,25-56,65-82H,9-22H2,1-7H3,(H,83,84)/p-1/t23-,25-,26-,27+,28-,29+,30+,31+,32?,33?,34-,35-,36+,37+,38+,39-,40-,41-,42-,43+,44+,45+,46-,47+,48+,49+,50-,51-,52-,53-,54-,55-,56-,60+,61+,62+,63-,64-/m0/s1" "InChIKey=BAMZIPMKRIZGEQ-RVVSSWROSA-M"
Num Peaks: 22
 112 1.301301; 
 327 1.001001; 
 390 1.201201; 
 397 1.101101; 
 564 1.001001; 
 666 2.102102; 
 683 1.001001; 
 690 1.001001; 
 1219 6.606607; 
 1220 4.404404; 
 1381 1.001001; 
 1397 100.000000; 
 1398 4.104104; 
 1398 72.372372; 
 1399 32.432432; 
 1400 11.111111; 
 1401 3.303303; 
 1465 10.410410; 
 1466 7.407407; 
 1467 3.703704; 
 1533 2.202202; 
 1534 1.801802; 


Name: 3-GlcA-28-Glc-4-Epi Hederagenin
SYNON: $:00in-source
DB#: MetaboBASE1219
InChIKey: RZQHWSDMLZHIRN-FDKLSIBUSA-N
Instrument_type: LC-ESI-TOF
Instrument: impact HD
Ion_mode: N
Collision_energy: 10
InChIKey: RZQHWSDMLZHIRN-FDKLSIBUSA-N
Formula: C42H66O15
MW: 810
ExactMass: 810.4401714119999
Comments: "license=License CC-BY-NC-SA 4.0 International" "author=Plant Biology, The Noble Foundation, Ardmore, OK, US/Dennis Fine, Daniel Wherritt, and Lloyd Sumner" "instrument type=LC-ESI-TOF" "instrument=impact HD" "ionization=ESI" "ionization mode=negative" "collision energy=10" "peak width=0.018" "date=2015-02-24 18:25:35+01:00" "column=Waters Acquity BEH C18 1.7um x 2.1 x 150 mm" "retention time=890.4" "raw data file=C:\Data\2015Feb17_UGT1_Tnt_mutant_2-A,1_01_1807.d" "SMILES=C1[C@@H]([C@@](C2[C@](C1)(C1[C@@](CC2)([C@]2(C(=CC1)[C@H]1[C@@](CC2)(CCC(C1)(C)C)C(=O)O[C@H]1[C@@H]([C@H]([C@@H]([C@H](O1)CO)O)O)O)C)C)C)(CO)C)O[C@@H]1O[C@@H]([C@H]([C@@H]([C@H]1O)O)O)C(=O)O" "InChI=InChI=1S/C42H66O15/c1-37(2)13-15-42(36(53)57-34-30(49)27(46)26(45)22(18-43)54-34)16-14-40(5)20(21(42)17-37)7-8-24-38(3)11-10-25(39(4,19-44)23(38)9-12-41(24,40)6)55-35-31(50)28(47)29(48)32(56-35)33(51)52/h7,21-32,34-35,43-50H,8-19H2,1-6H3,(H,51,52)/t21-,22+,23?,24?,25-,26+,27-,28-,29-,30+,31+,32-,34-,35+,38-,39+,40+,41+,42-/m0/s1" "InChIKey=RZQHWSDMLZHIRN-FDKLSIBUSA-N" "molecular formula=C42H66O15" "total exact mass=810.4401714119999" "SMILES=C1C(C(C2C(C1)(C3C(CC2)(C4(C(=CC3)C5C(CC4)(CCC(C5)(C)C)C(OC6C(C(C(C(O6)CO)O)O)O)=O)C)C)C)(CO)C)OC7OC(C(C(C7O)O)O)C(=O)O"
Num Peaks: 34
 728 1.501502; 
 728 1.401401; 
 809 100.000000; 
 809 28.228228; 
 810 49.749750; 
 810 5.905906; 
 811 12.512513; 
 812 2.402402; 
 843 2.302302; 
 843 2.302302; 
 859 1.701702; 
 859 1.801802; 
 860 1.301301; 
 877 5.305305; 
 878 2.602603; 
 879 1.101101; 
 909 4.404404; 
 910 2.702703; 
 911 1.301301; 
 927 1.501502; 
 945 1.101101; 
 1214 6.306306; 
 1215 8.908909; 
 1215 6.606607; 
 1216 3.803804; 
 1216 1.601602; 
 1225 1.101101; 
 1226 1.601602; 
 1226 1.201201; 
 1619 1.801802; 
 1620 1.601602; 
 1620 2.402402; 
 1621 1.101101; 
 1621 1.001001; 


Name: 3-GlcA-28-Glc oleanolic acid
SYNON: $:00in-source
DB#: MetaboBASE1220
InChIKey: YOSRLTNUOCHBEA-XFBOPQPKSA-N
Instrument_type: LC-ESI-TOF
Instrument: impact HD
Ion_mode: N
Collision_energy: 10
InChIKey: YOSRLTNUOCHBEA-XFBOPQPKSA-N
Formula: C42H66O14
MW: 794
ExactMass: 794.445256792
Comments: "license=License CC-BY-NC-SA 4.0 International" "author=Plant Biology, The Noble Foundation, Ardmore, OK, US/Dennis Fine, Daniel Wherritt, and Lloyd Sumner" "instrument type=LC-ESI-TOF" "instrument=impact HD" "ionization=ESI" "ionization mode=negative" "collision energy=10" "peak width=0.019" "date=2015-02-24 18:25:35+01:00" "column=Waters Acquity BEH C18 1.7um x 2.1 x 150 mm" "retention time=945" "raw data file=C:\Data\2015Feb17_UGT1_Tnt_mutant_2-A,1_01_1807.d" "SMILES=C1[C@@H](C(C2[C@](C1)(C1[C@@](CC2)([C@]2(C(=CC1)[C@H]1[C@@](CC2)(CCC(C1)(C)C)C(=O)O[C@H]1[C@@H]([C@H]([C@@H]([C@H](O1)CO)O)O)O)C)C)C)(C)C)O[C@@H]1O[C@@H]([C@H]([C@@H]([C@H]1O)O)O)C(=O)O" "InChI=InChI=1S/C42H66O14/c1-37(2)14-16-42(36(52)56-34-30(48)27(45)26(44)22(19-43)53-34)17-15-40(6)20(21(42)18-37)8-9-24-39(5)12-11-25(38(3,4)23(39)10-13-41(24,40)7)54-35-31(49)28(46)29(47)32(55-35)33(50)51/h8,21-32,34-35,43-49H,9-19H2,1-7H3,(H,50,51)/t21-,22+,23?,24?,25-,26+,27-,28-,29-,30+,31+,32-,34-,35+,39-,40+,41+,42-/m0/s1" "InChIKey=YOSRLTNUOCHBEA-XFBOPQPKSA-N" "molecular formula=C42H66O14" "total exact mass=794.445256792" "SMILES=C1C(C(C2C(C1)(C3C(CC2)(C4(C(=CC3)C5C(CC4)(CCC(C5)(C)C)C(OC6C(C(C(C(O6)CO)O)O)O)=O)C)C)C)(C)C)OC7OC(C(C(C7O)O)O)C(=O)O"
Num Peaks: 42
 562 1.301301; 
 712 1.101101; 
 793 100.000000; 
 793 33.133133; 
 794 48.248248; 
 794 6.606607; 
 795 11.511512; 
 796 2.402402; 
 827 2.702703; 
 827 2.802803; 
 828 1.601602; 
 843 2.102102; 
 843 2.102102; 
 844 1.501502; 
 861 5.605606; 
 862 2.802803; 
 863 1.101101; 
 893 3.303303; 
 894 2.002002; 
 895 1.101101; 
 911 2.302302; 
 912 1.401401; 
 929 1.201201; 
 933 1.101101; 
 938 1.101101; 
 938 1.001001; 
 939 1.001001; 
 1190 6.806807; 
 1191 9.409409; 
 1191 6.906907; 
 1192 3.903904; 
 1192 1.501502; 
 1201 1.001001; 
 1202 1.401401; 
 1202 1.101101; 
 1241 1.301301; 
 1241 1.001001; 
 1587 2.102102; 
 1588 2.102102; 
 1588 2.702703; 
 1589 1.501502; 
 1589 1.301301; 


Name: 3-GlcA-28-Glc oleanolic acid
SYNON: $:00in-source
DB#: MetaboBASE1221
InChIKey: YOSRLTNUOCHBEA-XFBOPQPKSA-N
Precursor_type: [M-H]-
Spectrum_type: MS2
PrecursorMZ: 793.4521
Instrument_type: LC-ESI-TOF
Instrument: impact HD
Ion_mode: N
Collision_energy: 48.5045
InChIKey: YOSRLTNUOCHBEA-XFBOPQPKSA-N
Formula: C42H66O14
MW: 794
ExactMass: 794.445256792
Comments: "license=License CC-BY-NC-SA 4.0 International" "author=Plant Biology, The Noble Foundation, Ardmore, OK, US/Dennis Fine, Daniel Wherritt, and Lloyd Sumner" "instrument type=LC-ESI-TOF" "instrument=impact HD" "ionization=ESI" "ionization mode=negative" "ms level=MS2" "precursor m/z=793.4521" "collision energy=48.5045" "collision energy 2=80.8408" "peak width=0.012" "date=2014-12-12 20:57:07+01:00" "column=Waters Acquity BEH C18 1.7um x 2.1 x 150 mm" "retention time=945" "raw data file=C:\Data\Noble-Bruker MS libr eval complex mix\Noble data\2014Dec_A17 aer rt mix MSMS_1-A,2_01_1447.d" "precursor type=[M-H]-" "mass accuracy=17.79465704358333" "mass error=0.014119208000010985" "SMILES=C1[C@@H](C(C2[C@](C1)(C1[C@@](CC2)([C@]2(C(=CC1)[C@H]1[C@@](CC2)(CCC(C1)(C)C)C(=O)O[C@H]1[C@@H]([C@H]([C@@H]([C@H](O1)CO)O)O)O)C)C)C)(C)C)O[C@@H]1O[C@@H]([C@H]([C@@H]([C@H]1O)O)O)C(=O)O" "InChI=InChI=1S/C42H66O14/c1-37(2)14-16-42(36(52)56-34-30(48)27(45)26(44)22(19-43)53-34)17-15-40(6)20(21(42)18-37)8-9-24-39(5)12-11-25(38(3,4)23(39)10-13-41(24,40)7)54-35-31(49)28(46)29(47)32(55-35)33(50)51/h8,21-32,34-35,43-49H,9-19H2,1-7H3,(H,50,51)/t21-,22+,23?,24?,25-,26+,27-,28-,29-,30+,31+,32-,34-,35+,39-,40+,41+,42-/m0/s1" "InChIKey=YOSRLTNUOCHBEA-XFBOPQPKSA-N" "molecular formula=C42H66O14" "total exact mass=794.445256792" "SMILES=C1C(C(C2C(C1)(C3C(CC2)(C4(C(=CC3)C5C(CC4)(CCC(C5)(C)C)C(OC6C(C(C(C(O6)CO)O)O)O)=O)C)C)C)(C)C)OC7OC(C(C(C7O)O)O)C(=O)O"
Num Peaks: 9
 455 8.108108; 
 569 13.413413; 
 570 1.901902; 
 631 10.210210; 
 632 3.403403; 
 793 100.000000; 
 794 40.540541; 
 795 3.703704; 
 795 6.506507; 


Name: 3-GlcA-22-(Glc(1-4)DDMP Soyasapogenol B
SYNON: $:00in-source
DB#: MetaboBASE1222
InChIKey: YJDAFFBQORMFHS-JGXZJSHWSA-N
Instrument_type: LC-ESI-TOF
Instrument: impact HD
Ion_mode: N
Collision_energy: 10
InChIKey: YJDAFFBQORMFHS-JGXZJSHWSA-N
Formula: C48H74O17
MW: 922
ExactMass: 922.492600908
Comments: "license=License CC-BY-NC-SA 4.0 International" "author=Plant Biology, The Noble Foundation, Ardmore, OK, US/Dennis Fine, Daniel Wherritt, and Lloyd Sumner" "instrument type=LC-ESI-TOF" "instrument=impact HD" "ionization=ESI" "ionization mode=negative" "collision energy=10" "peak width=0.019" "date=2015-02-24 18:25:35+01:00" "column=Waters Acquity BEH C18 1.7um x 2.1 x 150 mm" "retention time=1024.2" "raw data file=C:\Data\2015Feb17_UGT1_Tnt_mutant_2-A,1_01_1807.d" "SMILES=C1[C@@H]([C@](C2[C@](C1)(C1[C@@](CC2)([C@]2(C(=CC1)[C@H]1[C@@](CC2)([C@@H](CC(C1)(C)C)O[C@H]1OC(=C(C(=O)C1)O[C@@H]1O[C@@H]([C@H]([C@@H]([C@H]1O)O)O)CO)C)C)C)C)C)(C)CO)O[C@@H]1O[C@@H]([C@H]([C@@H]([C@H]1O)O)O)C(=O)O" "InChI=InChI=1S/C48H74O17/c1-22-38(64-41-36(56)33(53)32(52)26(20-49)61-41)25(51)17-31(60-22)62-30-19-43(2,3)18-24-23-9-10-28-45(5)13-12-29(63-42-37(57)34(54)35(55)39(65-42)40(58)59)46(6,21-50)27(45)11-14-48(28,8)47(23,7)16-15-44(24,30)4/h9,24,26-37,39,41-42,49-50,52-57H,10-21H2,1-8H3,(H,58,59)/t24-,26+,27?,28?,29-,30+,31+,32+,33-,34-,35-,36+,37+,39-,41-,42+,44+,45-,46+,47+,48+/m0/s1" "InChIKey=YJDAFFBQORMFHS-JGXZJSHWSA-N" "molecular formula=C48H74O17" "total exact mass=922.492600908" "SMILES=C1C(C(C2C(C1)(C3C(CC2)(C4(C(=CC3)C5C(CC4)(C(CC(C5)(C)C)OC6OC(=C(C(C6)=O)OC7OC(C(C(C7O)O)O)CO)C)C)C)C)C)(C)CO)OC8OC(C(C(C8O)O)O)C(=O)O"
Num Peaks: 34
 921 100.000000; 
 921 27.727728; 
 922 58.958959; 
 922 6.906907; 
 923 17.217217; 
 924 4.104104; 
 949 1.601602; 
 955 2.202202; 
 955 2.202202; 
 956 1.401401; 
 989 4.804805; 
 990 2.802803; 
 991 1.101101; 
 1021 2.602603; 
 1022 1.801802; 
 1023 1.001001; 
 1039 3.203203; 
 1040 2.202202; 
 1057 1.001001; 
 1382 4.804805; 
 1383 7.307307; 
 1383 6.406406; 
 1384 4.004004; 
 1384 1.901902; 
 1394 1.401401; 
 1394 1.201201; 
 1433 1.301301; 
 1433 1.201201; 
 1843 4.604605; 
 1844 1.201201; 
 1844 5.805806; 
 1845 1.101101; 
 1845 3.203203; 
 1846 1.101101; 


Name: 3-Glu-3,4',7-trihydroxyisoflavanone
SYNON: $:00in-source
DB#: MetaboBASE1223
InChIKey: BTODFHHNMFOZHK-FEUJFKKFSA-N
Precursor_type: [M-H]-
Spectrum_type: MS2
PrecursorMZ: 433.115
Instrument_type: LC-ESI-TOF
Instrument: impact HD
Ion_mode: N
Collision_energy: 33.7385
InChIKey: BTODFHHNMFOZHK-FEUJFKKFSA-N
Formula: C21H22O10
MW: 434
ExactMass: 434.121296904
Comments: "license=License CC-BY-NC-SA 4.0 International" "author=Plant Biology, The Noble Foundation, Ardmore, OK, US/Dennis Fine, Daniel Wherritt, and Lloyd Sumner" "instrument type=LC-ESI-TOF" "instrument=impact HD" "ionization=ESI" "ionization mode=negative" "ms level=MS2" "precursor m/z=433.115" "collision energy=33.7385" "collision energy 2=56.2308" "peak width=0.018" "date=2014-11-13 01:08:40+01:00" "column=Waters Acquity BEH C18 1.7um x 2.1 x 150 mm" "retention time=225.72" "raw data file=C:\Data\2014Nov12_A-17 aerial root MS MSMS\A-17 root MSMS_1-A,3_01_1217.d" "precursor type=[M-H]-" "mass accuracy=2.2605912978780984" "mass error=9.790959999804727E-4" "SMILES=c1(ccc2c(c1)OCC(C2=O)(c1ccc(cc1)O)O[C@H]1[C@@H]([C@H]([C@@H]([C@H](O1)CO)O)O)O)O" "InChI=InChI=1S/C21H22O10/c22-8-15-16(25)17(26)18(27)20(30-15)31-21(10-1-3-11(23)4-2-10)9-29-14-7-12(24)5-6-13(14)19(21)28/h1-7,15-18,20,22-27H,8-9H2/t15-,16-,17+,18-,20+,21?/m1/s1" "InChIKey=BTODFHHNMFOZHK-FEUJFKKFSA-N" "molecular formula=C21H22O10" "total exact mass=434.121296904" "SMILES=C1(=CC=C2C(=C1)OCC(C2=O)(C3=CC=C(C=C3)O)OC4C(C(C(C(O4)CO)O)O)O)O"
Num Peaks: 26
 108 0.500501; 
 109 1.501502; 
 117 1.001001; 
 135 2.802803; 
 136 0.300300; 
 137 0.700701; 
 137 1.201201; 
 163 0.600601; 
 163 0.200200; 
 164 0.300300; 
 165 2.302302; 
 167 0.300300; 
 223 1.001001; 
 224 2.602603; 
 225 3.603604; 
 243 7.007007; 
 244 0.400400; 
 252 0.500501; 
 253 100.000000; 
 254 15.315315; 
 255 1.201201; 
 271 4.504505; 
 327 4.804805; 
 328 0.300300; 
 433 12.412412; 
 434 2.602603; 


Name: 3-Glu-3,4',7-trihydroxyisoflavanone
SYNON: $:00in-source
DB#: MetaboBASE1224
InChIKey: BTODFHHNMFOZHK-FEUJFKKFSA-N
Instrument_type: LC-ESI-TOF
Instrument: impact HD
Ion_mode: N
InChIKey: BTODFHHNMFOZHK-FEUJFKKFSA-N
Formula: C21H22O10
MW: 434
ExactMass: 434.121296904
Comments: "license=License CC-BY-NC-SA 4.0 International" "author=Plant Biology, The Noble Foundation, Ardmore, OK, US/Dennis Fine, Daniel Wherritt, and Lloyd Sumner" "instrument type=LC-ESI-TOF" "instrument=impact HD" "ionization=ESI" "ionization mode=negative" "peak width=0.012" "date=2014-11-13 01:08:40+01:00" "column=Waters Acquity BEH C18 1.7um x 2.1 x 150 mm" "retention time=225.72" "raw data file=C:\Data\2014Nov12_A-17 aerial root MS MSMS\A-17 root MSMS_1-A,3_01_1217.d" "SMILES=c1(ccc2c(c1)OCC(C2=O)(c1ccc(cc1)O)O[C@H]1[C@@H]([C@H]([C@@H]([C@H](O1)CO)O)O)O)O" "InChI=InChI=1S/C21H22O10/c22-8-15-16(25)17(26)18(27)20(30-15)31-21(10-1-3-11(23)4-2-10)9-29-14-7-12(24)5-6-13(14)19(21)28/h1-7,15-18,20,22-27H,8-9H2/t15-,16-,17+,18-,20+,21?/m1/s1" "InChIKey=BTODFHHNMFOZHK-FEUJFKKFSA-N" "molecular formula=C21H22O10" "total exact mass=434.121296904" "SMILES=C1(=CC=C2C(=C1)OCC(C2=O)(C3=CC=C(C=C3)O)OC4C(C(C(C(O4)CO)O)O)O)O"
Num Peaks: 14
 433 100.000000; 
 433 0.100100; 
 433 0.100100; 
 434 24.324324; 
 435 5.005005; 
 436 0.100100; 
 485 1.001001; 
 501 1.201201; 
 517 1.801802; 
 578 1.501502; 
 579 0.100100; 
 867 1.901902; 
 868 1.101101; 
 869 0.100100; 


Name: 3-((3'-Malonyl)Xyl)-28-Glu Bayogenin
SYNON: $:00in-source
DB#: MetaboBASE1225
InChIKey: GCLVKIXOISSSOM-HUSOEYKKSA-N
Precursor_type: [M-H]-
Spectrum_type: MS2
PrecursorMZ: 867.4379
Instrument_type: LC-ESI-TOF
Instrument: impact HD
Ion_mode: N
Collision_energy: 51.2807
InChIKey: GCLVKIXOISSSOM-HUSOEYKKSA-N
Formula: C44H68O17
MW: 868
ExactMass: 868.4456507159999
Comments: "license=License CC-BY-NC-SA 4.0 International" "author=Plant Biology, The Noble Foundation, Ardmore, OK, US/Dennis Fine, Daniel Wherritt, and Lloyd Sumner" "instrument type=LC-ESI-TOF" "instrument=impact HD" "ionization=ESI" "ionization mode=negative" "ms level=MS2" "precursor m/z=867.4379" "collision energy=51.2807" "collision energy 2=85.4678" "peak width=0.012" "date=2014-11-13 01:08:40+01:00" "column=Waters Acquity BEH C18 1.7um x 2.1 x 150 mm" "retention time=789.42" "raw data file=C:\Data\2014Nov12_A-17 aerial root MS MSMS\A-17 root MSMS_1-A,3_01_1217.d" "precursor type=[M-H]-" "mass accuracy=0.5472622303815384" "mass error=-4.7471599987147783E-4" "SMILES=[C@H]1([C@@H]([C@@](C2[C@](C1)(C1[C@@](CC2)([C@]2(C(=CC1)[C@H]1[C@@](CC2)(CCC(C1)(C)C)C(=O)O[C@H]1[C@@H]([C@H]([C@@H]([C@H](O1)CO)O)O)O)C)C)C)(C)CO)O[C@@H]1OC[C@H]([C@@H]([C@H]1O)OC(=O)CC(=O)O)O)O" "InChI=InChI=1S/C44H68O17/c1-39(2)11-13-44(38(56)61-37-32(54)31(53)30(52)25(18-45)58-37)14-12-42(5)21(22(44)16-39)7-8-27-40(3)17-23(47)35(41(4,20-46)26(40)9-10-43(27,42)6)60-36-33(55)34(24(48)19-57-36)59-29(51)15-28(49)50/h7,22-27,30-37,45-48,52-55H,8-20H2,1-6H3,(H,49,50)/t22-,23-,24+,25+,26?,27?,30+,31-,32+,33+,34-,35-,36-,37-,40-,41-,42+,43+,44-/m0/s1" "InChIKey=GCLVKIXOISSSOM-HUSOEYKKSA-N" "molecular formula=C44H68O17" "total exact mass=868.4456507159999" "SMILES=C1(C(C(C2C(C1)(C3C(CC2)(C4(C(=CC3)C5C(CC4)(CCC(C5)(C)C)C(OC6C(C(C(C(O6)CO)O)O)O)=O)C)C)C)(C)CO)OC7OCC(C(C7O)OC(=O)CC(=O)O)O)O"
Num Peaks: 11
 99 2.102102; 
 113 5.205205; 
 487 17.017017; 
 488 2.302302; 
 601 39.239239; 
 602 8.808809; 
 645 10.310310; 
 664 1.201201; 
 867 100.000000; 
 868 37.037037; 
 869 2.402402; 


Name: 3-((3'-Malonyl)Xyl)-28-Glu Bayogenin
SYNON: $:00in-source
DB#: MetaboBASE1226
InChIKey: GCLVKIXOISSSOM-HUSOEYKKSA-N
Instrument_type: LC-ESI-TOF
Instrument: impact HD
Ion_mode: N
InChIKey: GCLVKIXOISSSOM-HUSOEYKKSA-N
Formula: C44H68O17
MW: 868
ExactMass: 868.4456507159999
Comments: "license=License CC-BY-NC-SA 4.0 International" "author=Plant Biology, The Noble Foundation, Ardmore, OK, US/Dennis Fine, Daniel Wherritt, and Lloyd Sumner" "instrument type=LC-ESI-TOF" "instrument=impact HD" "ionization=ESI" "ionization mode=negative" "peak width=0.015" "date=2014-11-13 01:08:40+01:00" "column=Waters Acquity BEH C18 1.7um x 2.1 x 150 mm" "retention time=789.42" "raw data file=C:\Data\2014Nov12_A-17 aerial root MS MSMS\A-17 root MSMS_1-A,3_01_1217.d" "SMILES=[C@H]1([C@@H]([C@@](C2[C@](C1)(C1[C@@](CC2)([C@]2(C(=CC1)[C@H]1[C@@](CC2)(CCC(C1)(C)C)C(=O)O[C@H]1[C@@H]([C@H]([C@@H]([C@H](O1)CO)O)O)O)C)C)C)(C)CO)O[C@@H]1OC[C@H]([C@@H]([C@H]1O)OC(=O)CC(=O)O)O)O" "InChI=InChI=1S/C44H68O17/c1-39(2)11-13-44(38(56)61-37-32(54)31(53)30(52)25(18-45)58-37)14-12-42(5)21(22(44)16-39)7-8-27-40(3)17-23(47)35(41(4,20-46)26(40)9-10-43(27,42)6)60-36-33(55)34(24(48)19-57-36)59-29(51)15-28(49)50/h7,22-27,30-37,45-48,52-55H,8-20H2,1-6H3,(H,49,50)/t22-,23-,24+,25+,26?,27?,30+,31-,32+,33+,34-,35-,36-,37-,40-,41-,42+,43+,44-/m0/s1" "InChIKey=GCLVKIXOISSSOM-HUSOEYKKSA-N" "molecular formula=C44H68O17" "total exact mass=868.4456507159999" "SMILES=C1(C(C(C2C(C1)(C3C(CC2)(C4(C(=CC3)C5C(CC4)(CCC(C5)(C)C)C(OC6C(C(C(C(O6)CO)O)O)O)=O)C)C)C)(C)CO)OC7OCC(C(C7O)OC(=O)CC(=O)O)O)O"
Num Peaks: 51
 558 3.503504; 
 558 1.501502; 
 666 1.101101; 
 711 22.322322; 
 712 10.810811; 
 713 3.203203; 
 733 2.502503; 
 734 0.200200; 
 795 0.100100; 
 795 1.701702; 
 826 2.302302; 
 867 0.300300; 
 867 100.000000; 
 867 0.700701; 
 867 1.401401; 
 868 49.149149; 
 868 0.200200; 
 869 0.100100; 
 869 14.914915; 
 870 4.004004; 
 890 1.301301; 
 933 0.200200; 
 933 11.511512; 
 934 6.106106; 
 934 0.900901; 
 934 1.401401; 
 935 0.200200; 
 957 6.306306; 
 958 2.802803; 
 969 3.603604; 
 970 2.002002; 
 971 1.201201; 
 987 0.100100; 
 987 1.701702; 
 988 1.201201; 
 995 2.402402; 
 996 0.200200; 
 1001 0.300300; 
 1001 2.702703; 
 1002 0.400400; 
 1003 14.114114; 
 1004 8.208208; 
 1005 2.802803; 
 1011 2.302302; 
 1012 0.100100; 
 1071 2.702703; 
 1072 0.900901; 
 1149 1.401401; 
 1150 1.601602; 
 1367 3.403403; 
 1368 2.602603; 


Name: 3-((3'-Malonyl)Xyl)-28-Glu Polygalagenin
SYNON: $:00in-source
DB#: MetaboBASE1227
InChIKey: SNGYMHPNQVEJCO-HUSOEYKKSA-N
Precursor_type: [M-H]-
Spectrum_type: MS2
PrecursorMZ: 865.4247
Instrument_type: LC-ESI-TOF
Instrument: impact HD
Ion_mode: N
Collision_energy: 51.2032
InChIKey: SNGYMHPNQVEJCO-HUSOEYKKSA-N
Formula: C44H66O17
MW: 866
ExactMass: 866.430000652
Comments: "license=License CC-BY-NC-SA 4.0 International" "author=Plant Biology, The Noble Foundation, Ardmore, OK, US/Dennis Fine, Daniel Wherritt, and Lloyd Sumner" "instrument type=LC-ESI-TOF" "instrument=impact HD" "ionization=ESI" "ionization mode=negative" "ms level=MS2" "precursor m/z=865.4247" "collision energy=51.2032" "collision energy 2=85.3386" "peak width=0.021" "date=2014-11-20 07:21:14+01:00" "column=Waters Acquity BEH C18 1.7um x 2.1 x 150 mm" "retention time=855" "raw data file=G:\Sumner Lab Data Management Workspace Jun2013\Projects\NSF-JST Metabolomics Nov2011-Sep2014\UPLC-MS-MSMS\2014Nov12_A-17 aerial root MS MSMS\A-17 root better MSMS_1-A,3_01_1296.d" "precursor type=[M-H]-" "mass accuracy=2.282518629393466" "mass error=0.0019753480000872514" "SMILES=[C@H]1([C@@H]([C@@](C2[C@](C1)(C1[C@@](CC2)([C@]2(C(=CC1)[C@H]1[C@@](CC2)(CCC(C1)(C)C)C(=O)O[C@H]1[C@@H]([C@H]([C@@H]([C@H](O1)CO)O)O)O)C)C)C)(C)C=O)O[C@@H]1OC[C@H]([C@@H]([C@H]1O)OC(=O)CC(=O)O)O)O" "InChI=InChI=1S/C44H66O17/c1-39(2)11-13-44(38(56)61-37-32(54)31(53)30(52)25(18-45)58-37)14-12-42(5)21(22(44)16-39)7-8-27-40(3)17-23(47)35(41(4,20-46)26(40)9-10-43(27,42)6)60-36-33(55)34(24(48)19-57-36)59-29(51)15-28(49)50/h7,20,22-27,30-37,45,47-48,52-55H,8-19H2,1-6H3,(H,49,50)/t22-,23-,24+,25+,26?,27?,30+,31-,32+,33+,34-,35-,36-,37-,40-,41-,42+,43+,44-/m0/s1" "InChIKey=SNGYMHPNQVEJCO-HUSOEYKKSA-N" "molecular formula=C44H66O17" "total exact mass=866.430000652" "SMILES=C1(C(C(C2C(C1)(C3C(CC2)(C4(C(=CC3)C5C(CC4)(CCC(C5)(C)C)C(OC6C(C(C(C(O6)CO)O)O)O)=O)C)C)C)(C)C=O)OC7OCC(C(C7O)OC(=O)CC(=O)O)O)O"
Num Peaks: 58
 99 4.504505; 
 99 2.902903; 
 111 2.502503; 
 113 5.105105; 
 114 1.301301; 
 139 1.401401; 
 170 1.901902; 
 217 1.701702; 
 223 1.101101; 
 250 1.201201; 
 251 1.201201; 
 253 1.101101; 
 257 1.201201; 
 467 6.106106; 
 485 28.128128; 
 486 3.703704; 
 486 3.603604; 
 527 2.302302; 
 581 13.313313; 
 582 2.802803; 
 599 81.081081; 
 600 31.431431; 
 604 1.401401; 
 608 1.201201; 
 641 1.801802; 
 642 1.101101; 
 643 12.412412; 
 644 2.202202; 
 703 3.603604; 
 703 1.101101; 
 704 2.902903; 
 823 6.606607; 
 824 1.201201; 
 865 100.000000; 
 866 47.047047; 
 866 1.701702; 
 867 7.507508; 
 867 1.101101; 
 1147 1.101101; 
 1403 1.101101; 
 1422 1.101101; 
 1514 1.401401; 
 1557 1.101101; 
 1613 1.201201; 
 1635 1.101101; 
 1662 2.402402; 
 1699 1.201201; 
 1707 1.101101; 
 1745 1.401401; 
 1774 1.101101; 
 1779 1.201201; 
 1784 1.201201; 
 1830 1.501502; 
 1890 1.201201; 
 1906 1.201201; 
 1918 1.101101; 
 1962 1.201201; 
 1974 1.401401; 


Name: 3-((3'-Malonyl)Xyl)-28-Glu Polygalagenin
SYNON: $:00in-source
DB#: MetaboBASE1228
InChIKey: SNGYMHPNQVEJCO-HUSOEYKKSA-N
Instrument_type: LC-ESI-TOF
Instrument: impact HD
Ion_mode: N
InChIKey: SNGYMHPNQVEJCO-HUSOEYKKSA-N
Formula: C44H66O17
MW: 866
ExactMass: 866.430000652
Comments: "license=License CC-BY-NC-SA 4.0 International" "author=Plant Biology, The Noble Foundation, Ardmore, OK, US/Dennis Fine, Daniel Wherritt, and Lloyd Sumner" "instrument type=LC-ESI-TOF" "instrument=impact HD" "ionization=ESI" "ionization mode=negative" "peak width=0.022" "date=2014-11-20 07:21:14+01:00" "column=Waters Acquity BEH C18 1.7um x 2.1 x 150 mm" "retention time=855" "raw data file=G:\Sumner Lab Data Management Workspace Jun2013\Projects\NSF-JST Metabolomics Nov2011-Sep2014\UPLC-MS-MSMS\2014Nov12_A-17 aerial root MS MSMS\A-17 root better MSMS_1-A,3_01_1296.d" "SMILES=[C@H]1([C@@H]([C@@](C2[C@](C1)(C1[C@@](CC2)([C@]2(C(=CC1)[C@H]1[C@@](CC2)(CCC(C1)(C)C)C(=O)O[C@H]1[C@@H]([C@H]([C@@H]([C@H](O1)CO)O)O)O)C)C)C)(C)C=O)O[C@@H]1OC[C@H]([C@@H]([C@H]1O)OC(=O)CC(=O)O)O)O" "InChI=InChI=1S/C44H66O17/c1-39(2)11-13-44(38(56)61-37-32(54)31(53)30(52)25(18-45)58-37)14-12-42(5)21(22(44)16-39)7-8-27-40(3)17-23(47)35(41(4,20-46)26(40)9-10-43(27,42)6)60-36-33(55)34(24(48)19-57-36)59-29(51)15-28(49)50/h7,20,22-27,30-37,45,47-48,52-55H,8-19H2,1-6H3,(H,49,50)/t22-,23-,24+,25+,26?,27?,30+,31-,32+,33+,34-,35-,36-,37-,40-,41-,42+,43+,44-/m0/s1" "InChIKey=SNGYMHPNQVEJCO-HUSOEYKKSA-N" "molecular formula=C44H66O17" "total exact mass=866.430000652" "SMILES=C1(C(C(C2C(C1)(C3C(CC2)(C4(C(=CC3)C5C(CC4)(CCC(C5)(C)C)C(OC6C(C(C(C(O6)CO)O)O)O)=O)C)C)C)(C)C=O)OC7OCC(C(C7O)OC(=O)CC(=O)O)O)O"
Num Peaks: 39
 128 1.001001; 
 675 1.601602; 
 725 0.800801; 
 807 1.101101; 
 837 13.713714; 
 838 6.506507; 
 838 0.500501; 
 839 2.102102; 
 865 0.500501; 
 865 100.000000; 
 865 0.500501; 
 865 0.500501; 
 865 1.401401; 
 866 46.446446; 
 866 0.400400; 
 867 12.912913; 
 868 3.103103; 
 881 7.607608; 
 882 2.902903; 
 883 1.101101; 
 887 3.603604; 
 887 1.701702; 
 888 2.002002; 
 909 12.212212; 
 909 3.003003; 
 910 5.605606; 
 910 0.700701; 
 931 9.909910; 
 932 4.304304; 
 933 1.201201; 
 949 2.002002; 
 950 0.900901; 
 953 3.103103; 
 954 1.101101; 
 993 1.301301; 
 999 2.502503; 
 1003 1.901902; 
 1009 1.401401; 
 1010 1.101101; 


Name: 3-((3'-Malonyl)Xyl)-28-Glu-2-hydroxy oleanolic acid
SYNON: $:00in-source
DB#: MetaboBASE1229
InChIKey: SEQLVCABILROHV-BAEYDANMSA-N
Precursor_type: [M-H]-
Spectrum_type: MS2
PrecursorMZ: 851.4425
Instrument_type: LC-ESI-TOF
Instrument: impact HD
Ion_mode: N
Collision_energy: 50.6807
InChIKey: SEQLVCABILROHV-BAEYDANMSA-N
Formula: C44H68O16
MW: 852
ExactMass: 852.450736096
Comments: "license=License CC-BY-NC-SA 4.0 International" "author=Plant Biology, The Noble Foundation, Ardmore, OK, US/Dennis Fine, Daniel Wherritt, and Lloyd Sumner" "instrument type=LC-ESI-TOF" "instrument=impact HD" "ionization=ESI" "ionization mode=negative" "ms level=MS2" "precursor m/z=851.4425" "collision energy=50.6807" "collision energy 2=84.4678" "peak width=0.012" "date=2014-11-13 01:08:40+01:00" "column=Waters Acquity BEH C18 1.7um x 2.1 x 150 mm" "retention time=960.18" "raw data file=C:\Data\2014Nov12_A-17 aerial root MS MSMS\A-17 root MSMS_1-A,3_01_1217.d" "precursor type=[M-H]-" "mass accuracy=1.1276110835101605" "mass error=-9.600959999715997E-4" "SMILES=[C@H]1([C@@H](C(C2[C@](C1)(C1[C@@](CC2)([C@]2(C(=CC1)[C@H]1[C@@](CC2)(CCC(C1)(C)C)C(=O)O[C@H]1[C@@H]([C@H]([C@@H]([C@H](O1)CO)O)O)O)C)C)C)(C)C)O[C@@H]1OC[C@H]([C@@H]([C@H]1O)OC(=O)CC(=O)O)O)O" "InChI=InChI=1S/C44H68O16/c1-39(2)12-14-44(38(55)60-37-32(53)31(52)30(51)25(19-45)57-37)15-13-42(6)21(22(44)17-39)8-9-27-41(5)18-23(46)35(40(3,4)26(41)10-11-43(27,42)7)59-36-33(54)34(24(47)20-56-36)58-29(50)16-28(48)49/h8,22-27,30-37,45-47,51-54H,9-20H2,1-7H3,(H,48,49)/t22-,23-,24+,25+,26?,27?,30+,31-,32+,33+,34-,35-,36-,37-,41-,42+,43+,44-/m0/s1" "InChIKey=SEQLVCABILROHV-BAEYDANMSA-N" "molecular formula=C44H68O16" "total exact mass=852.450736096" "SMILES=C1(C(C(C2C(C1)(C3C(CC2)(C4(C(=CC3)C5C(CC4)(CCC(C5)(C)C)C(OC6C(C(C(C(O6)CO)O)O)O)=O)C)C)C)(C)C)OC7OCC(C(C7O)OC(CC(O)=O)=O)O)O"
Num Peaks: 6
 471 22.222222; 
 585 81.981982; 
 586 7.507508; 
 629 7.107107; 
 851 100.000000; 
 852 42.442442; 


Name: 3-((3'-Malonyl)Xyl)-28-Glu-2-hydroxy oleanolic acid
SYNON: $:00in-source
DB#: MetaboBASE1230
InChIKey: SEQLVCABILROHV-BAEYDANMSA-N
Instrument_type: LC-ESI-TOF
Instrument: impact HD
Ion_mode: N
InChIKey: SEQLVCABILROHV-BAEYDANMSA-N
Formula: C44H68O16
MW: 852
ExactMass: 852.450736096
Comments: "license=License CC-BY-NC-SA 4.0 International" "author=Plant Biology, The Noble Foundation, Ardmore, OK, US/Dennis Fine, Daniel Wherritt, and Lloyd Sumner" "instrument type=LC-ESI-TOF" "instrument=impact HD" "ionization=ESI" "ionization mode=negative" "peak width=0.014" "date=2014-11-13 01:08:40+01:00" "column=Waters Acquity BEH C18 1.7um x 2.1 x 150 mm" "retention time=960.18" "raw data file=C:\Data\2014Nov12_A-17 aerial root MS MSMS\A-17 root MSMS_1-A,3_01_1217.d" "SMILES=[C@H]1([C@@H](C(C2[C@](C1)(C1[C@@](CC2)([C@]2(C(=CC1)[C@H]1[C@@](CC2)(CCC(C1)(C)C)C(=O)O[C@H]1[C@@H]([C@H]([C@@H]([C@H](O1)CO)O)O)O)C)C)C)(C)C)O[C@@H]1OC[C@H]([C@@H]([C@H]1O)OC(=O)CC(=O)O)O)O" "InChI=InChI=1S/C44H68O16/c1-39(2)12-14-44(38(55)60-37-32(53)31(52)30(51)25(19-45)57-37)15-13-42(6)21(22(44)17-39)8-9-27-41(5)18-23(46)35(40(3,4)26(41)10-11-43(27,42)7)59-36-33(54)34(24(47)20-56-36)58-29(50)16-28(48)49/h8,22-27,30-37,45-47,51-54H,9-20H2,1-7H3,(H,48,49)/t22-,23-,24+,25+,26?,27?,30+,31-,32+,33+,34-,35-,36-,37-,41-,42+,43+,44-/m0/s1" "InChIKey=SEQLVCABILROHV-BAEYDANMSA-N" "molecular formula=C44H68O16" "total exact mass=852.450736096" "SMILES=C1(C(C(C2C(C1)(C3C(CC2)(C4(C(=CC3)C5C(CC4)(CCC(C5)(C)C)C(OC6C(C(C(C(O6)CO)O)O)O)=O)C)C)C)(C)C)OC7OCC(C(C7O)OC(CC(O)=O)=O)O)O"
Num Peaks: 34
 220 2.002002; 
 221 2.302302; 
 236 0.100100; 
 236 6.006006; 
 293 2.302302; 
 851 100.000000; 
 851 1.901902; 
 852 45.945946; 
 852 0.500501; 
 853 6.906907; 
 854 5.205205; 
 873 3.303303; 
 873 1.801802; 
 895 11.111111; 
 895 0.800801; 
 896 6.306306; 
 897 0.700701; 
 897 2.302302; 
 897 0.200200; 
 909 6.906907; 
 917 10.310310; 
 918 5.505506; 
 919 0.100100; 
 966 2.302302; 
 966 2.302302; 
 967 1.701702; 
 967 0.100100; 
 967 0.600601; 
 985 4.704705; 
 986 0.300300; 
 1083 1.301301; 
 1099 2.402402; 
 1100 1.601602; 
 1127 1.201201; 


Name: 3-Glu(1-3)Glu-28-Xyl(1-4)Rha(1-2)Ara zanhic acid
SYNON: $:00in-source
DB#: MetaboBASE1231
InChIKey: GXDXOYYVPOQAPN-NVEWTADNSA-N
Instrument_type: LC-ESI-TOF
Instrument: impact HD
Ion_mode: N
Collision_energy: 10
InChIKey: GXDXOYYVPOQAPN-NVEWTADNSA-N
Formula: C58H92O29
MW: 1252
ExactMass: 1252.572426924
Comments: "license=License CC-BY-NC-SA 4.0 International" "author=Plant Biology, The Noble Foundation, Ardmore, OK, US/Dennis Fine, Daniel Wherritt, and Lloyd Sumner" "instrument type=LC-ESI-TOF" "instrument=impact HD" "ionization=ESI" "ionization mode=negative" "collision energy=10" "peak width=0.022" "date=2015-02-04 01:41:50+01:00" "column=Waters Acquity BEH C18 1.7um x 2.1 x 150 mm" "retention time=700.2" "raw data file=C:\Data\2015Mar17 R108 A17 root aerial for poster\A17 aerial" "Last Auto-Curation=1505111572716" "SMILES=[C@H]1([C@@H]([C@@](C2[C@](C1)(C1[C@@](CC2)([C@]2(C(=CC1)[C@H]1[C@@]([C@@H](C2)O)(CCC(C1)(C)C)C(=O)O[C@H]1[C@@H]([C@H]([C@H](CO1)O)O)O[C@H]1[C@@H]([C@@H]([C@H]([C@@H](O1)C)O[C@H]1[C@@H]([C@H]([C@@H](CO1)O)O)O)O)O)C)C)C)(C)C(=O)O)O[C@@H]1O[C@@H]([C@H]([C@@H]([C@H]1O)O[C@@H]1O[C@@H]([C@H]([C@@H]([C@H]1O)O)O)CO)O)CO)O" "InChI=InChI=1S/C58H92O29/c1-21-42(83-46-38(71)32(65)25(62)19-78-46)37(70)40(73)47(80-21)85-44-33(66)26(63)20-79-50(44)87-52(77)58-13-12-53(2,3)14-23(58)22-8-9-29-54(4)15-24(61)45(57(7,51(75)76)30(54)10-11-55(29,5)56(22,6)16-31(58)64)86-49-41(74)43(35(68)28(18-60)82-49)84-48-39(72)36(69)34(67)27(17-59)81-48/h8,21,23-50,59-74H,9-20H2,1-7H3,(H,75,76)/t21-,23-,24-,25+,26-,27+,28+,29?,30?,31+,32-,33-,34+,35+,36-,37-,38+,39+,40+,41+,42-,43-,44+,45-,46-,47-,48-,49-,50-,54+,55+,56+,57-,58+/m0/s1" "InChIKey=GXDXOYYVPOQAPN-NVEWTADNSA-N" "molecular formula=C58H92O29" "total exact mass=1252.572426924" "SMILES=[H]OC(=O)C1(C([H])([H])[H])C([H])(OC2([H])OC([H])(C([H])([H])O[H])C([H])(O[H])C([H])(OC3([H])OC([H])(C([H])([H])O[H])C([H])(O[H])C([H])(O[H])C3([H])O[H])C2([H])O[H])C([H])(O[H])C([H])([H])C4(C([H])([H])[H])C1([H])C([H])([H])C([H])([H])C5(C([H])([H])[H])C4([H])C([H])([H])C([H])=C6C7([H])C([H])([H])C(C([H])([H])[H])(C([H])([H])[H])C([H])([H])C([H])([H])C7(C(=O)OC8([H])OC([H])([H])C([H])(O[H])C([H])(O[H])C8([H])OC9([H])OC([H])(C([H])([H])[H])C([H])(OC%10([H])OC([H])([H])C([H])(O[H])C([H])(O[H])C%10([H])O[H])C([H])(O[H])C9([H])O[H])C([H])(O[H])C([H])([H])C65C([H])([H])[H]"
Num Peaks: 18
 625 11.211211; 
 625 5.205205; 
 648 8.108108; 
 651 5.605606; 
 666 5.305305; 
 1224 10.310310; 
 1236 10.310310; 
 1237 12.212212; 
 1237 9.409409; 
 1251 100.000000; 
 1252 67.567568; 
 1253 29.429429; 
 1254 5.605606; 
 1290 10.410410; 
 1319 13.113113; 
 1320 5.805806; 
 1397 12.012012; 
 1398 7.907908; 


Name: 3-Glu(1-3)Glu-28-Xyl(1-4)Rha(1-2)Ara zanhic acid
SYNON: $:00in-source
DB#: MetaboBASE1232
InChIKey: GXDXOYYVPOQAPN-NVEWTADNSA-N
Spectrum_type: MS2
PrecursorMZ: 1251.57
Instrument_type: LC-ESI-TOF
Instrument: impact HD
Ion_mode: N
Collision_energy: 65.6843
InChIKey: GXDXOYYVPOQAPN-NVEWTADNSA-N
Formula: C58H92O29
MW: 1252
ExactMass: 1252.572426924
Comments: "license=License CC-BY-NC-SA 4.0 International" "author=Plant Biology, The Noble Foundation, Ardmore, OK, US/Dennis Fine, Daniel Wherritt, and Lloyd Sumner" "instrument type=LC-ESI-TOF" "instrument=impact HD" "ionization=ESI" "ionization mode=negative" "ms level=MS2" "precursor m/z=1251.57" "collision energy=65.6843" "collision energy 2=109.474" "peak width=0.018" "date=2014-02-20 15:54:38+01:00" "column=Waters Acquity BEH C18 1.7um x 2.1 x 150 mm" "retention time=699" "raw data file=G:\Sumner Lab Data Management Workspace Jun2013\Projects\NSF-JST Metabolomics Nov2011-Sep2014\UPLC-MS-MSMS\Chan Man Ha\CCR1 20634 leaf WT-1 MSMS.d" "Last Auto-Curation=1505110307075" "SMILES=[C@H]1([C@@H]([C@@](C2[C@](C1)(C1[C@@](CC2)([C@]2(C(=CC1)[C@H]1[C@@]([C@@H](C2)O)(CCC(C1)(C)C)C(=O)O[C@H]1[C@@H]([C@H]([C@H](CO1)O)O)O[C@H]1[C@@H]([C@@H]([C@H]([C@@H](O1)C)O[C@H]1[C@@H]([C@H]([C@@H](CO1)O)O)O)O)O)C)C)C)(C)C(=O)O)O[C@@H]1O[C@@H]([C@H]([C@@H]([C@H]1O)O[C@@H]1O[C@@H]([C@H]([C@@H]([C@H]1O)O)O)CO)O)CO)O" "InChI=InChI=1S/C58H92O29/c1-21-42(83-46-38(71)32(65)25(62)19-78-46)37(70)40(73)47(80-21)85-44-33(66)26(63)20-79-50(44)87-52(77)58-13-12-53(2,3)14-23(58)22-8-9-29-54(4)15-24(61)45(57(7,51(75)76)30(54)10-11-55(29,5)56(22,6)16-31(58)64)86-49-41(74)43(35(68)28(18-60)82-49)84-48-39(72)36(69)34(67)27(17-59)81-48/h8,21,23-50,59-74H,9-20H2,1-7H3,(H,75,76)/t21-,23-,24-,25+,26-,27+,28+,29?,30?,31+,32-,33-,34+,35+,36-,37-,38+,39+,40+,41+,42-,43-,44+,45-,46-,47-,48-,49-,50-,54+,55+,56+,57-,58+/m0/s1" "InChIKey=GXDXOYYVPOQAPN-NVEWTADNSA-N" "molecular formula=C58H92O29" "total exact mass=1252.572426924" "SMILES=[H]OC(=O)C1(C([H])([H])[H])C([H])(OC2([H])OC([H])(C([H])([H])O[H])C([H])(O[H])C([H])(OC3([H])OC([H])(C([H])([H])O[H])C([H])(O[H])C([H])(O[H])C3([H])O[H])C2([H])O[H])C([H])(O[H])C([H])([H])C4(C([H])([H])[H])C1([H])C([H])([H])C([H])([H])C5(C([H])([H])[H])C4([H])C([H])([H])C([H])=C6C7([H])C([H])([H])C(C([H])([H])[H])(C([H])([H])[H])C([H])([H])C([H])([H])C7(C(=O)OC8([H])OC([H])([H])C([H])(O[H])C([H])(O[H])C8([H])OC9([H])OC([H])(C([H])([H])[H])C([H])(OC%10([H])OC([H])([H])C([H])(O[H])C([H])(O[H])C%10([H])O[H])C([H])(O[H])C9([H])O[H])C([H])(O[H])C([H])([H])C65C([H])([H])[H]"
Num Peaks: 8
 113 41.241241; 
 161 9.609610; 
 337 30.930931; 
 455 53.953954; 
 456 17.717718; 
 1251 100.000000; 
 1252 56.556557; 
 1253 18.218218; 


Name: 3-Glu(1-3)Glu-28-Xyl(1-4)Rha(1-2)Ara zanhic acid
SYNON: $:00in-source
DB#: MetaboBASE1233
InChIKey: GXDXOYYVPOQAPN-NVEWTADNSA-N
Instrument_type: LC-ESI-TOF
Instrument: impact HD
Ion_mode: N
InChIKey: GXDXOYYVPOQAPN-NVEWTADNSA-N
Formula: C58H92O29
MW: 1252
ExactMass: 1252.5724269240002
Comments: "license=License CC-BY-NC-SA 4.0 International" "author=Plant Biology, The Noble Foundation, Ardmore, OK, US/Dennis Fine, Daniel Wherritt, and Lloyd Sumner" "instrument type=LC-ESI-TOF" "instrument=impact HD" "ionization=ESI" "ionization mode=negative" "peak width=0.017" "date=2014-02-20 15:54:38+01:00" "column=Waters Acquity BEH C18 1.7um x 2.1 x 150 mm" "retention time=699" "raw data file=G:\Sumner Lab Data Management Workspace Jun2013\Projects\NSF-JST Metabolomics Nov2011-Sep2014\UPLC-MS-MSMS\Chan Man Ha\CCR1 20634 leaf WT-1 MSMS.d" "Last Auto-Curation=1505111023163" "SMILES=[C@H]1([C@@H]([C@@](C2[C@](C1)(C1[C@@](CC2)([C@]2(C(=CC1)[C@H]1[C@@]([C@@H](C2)O)(CCC(C1)(C)C)C(=O)O[C@H]1[C@@H]([C@H]([C@H](CO1)O)O)O[C@H]1[C@@H]([C@@H]([C@H]([C@@H](O1)C)O[C@H]1[C@@H]([C@H]([C@@H](CO1)O)O)O)O)O)C)C)C)(C)C(=O)O)O[C@@H]1O[C@@H]([C@H]([C@@H]([C@H]1O)O[C@@H]1O[C@@H]([C@H]([C@@H]([C@H]1O)O)O)CO)O)CO)O" "InChI=InChI=1S/C58H92O29/c1-21-42(83-46-38(71)32(65)25(62)19-78-46)37(70)40(73)47(80-21)85-44-33(66)26(63)20-79-50(44)87-52(77)58-13-12-53(2,3)14-23(58)22-8-9-29-54(4)15-24(61)45(57(7,51(75)76)30(54)10-11-55(29,5)56(22,6)16-31(58)64)86-49-41(74)43(35(68)28(18-60)82-49)84-48-39(72)36(69)34(67)27(17-59)81-48/h8,21,23-50,59-74H,9-20H2,1-7H3,(H,75,76)/t21-,23-,24-,25+,26-,27+,28+,29?,30?,31+,32-,33-,34+,35+,36-,37-,38+,39+,40+,41+,42-,43-,44+,45-,46-,47-,48-,49-,50-,54+,55+,56+,57-,58+/m0/s1" "InChIKey=GXDXOYYVPOQAPN-NVEWTADNSA-N" "molecular formula=C58H92O29" "total exact mass=1252.5724269240002" "SMILES=[H]OC(=O)C1(C([H])([H])[H])C([H])(OC2([H])OC([H])(C([H])([H])O[H])C([H])(O[H])C([H])(OC3([H])OC([H])(C([H])([H])O[H])C([H])(O[H])C([H])(O[H])C3([H])O[H])C2([H])O[H])C([H])(O[H])C([H])([H])C4(C([H])([H])[H])C1([H])C([H])([H])C([H])([H])C5(C([H])([H])[H])C4([H])C([H])([H])C([H])=C6C7([H])C([H])([H])C(C([H])([H])[H])(C([H])([H])[H])C([H])([H])C([H])([H])C7(C(=O)OC8([H])OC([H])([H])C([H])(O[H])C([H])(O[H])C8([H])OC9([H])OC([H])(C([H])([H])[H])C([H])(OC%10([H])OC([H])([H])C([H])(O[H])C([H])(O[H])C%10([H])O[H])C([H])(O[H])C9([H])O[H])C([H])(O[H])C([H])([H])C65C([H])([H])[H]"
Num Peaks: 14
 1251 100.000000; 
 1252 27.127127; 
 1252 69.869870; 
 1253 10.210210; 
 1253 20.720721; 
 1254 3.403403; 
 1319 2.602603; 
 1669 3.903904; 
 1669 6.506507; 
 1670 6.006006; 
 1670 4.104104; 
 1878 4.204204; 
 1878 5.005005; 
 1879 3.603604; 


Name: 3-(Glu(1-3)Glu)-28-(Rha(4-O-acetyl)(1-2)Ara) Zanhic acid
SYNON: $:00in-source
DB#: MetaboBASE1234
InChIKey: BFDLDIKIPJXHON-QLFUKLNHSA-N
Spectrum_type: MS2
PrecursorMZ: 580.265
Instrument_type: LC-ESI-TOF
Instrument: impact HD
Ion_mode: N
Collision_energy: 54.0141
InChIKey: BFDLDIKIPJXHON-QLFUKLNHSA-N
Formula: C55H86O26
MW: 1162
ExactMass: 1162.540732872
Comments: "license=License CC-BY-NC-SA 4.0 International" "author=Plant Biology, The Noble Foundation, Ardmore, OK, US/Dennis Fine, Daniel Wherritt, and Lloyd Sumner" "instrument type=LC-ESI-TOF" "instrument=impact HD" "ionization=ESI" "ionization mode=negative" "ms level=MS2" "precursor m/z=580.265" "collision energy=54.0141" "peak width=0.024" "date=2015-04-22 20:32:33+02:00" "column=Waters Acquity BEH C18 1.7um x 2.1 x 150 mm" "retention time=806.4" "raw data file=G:\Sumner Lab Data Management Workspace Jun2013\Projects\NSF-JST Metabolomics Nov2011-Sep2014\UPLC-MS-MSMS\Bonnie Watson\2015Apr22_BW21_MSMS_1-D,1_01_1932.d" "Last Auto-Curation=1505110308118" "SMILES=[C@H]1([C@@H]([C@@](C2[C@](C1)(C1[C@@](CC2)([C@]2(C(=CC1)[C@H]1[C@@]([C@@H](C2)O)(CCC(C1)(C)C)C(=O)O[C@H]1[C@@H]([C@H]([C@H](CO1)O)O)O[C@H]1[C@@H]([C@@H]([C@H]([C@@H](O1)C)OC(=O)C)O)O)C)C)C)(C)C(=O)O)O[C@@H]1O[C@@H]([C@H]([C@@H]([C@H]1O)O[C@@H]1O[C@@H]([C@H]([C@@H]([C@H]1O)O)O)CO)O)CO)O" "InChI=InChI=1S/C55H86O26/c1-21-40(75-22(2)58)36(66)38(68)44(74-21)79-42-32(62)26(60)20-73-47(42)81-49(72)55-14-13-50(3,4)15-24(55)23-9-10-29-51(5)16-25(59)43(54(8,48(70)71)30(51)11-12-52(29,6)53(23,7)17-31(55)61)80-46-39(69)41(34(64)28(19-57)77-46)78-45-37(67)35(65)33(63)27(18-56)76-45/h9,21,24-47,56-57,59-69H,10-20H2,1-8H3,(H,70,71)/t21-,24-,25-,26-,27+,28+,29?,30?,31+,32-,33+,34+,35-,36-,37+,38+,39+,40-,41-,42+,43-,44-,45-,46-,47-,51+,52+,53+,54-,55+/m0/s1" "InChIKey=BFDLDIKIPJXHON-QLFUKLNHSA-N" "molecular formula=C55H86O26" "total exact mass=1162.540732872" "SMILES=[H]OC(=O)C1(C([H])([H])[H])C([H])(OC2([H])OC([H])(C([H])([H])O[H])C([H])(O[H])C([H])(OC3([H])OC([H])(C([H])([H])O[H])C([H])(O[H])C([H])(O[H])C3([H])O[H])C2([H])O[H])C([H])(O[H])C([H])([H])C4(C([H])([H])[H])C1([H])C([H])([H])C([H])([H])C5(C([H])([H])[H])C4([H])C([H])([H])C([H])=C6C7([H])C([H])([H])C(C([H])([H])[H])(C([H])([H])[H])C([H])([H])C([H])([H])C7(C(=O)OC8([H])OC([H])([H])C([H])(O[H])C([H])(O[H])C8([H])OC9([H])OC([H])(C([H])([H])[H])C([H])(OC(=O)C([H])([H])[H])C([H])(O[H])C9([H])O[H])C([H])(O[H])C([H])([H])C65C([H])([H])[H]"
Num Peaks: 14
 101 3.303303; 
 113 100.000000; 
 114 4.604605; 
 119 1.101101; 
 375 2.902903; 
 375 1.201201; 
 391 40.440440; 
 392 11.311311; 
 393 29.629630; 
 394 9.209209; 
 409 7.507508; 
 455 65.865866; 
 456 22.622623; 
 457 1.101101; 


Name: 3-(Glu(1-3)Glu)-28-(Rha(4-O-acetyl)(1-2)Ara) Zanhic acid
SYNON: $:00in-source
DB#: MetaboBASE1235
InChIKey: BFDLDIKIPJXHON-QLFUKLNHSA-N
Spectrum_type: MS2
PrecursorMZ: 1161.536
Instrument_type: LC-ESI-TOF
Instrument: impact HD
Ion_mode: N
Collision_energy: 83.0788
InChIKey: BFDLDIKIPJXHON-QLFUKLNHSA-N
Formula: C55H86O26
MW: 1162
ExactMass: 1162.540732872
Comments: "license=License CC-BY-NC-SA 4.0 International" "author=Plant Biology, The Noble Foundation, Ardmore, OK, US/Dennis Fine, Daniel Wherritt, and Lloyd Sumner" "instrument type=LC-ESI-TOF" "instrument=impact HD" "ionization=ESI" "ionization mode=negative" "ms level=MS2" "precursor m/z=1161.536" "collision energy=83.0788" "peak width=0.024" "date=2015-04-22 20:32:33+02:00" "column=Waters Acquity BEH C18 1.7um x 2.1 x 150 mm" "retention time=806.4" "raw data file=G:\Sumner Lab Data Management Workspace Jun2013\Projects\NSF-JST Metabolomics Nov2011-Sep2014\UPLC-MS-MSMS\Bonnie Watson\2015Apr22_BW21_MSMS_1-D,1_01_1932.d" "Last Auto-Curation=1505110308973" "SMILES=[C@H]1([C@@H]([C@@](C2[C@](C1)(C1[C@@](CC2)([C@]2(C(=CC1)[C@H]1[C@@]([C@@H](C2)O)(CCC(C1)(C)C)C(=O)O[C@H]1[C@@H]([C@H]([C@H](CO1)O)O)O[C@H]1[C@@H]([C@@H]([C@H]([C@@H](O1)C)OC(=O)C)O)O)C)C)C)(C)C(=O)O)O[C@@H]1O[C@@H]([C@H]([C@@H]([C@H]1O)O[C@@H]1O[C@@H]([C@H]([C@@H]([C@H]1O)O)O)CO)O)CO)O" "InChI=InChI=1S/C55H86O26/c1-21-40(75-22(2)58)36(66)38(68)44(74-21)79-42-32(62)26(60)20-73-47(42)81-49(72)55-14-13-50(3,4)15-24(55)23-9-10-29-51(5)16-25(59)43(54(8,48(70)71)30(51)11-12-52(29,6)53(23,7)17-31(55)61)80-46-39(69)41(34(64)28(19-57)77-46)78-45-37(67)35(65)33(63)27(18-56)76-45/h9,21,24-47,56-57,59-69H,10-20H2,1-8H3,(H,70,71)/t21-,24-,25-,26-,27+,28+,29?,30?,31+,32-,33+,34+,35-,36-,37+,38+,39+,40-,41-,42+,43-,44-,45-,46-,47-,51+,52+,53+,54-,55+/m0/s1" "InChIKey=BFDLDIKIPJXHON-QLFUKLNHSA-N" "molecular formula=C55H86O26" "total exact mass=1162.540732872" "SMILES=[H]OC(=O)C1(C([H])([H])[H])C([H])(OC2([H])OC([H])(C([H])([H])O[H])C([H])(O[H])C([H])(OC3([H])OC([H])(C([H])([H])O[H])C([H])(O[H])C([H])(O[H])C3([H])O[H])C2([H])O[H])C([H])(O[H])C([H])([H])C4(C([H])([H])[H])C1([H])C([H])([H])C([H])([H])C5(C([H])([H])[H])C4([H])C([H])([H])C([H])=C6C7([H])C([H])([H])C(C([H])([H])[H])(C([H])([H])[H])C([H])([H])C([H])([H])C7(C(=O)OC8([H])OC([H])([H])C([H])(O[H])C([H])(O[H])C8([H])OC9([H])OC([H])(C([H])([H])[H])C([H])(OC(=O)C([H])([H])[H])C([H])(O[H])C9([H])O[H])C([H])(O[H])C([H])([H])C65C([H])([H])[H]"
Num Peaks: 36
 101 4.704705; 
 102 0.100100; 
 113 100.000000; 
 114 5.605606; 
 115 0.500501; 
 115 0.200200; 
 119 5.305305; 
 125 0.100100; 
 127 0.100100; 
 131 1.401401; 
 143 2.602603; 
 145 0.500501; 
 149 0.800801; 
 161 14.214214; 
 162 0.700701; 
 179 3.203203; 
 205 2.102102; 
 206 0.100100; 
 247 2.502503; 
 289 0.200200; 
 375 0.200200; 
 391 1.901902; 
 392 0.300300; 
 393 1.801802; 
 394 0.500501; 
 409 0.200200; 
 409 0.400400; 
 437 1.301301; 
 438 0.200200; 
 455 0.100100; 
 455 61.561562; 
 456 17.817818; 
 457 2.702703; 
 497 0.200200; 
 499 0.100100; 
 2152 0.100100; 


Name: 3-(Glu(1-3)Glu)-28-(Rha(4-O-acetyl)(1-2)Ara) Zanhic acid
SYNON: $:00in-source
DB#: MetaboBASE1236
InChIKey: BFDLDIKIPJXHON-QLFUKLNHSA-N
Instrument_type: LC-ESI-TOF
Instrument: impact HD
Ion_mode: N
Collision_energy: 10
InChIKey: BFDLDIKIPJXHON-QLFUKLNHSA-N
Formula: C55H86O26
MW: 1162
ExactMass: 1162.540732872
Comments: "license=License CC-BY-NC-SA 4.0 International" "author=Plant Biology, The Noble Foundation, Ardmore, OK, US/Dennis Fine, Daniel Wherritt, and Lloyd Sumner" "instrument type=LC-ESI-TOF" "instrument=impact HD" "ionization=ESI" "ionization mode=negative" "collision energy=10" "peak width=0.02" "date=2015-02-06 00:51:17+01:00" "column=Waters Acquity BEH C18 1.7um x 2.1 x 150 mm" "retention time=805.8" "raw data file=C:\Data\2015Mar17 R108 A17 root aerial for poster\R108 aerial" "Last Auto-Curation=1505111023954" "SMILES=[C@H]1([C@@H]([C@@](C2[C@](C1)(C1[C@@](CC2)([C@]2(C(=CC1)[C@H]1[C@@]([C@@H](C2)O)(CCC(C1)(C)C)C(=O)O[C@H]1[C@@H]([C@H]([C@H](CO1)O)O)O[C@H]1[C@@H]([C@@H]([C@H]([C@@H](O1)C)OC(=O)C)O)O)C)C)C)(C)C(=O)O)O[C@@H]1O[C@@H]([C@H]([C@@H]([C@H]1O)O[C@@H]1O[C@@H]([C@H]([C@@H]([C@H]1O)O)O)CO)O)CO)O" "InChI=InChI=1S/C55H86O26/c1-21-40(75-22(2)58)36(66)38(68)44(74-21)79-42-32(62)26(60)20-73-47(42)81-49(72)55-14-13-50(3,4)15-24(55)23-9-10-29-51(5)16-25(59)43(54(8,48(70)71)30(51)11-12-52(29,6)53(23,7)17-31(55)61)80-46-39(69)41(34(64)28(19-57)77-46)78-45-37(67)35(65)33(63)27(18-56)76-45/h9,21,24-47,56-57,59-69H,10-20H2,1-8H3,(H,70,71)/t21-,24-,25-,26-,27+,28+,29?,30?,31+,32-,33+,34+,35-,36-,37+,38+,39+,40-,41-,42+,43-,44-,45-,46-,47-,51+,52+,53+,54-,55+/m0/s1" "InChIKey=BFDLDIKIPJXHON-QLFUKLNHSA-N" "molecular formula=C55H86O26" "total exact mass=1162.540732872" "SMILES=[H]OC(=O)C1(C([H])([H])[H])C([H])(OC2([H])OC([H])(C([H])([H])O[H])C([H])(O[H])C([H])(OC3([H])OC([H])(C([H])([H])O[H])C([H])(O[H])C([H])(O[H])C3([H])O[H])C2([H])O[H])C([H])(O[H])C([H])([H])C4(C([H])([H])[H])C1([H])C([H])([H])C([H])([H])C5(C([H])([H])[H])C4([H])C([H])([H])C([H])=C6C7([H])C([H])([H])C(C([H])([H])[H])(C([H])([H])[H])C([H])([H])C([H])([H])C7(C(=O)OC8([H])OC([H])([H])C([H])(O[H])C([H])(O[H])C8([H])OC9([H])OC([H])(C([H])([H])[H])C([H])(OC(=O)C([H])([H])[H])C([H])(O[H])C9([H])O[H])C([H])(O[H])C([H])([H])C65C([H])([H])[H]"
Num Peaks: 102
 247 0.500501; 
 289 2.202202; 
 319 0.500501; 
 329 0.400400; 
 420 4.804805; 
 420 2.202202; 
 421 1.201201; 
 559 3.603604; 
 559 2.202202; 
 560 0.500501; 
 580 65.065065; 
 580 39.739740; 
 581 16.616617; 
 581 4.704705; 
 582 1.301301; 
 591 1.001001; 
 591 0.300300; 
 603 12.812813; 
 603 8.308308; 
 604 3.503504; 
 604 1.001001; 
 614 5.205205; 
 614 3.203203; 
 615 1.401401; 
 615 0.100100; 
 622 1.101101; 
 622 0.700701; 
 629 1.501502; 
 630 1.301301; 
 630 0.200200; 
 637 0.800801; 
 637 0.200200; 
 841 2.302302; 
 842 1.301301; 
 1161 0.100100; 
 1161 0.100100; 
 1161 100.000000; 
 1162 46.446446; 
 1162 71.671672; 
 1163 17.217217; 
 1163 23.623624; 
 1164 2.602603; 
 1164 5.705706; 
 1165 0.900901; 
 1183 0.800801; 
 1184 0.900901; 
 1184 0.800801; 
 1185 0.300300; 
 1187 1.001001; 
 1188 1.201201; 
 1188 0.500501; 
 1195 3.903904; 
 1196 4.804805; 
 1196 3.303303; 
 1197 1.601602; 
 1197 0.500501; 
 1203 0.500501; 
 1204 0.800801; 
 1211 1.901902; 
 1211 1.901902; 
 1212 1.501502; 
 1212 0.700701; 
 1213 0.100100; 
 1220 2.202202; 
 1221 2.802803; 
 1221 2.402402; 
 1222 1.501502; 
 1222 0.700701; 
 1229 5.405405; 
 1230 0.400400; 
 1230 3.703704; 
 1231 1.901902; 
 1231 0.600601; 
 1232 0.800801; 
 1232 0.100100; 
 1260 0.900901; 
 1261 1.501502; 
 1262 0.800801; 
 1279 0.500501; 
 1549 0.800801; 
 1549 2.102102; 
 1549 2.702703; 
 1550 2.402402; 
 1550 1.801802; 
 1550 1.001001; 
 1551 0.100100; 
 1551 0.100100; 
 1556 0.400400; 
 1557 0.400400; 
 1557 0.200200; 
 1742 3.903904; 
 1743 7.307307; 
 1743 7.407407; 
 1744 5.105105; 
 1744 2.902903; 
 1745 1.301301; 
 1753 0.300300; 
 1754 0.900901; 
 1754 1.101101; 
 1755 0.600601; 
 1937 0.400400; 
 1937 0.300300; 


Name: 3-(Glu(1-3)Glu)-28-(Rha(4-O-acetyl)(1-2)Ara) Zanhic acid
SYNON: $:00in-source
DB#: MetaboBASE1237
InChIKey: BFDLDIKIPJXHON-QLFUKLNHSA-N
Instrument_type: LC-ESI-TOF
Instrument: impact HD
Ion_mode: N
InChIKey: BFDLDIKIPJXHON-QLFUKLNHSA-N
Formula: C55H86O26
MW: 1162
ExactMass: 1162.540732872
Comments: "license=License CC-BY-NC-SA 4.0 International" "author=Plant Biology, The Noble Foundation, Ardmore, OK, US/Dennis Fine, Daniel Wherritt, and Lloyd Sumner" "instrument type=LC-ESI-TOF" "instrument=impact HD" "ionization=ESI" "ionization mode=negative" "peak width=0.017" "date=2015-04-22 20:32:33+02:00" "column=Waters Acquity BEH C18 1.7um x 2.1 x 150 mm" "retention time=806.4" "raw data file=G:\Sumner Lab Data Management Workspace Jun2013\Projects\NSF-JST Metabolomics Nov2011-Sep2014\UPLC-MS-MSMS\Bonnie Watson\2015Apr22_BW21_MSMS_1-D,1_01_1932.d" "Last Auto-Curation=1505110309994" "SMILES=[C@H]1([C@@H]([C@@](C2[C@](C1)(C1[C@@](CC2)([C@]2(C(=CC1)[C@H]1[C@@]([C@@H](C2)O)(CCC(C1)(C)C)C(=O)O[C@H]1[C@@H]([C@H]([C@H](CO1)O)O)O[C@H]1[C@@H]([C@@H]([C@H]([C@@H](O1)C)OC(=O)C)O)O)C)C)C)(C)C(=O)O)O[C@@H]1O[C@@H]([C@H]([C@@H]([C@H]1O)O[C@@H]1O[C@@H]([C@H]([C@@H]([C@H]1O)O)O)CO)O)CO)O" "InChI=InChI=1S/C55H86O26/c1-21-40(75-22(2)58)36(66)38(68)44(74-21)79-42-32(62)26(60)20-73-47(42)81-49(72)55-14-13-50(3,4)15-24(55)23-9-10-29-51(5)16-25(59)43(54(8,48(70)71)30(51)11-12-52(29,6)53(23,7)17-31(55)61)80-46-39(69)41(34(64)28(19-57)77-46)78-45-37(67)35(65)33(63)27(18-56)76-45/h9,21,24-47,56-57,59-69H,10-20H2,1-8H3,(H,70,71)/t21-,24-,25-,26-,27+,28+,29?,30?,31+,32-,33+,34+,35-,36-,37+,38+,39+,40-,41-,42+,43-,44-,45-,46-,47-,51+,52+,53+,54-,55+/m0/s1" "InChIKey=BFDLDIKIPJXHON-QLFUKLNHSA-N" "molecular formula=C55H86O26" "total exact mass=1162.540732872" "SMILES=[H]OC(=O)C1(C([H])([H])[H])C([H])(OC2([H])OC([H])(C([H])([H])O[H])C([H])(O[H])C([H])(OC3([H])OC([H])(C([H])([H])O[H])C([H])(O[H])C([H])(O[H])C3([H])O[H])C2([H])O[H])C([H])(O[H])C([H])([H])C4(C([H])([H])[H])C1([H])C([H])([H])C([H])([H])C5(C([H])([H])[H])C4([H])C([H])([H])C([H])=C6C7([H])C([H])([H])C(C([H])([H])[H])(C([H])([H])[H])C([H])([H])C([H])([H])C7(C(=O)OC8([H])OC([H])([H])C([H])(O[H])C([H])(O[H])C8([H])OC9([H])OC([H])(C([H])([H])[H])C([H])(OC(=O)C([H])([H])[H])C([H])(O[H])C9([H])O[H])C([H])(O[H])C([H])([H])C65C([H])([H])[H]"
Num Peaks: 104
 289 1.601602; 
 420 3.803804; 
 420 1.801802; 
 421 0.500501; 
 559 2.802803; 
 559 1.701702; 
 580 50.450450; 
 580 31.631632; 
 581 13.213213; 
 581 3.703704; 
 603 9.309309; 
 603 5.605606; 
 604 2.202202; 
 604 0.800801; 
 614 2.002002; 
 614 1.101101; 
 622 1.001001; 
 622 0.600601; 
 841 2.102102; 
 1124 1.001001; 
 1125 1.101101; 
 1125 0.700701; 
 1126 0.400400; 
 1161 0.200200; 
 1161 0.100100; 
 1161 100.000000; 
 1162 59.059059; 
 1162 0.200200; 
 1162 0.100100; 
 1162 75.175175; 
 1163 22.622623; 
 1163 0.100100; 
 1163 23.423423; 
 1164 3.303303; 
 1164 4.704705; 
 1165 0.100100; 
 1183 0.600601; 
 1184 0.700701; 
 1184 0.700701; 
 1185 0.300300; 
 1188 0.700701; 
 1188 0.500501; 
 1195 2.702703; 
 1196 3.303303; 
 1196 2.302302; 
 1197 1.201201; 
 1198 0.500501; 
 1199 0.600601; 
 1203 0.800801; 
 1204 1.101101; 
 1204 0.100100; 
 1211 1.201201; 
 1212 1.101101; 
 1212 0.200200; 
 1220 1.701702; 
 1221 1.701702; 
 1221 1.501502; 
 1222 0.900901; 
 1222 0.100100; 
 1229 2.102102; 
 1230 0.300300; 
 1230 1.501502; 
 1231 0.100100; 
 1549 2.602603; 
 1549 5.905906; 
 1549 7.207207; 
 1550 7.407407; 
 1550 5.105105; 
 1550 3.103103; 
 1551 1.501502; 
 1551 0.800801; 
 1556 0.500501; 
 1556 0.100100; 
 1556 0.900901; 
 1557 1.201201; 
 1557 1.101101; 
 1557 0.800801; 
 1558 0.500501; 
 1558 0.100100; 
 1742 9.309309; 
 1743 16.116116; 
 1743 0.100100; 
 1743 16.316316; 
 1744 0.100100; 
 1744 11.411411; 
 1744 0.100100; 
 1744 6.506507; 
 1745 3.003003; 
 1745 1.401401; 
 1746 0.300300; 
 1753 0.600601; 
 1754 1.301301; 
 1754 1.501502; 
 1755 1.001001; 
 1936 0.800801; 
 1936 1.701702; 
 1937 2.902903; 
 1937 3.203203; 
 1937 3.003003; 
 1938 2.102102; 
 1938 1.301301; 
 1938 0.800801; 
 1939 0.400400; 
 1939 0.200200; 


Name: 3-Rha(1-2)Ara(1-2)GluA-22-DDMP Soyasaponenol B
SYNON: $:00in-source
DB#: MetaboBASE1238
InChIKey: JNXGVLRHSYOTKM-DDSBHCDJSA-N
Spectrum_type: MS2
PrecursorMZ: 1037.533
Instrument_type: LC-ESI-TOF
Instrument: impact HD
Ion_mode: N
Collision_energy: 76.8786
InChIKey: JNXGVLRHSYOTKM-DDSBHCDJSA-N
Formula: C42H64O12
MW: 760
ExactMass: 760.4397774879999
Comments: "license=License CC-BY-NC-SA 4.0 International" "author=Plant Biology, The Noble Foundation, Ardmore, OK, US/Dennis Fine, Daniel Wherritt, and Lloyd Sumner" "instrument type=LC-ESI-TOF" "instrument=impact HD" "ionization=ESI" "ionization mode=negative" "ms level=MS2" "precursor m/z=1037.533" "collision energy=76.8786" "peak width=0.021" "date=2015-04-22 20:32:33+02:00" "column=Waters Acquity BEH C18 1.7um x 2.1 x 150 mm" "retention time=1144.8" "raw data file=G:\Sumner Lab Data Management Workspace Jun2013\Projects\NSF-JST Metabolomics Nov2011-Sep2014\UPLC-MS-MSMS\Bonnie Watson\2015Apr22_BW21_MSMS_1-D,1_01_1932.d" "SMILES=C1[C@@H]([C@@](C2[C@](C1)(C1[C@@](CC2)([C@]2(C(=CC1)[C@H]1[C@@](CC2)([C@@H](CC(C1)(C)C)OC1OC(=C(C(=O)C1)O)C)C)C)C)C)(CO)C)O[C@@H]1O[C@@H]([C@H]([C@@H]([C@H]1O)O)O)C(=O)O" "InChI=InChI=1S/C42H64O12/c1-21-30(45)24(44)17-29(51-21)52-28-19-37(2,3)18-23-22-9-10-26-39(5)13-12-27(53-36-33(48)31(46)32(47)34(54-36)35(49)50)40(6,20-43)25(39)11-14-42(26,8)41(22,7)16-15-38(23,28)4/h9,23,25-29,31-34,36,43,45-48H,10-20H2,1-8H3,(H,49,50)/t23-,25?,26?,27-,28+,29?,31-,32-,33+,34-,36+,38+,39-,40+,41+,42+/m0/s1" "InChIKey=JNXGVLRHSYOTKM-DDSBHCDJSA-N" "molecular formula=C42H64O12" "total exact mass=760.4397774879999" "SMILES=C1C(C(C2C(C1)(C3C(CC2)(C4(C(=CC3)C5C(CC4)(C(CC(C5)(C)C)OC6OC(=C(C(C6)=O)O)C)C)C)C)C)(CO)C)OC7OC(C(C(C7O)O)O)C(O)=O"
Num Peaks: 37
 99 19.319319; 
 101 6.806807; 
 103 2.502503; 
 112 2.602603; 
 113 53.153153; 
 114 1.101101; 
 115 8.408408; 
 119 1.801802; 
 125 21.521522; 
 129 1.001001; 
 131 25.425425; 
 132 1.401401; 
 139 5.405405; 
 143 20.620621; 
 145 2.202202; 
 157 10.410410; 
 163 11.011011; 
 205 25.025025; 
 206 0.700701; 
 247 3.603604; 
 435 1.201201; 
 453 0.700701; 
 457 3.103103; 
 535 2.602603; 
 581 0.900901; 
 583 29.629630; 
 584 10.710711; 
 697 7.907908; 
 741 11.911912; 
 742 1.301301; 
 891 1.501502; 
 937 2.002002; 
 937 13.513514; 
 938 6.506507; 
 1037 100.000000; 
 1038 60.060060; 
 1039 18.018018; 


Name: 3-Rha(1-2)Ara(1-2)GluA-22-DDMP Soyasaponenol B
SYNON: $:00in-source
DB#: MetaboBASE1239
InChIKey: JNXGVLRHSYOTKM-DDSBHCDJSA-N
Instrument_type: LC-ESI-TOF
Instrument: impact HD
Ion_mode: N
InChIKey: JNXGVLRHSYOTKM-DDSBHCDJSA-N
Formula: C42H64O12
MW: 760
ExactMass: 760.439777488
Comments: "license=License CC-BY-NC-SA 4.0 International" "author=Plant Biology, The Noble Foundation, Ardmore, OK, US/Dennis Fine, Daniel Wherritt, and Lloyd Sumner" "instrument type=LC-ESI-TOF" "instrument=impact HD" "ionization=ESI" "ionization mode=negative" "peak width=0.018" "date=2015-04-22 20:32:33+02:00" "column=Waters Acquity BEH C18 1.7um x 2.1 x 150 mm" "retention time=1144.8" "raw data file=G:\Sumner Lab Data Management Workspace Jun2013\Projects\NSF-JST Metabolomics Nov2011-Sep2014\UPLC-MS-MSMS\Bonnie Watson\2015Apr22_BW21_MSMS_1-D,1_01_1932.d" "SMILES=C1[C@@H]([C@@](C2[C@](C1)(C1[C@@](CC2)([C@]2(C(=CC1)[C@H]1[C@@](CC2)([C@@H](CC(C1)(C)C)OC1OC(=C(C(=O)C1)O)C)C)C)C)C)(CO)C)O[C@@H]1O[C@@H]([C@H]([C@@H]([C@H]1O)O)O)C(=O)O" "InChI=InChI=1S/C42H64O12/c1-21-30(45)24(44)17-29(51-21)52-28-19-37(2,3)18-23-22-9-10-26-39(5)13-12-27(53-36-33(48)31(46)32(47)34(54-36)35(49)50)40(6,20-43)25(39)11-14-42(26,8)41(22,7)16-15-38(23,28)4/h9,23,25-29,31-34,36,43,45-48H,10-20H2,1-8H3,(H,49,50)/t23-,25?,26?,27-,28+,29?,31-,32-,33+,34-,36+,38+,39-,40+,41+,42+/m0/s1" "InChIKey=JNXGVLRHSYOTKM-DDSBHCDJSA-N" "molecular formula=C42H64O12" "total exact mass=760.439777488" "SMILES=C1C(C(C2C(C1)(C3C(CC2)(C4(C(=CC3)C5C(CC4)(C(CC(C5)(C)C)OC6OC(=C(C(C6)=O)O)C)C)C)C)C)(CO)C)OC7OC(C(C(C7O)O)O)C(O)=O"
Num Peaks: 42
 1037 100.000000; 
 1038 0.100100; 
 1038 61.961962; 
 1039 23.523524; 
 1040 6.406406; 
 1053 2.602603; 
 1054 1.701702; 
 1067 3.203203; 
 1068 1.901902; 
 1071 1.101101; 
 1073 2.202202; 
 1083 6.006006; 
 1084 3.603604; 
 1105 6.106106; 
 1106 3.903904; 
 1155 2.302302; 
 1156 0.300300; 
 1167 2.502503; 
 1168 0.300300; 
 1556 2.202202; 
 1557 4.204204; 
 1557 3.703704; 
 1558 2.802803; 
 1558 1.401401; 
 1559 0.500501; 
 1571 1.801802; 
 1572 3.503504; 
 1572 3.503504; 
 1573 2.302302; 
 1573 1.201201; 
 1574 0.700701; 
 1587 1.001001; 
 1587 0.900901; 
 1588 0.600601; 
 2076 2.502503; 
 2076 0.800801; 
 2077 3.403403; 
 2077 0.600601; 
 2078 2.102102; 
 2106 0.100100; 
 2107 1.501502; 
 2107 0.100100; 


Name: 4'-O-(GlcA(1-2)GlcA) Apigenin
SYNON: $:00in-source
DB#: MetaboBASE1240
InChIKey: NZZPSBRODDDVIU-DBFWEQBMSA-N
Instrument_type: LC-ESI-TOF
Instrument: impact HD
Ion_mode: N
InChIKey: NZZPSBRODDDVIU-DBFWEQBMSA-N
Formula: C27H26O17
MW: 622
ExactMass: 622.116999372
Comments: "license=License CC-BY-NC-SA 4.0 International" "author=Plant Biology, The Noble Foundation, Ardmore, OK, US/Dennis Fine, Daniel Wherritt, and Lloyd Sumner" "instrument type=LC-ESI-TOF" "instrument=impact HD" "ionization=ESI" "ionization mode=negative" "peak width=0.014" "date=2015-04-28 00:51:35+02:00" "column=Waters Acquity BEH C18 1.7um x 2.1 x 150 mm" "retention time=300.24" "raw data file=C:\Data\Noble-Bruker MS libr eval complex mix\Data\Noble data\31Mar15_extended gradient\A17_A-Rt mix Noble27Apr15\2015Apr_A17AR 1-1mix Bremen_2-B,2_05_1980.d" "Last Auto-Curation=1505111024242" "SMILES=c1(cc(c2c(c1)oc(cc2=O)c1ccc(cc1)O[C@@H]1O[C@@H]([C@H]([C@@H]([C@H]1O[C@H]1[C@@H]([C@H]([C@@H]([C@H](O1)C(=O)O)O)O)O)O)O)C(=O)O)O)O" "InChI=InChI=1S/C27H26O17/c28-9-5-11(29)15-12(30)7-13(41-14(15)6-9)8-1-3-10(4-2-8)40-27-23(19(34)18(33)22(43-27)25(38)39)44-26-20(35)16(31)17(32)21(42-26)24(36)37/h1-7,16-23,26-29,31-35H,(H,36,37)(H,38,39)/t16-,17-,18-,19-,20+,21-,22-,23+,26-,27+/m0/s1" "InChIKey=NZZPSBRODDDVIU-DBFWEQBMSA-N" "molecular formula=C27H26O17" "total exact mass=622.116999372" "SMILES=[H]OC(=O)C1([H])OC([H])(OC2([H])C([H])(OC=3C([H])=C([H])C(=C([H])C3[H])C=4OC=5C([H])=C(O[H])C([H])=C(O[H])C5C(=O)C4[H])OC([H])(C(=O)O[H])C([H])(O[H])C2([H])O[H])C([H])(O[H])C([H])(O[H])C1([H])O[H]"
Num Peaks: 27
 269 8.608609; 
 270 0.200200; 
 351 27.927928; 
 352 4.004004; 
 353 0.200200; 
 399 1.201201; 
 621 100.000000; 
 622 0.100100; 
 622 32.832833; 
 623 8.808809; 
 624 2.402402; 
 639 14.314314; 
 640 0.800801; 
 640 5.105105; 
 640 0.200200; 
 641 0.200200; 
 641 2.002002; 
 643 10.910911; 
 644 4.204204; 
 645 0.500501; 
 721 4.404404; 
 722 1.801802; 
 723 0.500501; 
 1243 4.904905; 
 1243 0.200200; 
 1244 3.203203; 
 1245 0.800801; 


Name: 4'-O-(GlcA(1-2)GlcA) Apigenin
SYNON: $:00in-source
DB#: MetaboBASE1241
InChIKey: NZZPSBRODDDVIU-DBFWEQBMSA-N
Instrument_type: LC-ESI-TOF
Instrument: impact HD
Ion_mode: N
InChIKey: NZZPSBRODDDVIU-DBFWEQBMSA-N
Formula: C27H26O17
MW: 622
ExactMass: 622.116999372
Comments: "license=License CC-BY-NC-SA 4.0 International" "author=Plant Biology, The Noble Foundation, Ardmore, OK, US/Dennis Fine, Daniel Wherritt, and Lloyd Sumner" "instrument type=LC-ESI-TOF" "instrument=impact HD" "ionization=ESI" "ionization mode=negative" "peak width=0.026" "date=2015-04-28 00:51:35+02:00" "column=Waters Acquity BEH C18 1.7um x 2.1 x 150 mm" "retention time=300.24" "raw data file=C:\Data\Noble-Bruker MS libr eval complex mix\Data\Noble data\31Mar15_extended gradient\A17_A-Rt mix Noble27Apr15\2015Apr_A17AR 1-1mix Bremen_2-B,2_05_1980.d" "Last Auto-Curation=1505110310974" "SMILES=c1(cc(c2c(c1)oc(cc2=O)c1ccc(cc1)O[C@@H]1O[C@@H]([C@H]([C@@H]([C@H]1O[C@H]1[C@@H]([C@H]([C@@H]([C@H](O1)C(=O)O)O)O)O)O)O)C(=O)O)O)O" "InChI=InChI=1S/C27H26O17/c28-9-5-11(29)15-12(30)7-13(41-14(15)6-9)8-1-3-10(4-2-8)40-27-23(19(34)18(33)22(43-27)25(38)39)44-26-20(35)16(31)17(32)21(42-26)24(36)37/h1-7,16-23,26-29,31-35H,(H,36,37)(H,38,39)/t16-,17-,18-,19-,20+,21-,22-,23+,26-,27+/m0/s1" "InChIKey=NZZPSBRODDDVIU-DBFWEQBMSA-N" "molecular formula=C27H26O17" "total exact mass=622.116999372" "SMILES=[H]OC(=O)C1([H])OC([H])(OC2([H])C([H])(OC=3C([H])=C([H])C(=C([H])C3[H])C=4OC=5C([H])=C(O[H])C([H])=C(O[H])C5C(=O)C4[H])OC([H])(C(=O)O[H])C([H])(O[H])C2([H])O[H])C([H])(O[H])C([H])(O[H])C1([H])O[H]"
Num Peaks: 22
 269 6.006006; 
 351 17.317317; 
 352 2.402402; 
 387 1.301301; 
 417 3.303303; 
 613 23.623624; 
 614 7.407407; 
 615 1.701702; 
 621 100.000000; 
 622 32.632633; 
 623 8.508509; 
 624 1.601602; 
 635 2.102102; 
 639 2.702703; 
 643 16.016016; 
 644 5.105105; 
 645 1.701702; 
 705 1.801802; 
 711 1.701702; 
 721 3.603604; 
 1243 3.903904; 
 1244 2.402402; 


Name: 4'-O-(GlcA(1-2)GlcA) Apigenin
SYNON: $:00in-source
DB#: MetaboBASE1242
InChIKey: NZZPSBRODDDVIU-DBFWEQBMSA-N
Spectrum_type: MS2
PrecursorMZ: 621.1104
Instrument_type: LC-ESI-TOF
Instrument: impact HD
Ion_mode: N
Collision_energy: 42.0426
InChIKey: NZZPSBRODDDVIU-DBFWEQBMSA-N
Formula: C27H26O17
MW: 622
ExactMass: 622.116999372
Comments: "license=License CC-BY-NC-SA 4.0 International" "author=Plant Biology, The Noble Foundation, Ardmore, OK, US/Dennis Fine, Daniel Wherritt, and Lloyd Sumner" "instrument type=LC-ESI-TOF" "instrument=impact HD" "ionization=ESI" "ionization mode=negative" "ms level=MS2" "precursor m/z=621.1104" "collision energy=42.0426" "collision energy 2=70.0711" "peak width=0.018" "date=2015-04-28 00:51:35+02:00" "column=Waters Acquity BEH C18 1.7um x 2.1 x 150 mm" "retention time=300.24" "raw data file=C:\Data\Noble-Bruker MS libr eval complex mix\Data\Noble data\31Mar15_extended gradient\A17_A-Rt mix Noble27Apr15\2015Apr_A17AR 1-1mix Bremen_2-B,2_05_1980.d" "Last Auto-Curation=1505110311279" "SMILES=c1(cc(c2c(c1)oc(cc2=O)c1ccc(cc1)O[C@@H]1O[C@@H]([C@H]([C@@H]([C@H]1O[C@H]1[C@@H]([C@H]([C@@H]([C@H](O1)C(=O)O)O)O)O)O)O)C(=O)O)O)O" "InChI=InChI=1S/C27H26O17/c28-9-5-11(29)15-12(30)7-13(41-14(15)6-9)8-1-3-10(4-2-8)40-27-23(19(34)18(33)22(43-27)25(38)39)44-26-20(35)16(31)17(32)21(42-26)24(36)37/h1-7,16-23,26-29,31-35H,(H,36,37)(H,38,39)/t16-,17-,18-,19-,20+,21-,22-,23+,26-,27+/m0/s1" "InChIKey=NZZPSBRODDDVIU-DBFWEQBMSA-N" "molecular formula=C27H26O17" "total exact mass=622.116999372" "SMILES=[H]OC(=O)C1([H])OC([H])(OC2([H])C([H])(OC=3C([H])=C([H])C(=C([H])C3[H])C=4OC=5C([H])=C(O[H])C([H])=C(O[H])C5C(=O)C4[H])OC([H])(C(=O)O[H])C([H])(O[H])C2([H])O[H])C([H])(O[H])C([H])(O[H])C1([H])O[H]"
Num Peaks: 17
 99 13.313313; 
 101 1.301301; 
 103 7.407407; 
 113 62.262262; 
 114 0.700701; 
 115 2.902903; 
 117 1.501502; 
 131 1.301301; 
 157 4.604605; 
 175 14.714715; 
 193 30.330330; 
 235 5.005005; 
 269 100.000000; 
 270 12.812813; 
 289 8.808809; 
 351 65.965966; 
 352 6.306306; 


Name: 5-Glc tricin
SYNON: $:00in-source
DB#: MetaboBASE1243
InChIKey: FLSOTPIEFVBPBU-LDBVRRDLSA-N
Instrument_type: LC-ESI-TOF
Instrument: impact HD
Ion_mode: N
InChIKey: FLSOTPIEFVBPBU-LDBVRRDLSA-N
Formula: C23H24O12
MW: 492
ExactMass: 492.12677620799997
Comments: "license=License CC-BY-NC-SA 4.0 International" "author=Plant Biology, The Noble Foundation, Ardmore, OK, US/Dennis Fine, Daniel Wherritt, and Lloyd Sumner" "instrument type=LC-ESI-TOF" "instrument=impact HD" "ionization=ESI" "ionization mode=negative" "peak width=0.021" "date=2015-04-28 00:51:35+02:00" "column=Waters Acquity BEH C18 1.7um x 2.1 x 150 mm" "retention time=375.6" "raw data file=C:\Data\Noble-Bruker MS libr eval complex mix\Data\Noble data\31Mar15_extended gradient\A17_A-Rt mix Noble27Apr15\2015Apr_A17AR 1-1mix Bremen_2-B,2_05_1980.d" "SMILES=c1(cc(c2c(c1)oc(cc2=O)c1cc(c(c(c1)OC)O)OC)O[C@@H]1O[C@@H]([C@H]([C@@H]([C@H]1O)O)O)CO)O" "InChI=InChI=1S/C23H24O12/c1-31-15-3-9(4-16(32-2)19(15)27)12-7-11(26)18-13(33-12)5-10(25)6-14(18)34-23-22(30)21(29)20(28)17(8-24)35-23/h3-7,17,20-25,27-30H,8H2,1-2H3/t17-,20-,21+,22-,23-/m1/s1" "InChIKey=FLSOTPIEFVBPBU-LDBVRRDLSA-N" "molecular formula=C23H24O12" "total exact mass=492.12677620799997" "SMILES=C1(=CC(=C2C(=C1)OC(=CC2=O)C3=CC(=C(C(=C3)OC)O)OC)OC4OC(C(C(C4O)O)O)CO)O"
Num Peaks: 19
 270 2.702703; 
 270 0.300300; 
 271 0.100100; 
 409 0.100100; 
 409 1.401401; 
 409 0.100100; 
 490 0.100100; 
 490 0.200200; 
 490 0.200200; 
 490 0.100100; 
 491 0.900901; 
 491 100.000000; 
 491 0.200200; 
 491 0.100100; 
 492 0.100100; 
 492 0.200200; 
 492 0.200200; 
 492 21.421421; 
 493 1.101101; 


Name: 5-Glc tricin
SYNON: $:00in-source
DB#: MetaboBASE1244
InChIKey: FLSOTPIEFVBPBU-LDBVRRDLSA-N
Instrument_type: LC-ESI-TOF
Instrument: impact HD
Ion_mode: N
InChIKey: FLSOTPIEFVBPBU-LDBVRRDLSA-N
Formula: C23H24O12
MW: 492
ExactMass: 492.12677620799997
Comments: "license=License CC-BY-NC-SA 4.0 International" "author=Plant Biology, The Noble Foundation, Ardmore, OK, US/Dennis Fine, Daniel Wherritt, and Lloyd Sumner" "instrument type=LC-ESI-TOF" "instrument=impact HD" "ionization=ESI" "ionization mode=negative" "peak width=0.012" "date=2015-04-28 00:51:35+02:00" "column=Waters Acquity BEH C18 1.7um x 2.1 x 150 mm" "retention time=375.6" "raw data file=C:\Data\Noble-Bruker MS libr eval complex mix\Data\Noble data\31Mar15_extended gradient\A17_A-Rt mix Noble27Apr15\2015Apr_A17AR 1-1mix Bremen_2-B,2_05_1980.d" "SMILES=c1(cc(c2c(c1)oc(cc2=O)c1cc(c(c(c1)OC)O)OC)O[C@@H]1O[C@@H]([C@H]([C@@H]([C@H]1O)O)O)CO)O" "InChI=InChI=1S/C23H24O12/c1-31-15-3-9(4-16(32-2)19(15)27)12-7-11(26)18-13(33-12)5-10(25)6-14(18)34-23-22(30)21(29)20(28)17(8-24)35-23/h3-7,17,20-25,27-30H,8H2,1-2H3/t17-,20-,21+,22-,23-/m1/s1" "InChIKey=FLSOTPIEFVBPBU-LDBVRRDLSA-N" "molecular formula=C23H24O12" "total exact mass=492.12677620799997" "SMILES=C1(=CC(=C2C(=C1)OC(=CC2=O)C3=CC(=C(C(=C3)OC)O)OC)OC4OC(C(C(C4O)O)O)CO)O"
Num Peaks: 28
 116 1.001001; 
 271 0.500501; 
 406 0.600601; 
 490 10.310310; 
 491 100.000000; 
 492 28.728729; 
 493 6.306306; 
 494 1.101101; 
 590 1.201201; 
 591 0.300300; 
 621 0.900901; 
 622 0.100100; 
 623 0.600601; 
 636 0.800801; 
 982 2.402402; 
 983 26.726727; 
 984 14.414414; 
 985 5.105105; 
 986 1.401401; 
 987 0.100100; 
 1005 2.002002; 
 1006 1.001001; 
 1007 0.200200; 
 1474 1.001001; 
 1475 6.406406; 
 1476 4.704705; 
 1477 2.102102; 
 1478 0.800801; 


Name: 5-Glc tricin
SYNON: $:00in-source
DB#: MetaboBASE1245
InChIKey: FLSOTPIEFVBPBU-LDBVRRDLSA-N
Precursor_type: [M-H]-
Spectrum_type: MS2
PrecursorMZ: 491.1205
Instrument_type: LC-ESI-TOF
Instrument: impact HD
Ion_mode: N
Collision_energy: 37.0017
InChIKey: FLSOTPIEFVBPBU-LDBVRRDLSA-N
Formula: C23H24O12
MW: 492
ExactMass: 492.12677620799997
Comments: "license=License CC-BY-NC-SA 4.0 International" "author=Plant Biology, The Noble Foundation, Ardmore, OK, US/Dennis Fine, Daniel Wherritt, and Lloyd Sumner" "instrument type=LC-ESI-TOF" "instrument=impact HD" "ionization=ESI" "ionization mode=negative" "ms level=MS2" "precursor m/z=491.1205" "collision energy=37.0017" "collision energy 2=61.6696" "peak width=0.016" "date=2015-04-28 00:51:35+02:00" "column=Waters Acquity BEH C18 1.7um x 2.1 x 150 mm" "retention time=375.6" "raw data file=C:\Data\Noble-Bruker MS libr eval complex mix\Data\Noble data\31Mar15_extended gradient\A17_A-Rt mix Noble27Apr15\2015Apr_A17AR 1-1mix Bremen_2-B,2_05_1980.d" "precursor type=[M-H]-" "mass accuracy=2.0357366471486866" "mass error=9.997920000159866E-4" "SMILES=c1(cc(c2c(c1)oc(cc2=O)c1cc(c(c(c1)OC)O)OC)O[C@@H]1O[C@@H]([C@H]([C@@H]([C@H]1O)O)O)CO)O" "InChI=InChI=1S/C23H24O12/c1-31-15-3-9(4-16(32-2)19(15)27)12-7-11(26)18-13(33-12)5-10(25)6-14(18)34-23-22(30)21(29)20(28)17(8-24)35-23/h3-7,17,20-25,27-30H,8H2,1-2H3/t17-,20-,21+,22-,23-/m1/s1" "InChIKey=FLSOTPIEFVBPBU-LDBVRRDLSA-N" "molecular formula=C23H24O12" "total exact mass=492.12677620799997" "SMILES=C1(=CC(=C2C(=C1)OC(=CC2=O)C3=CC(=C(C(=C3)OC)O)OC)OC4OC(C(C(C4O)O)O)CO)O"
Num Peaks: 53
 107 0.200200; 
 151 1.001001; 
 161 0.200200; 
 215 0.300300; 
 226 1.901902; 
 227 3.103103; 
 228 0.400400; 
 229 0.200200; 
 239 0.100100; 
 241 0.700701; 
 242 0.700701; 
 242 0.200200; 
 243 5.705706; 
 244 0.700701; 
 253 0.100100; 
 255 2.502503; 
 256 0.300300; 
 257 0.100100; 
 269 0.500501; 
 270 2.202202; 
 270 0.100100; 
 271 29.529530; 
 272 4.404404; 
 283 0.300300; 
 284 1.101101; 
 285 6.406406; 
 285 0.400400; 
 286 0.900901; 
 297 0.800801; 
 299 42.442442; 
 300 11.411411; 
 300 0.600601; 
 301 1.501502; 
 312 0.300300; 
 313 7.407407; 
 314 27.027027; 
 315 7.007007; 
 316 1.001001; 
 327 0.900901; 
 328 2.302302; 
 329 100.000000; 
 330 19.119119; 
 331 2.502503; 
 343 0.200200; 
 371 2.002002; 
 372 0.300300; 
 447 1.001001; 
 461 1.701702; 
 475 3.303303; 
 476 2.302302; 
 477 0.500501; 
 491 7.707708; 
 492 2.002002; 


Name: 7-GlcA tricin
SYNON: $:00in-source
DB#: MetaboBASE1246
InChIKey: HJWFFBNADKDQPV-KHYDEXNFSA-N
Precursor_type: [M-H]-
Spectrum_type: MS2
PrecursorMZ: 505.0992
Instrument_type: LC-ESI-TOF
Instrument: impact HD
Ion_mode: N
Collision_energy: 37.692
InChIKey: HJWFFBNADKDQPV-KHYDEXNFSA-N
Formula: C23H22O13
MW: 506
ExactMass: 506.10604076399994
Comments: "license=License CC-BY-NC-SA 4.0 International" "author=Plant Biology, The Noble Foundation, Ardmore, OK, US/Dennis Fine, Daniel Wherritt, and Lloyd Sumner" "instrument type=LC-ESI-TOF" "instrument=impact HD" "ionization=ESI" "ionization mode=negative" "ms level=MS2" "precursor m/z=505.0992" "collision energy=37.692" "collision energy 2=62.82" "peak width=0.017" "date=2015-04-28 00:51:35+02:00" "column=Waters Acquity BEH C18 1.7um x 2.1 x 150 mm" "retention time=426.6" "raw data file=C:\Data\Noble-Bruker MS libr eval complex mix\Data\Noble data\31Mar15_extended gradient\A17_A-Rt mix Noble27Apr15\2015Apr_A17AR 1-1mix Bremen_2-B,2_05_1980.d" "precursor type=[M-H]-" "mass accuracy=0.8616841999431297" "mass error=4.3523600004391483E-4" "SMILES=c1(cc(c2c(c1)oc(cc2=O)c1cc(c(c(c1)OC)O)OC)O)O[C@@H]1O[C@@H]([C@H]([C@@H]([C@H]1O)O)O)C(=O)O" "InChI=InChI=1S/C23H22O13/c1-32-14-3-8(4-15(33-2)17(14)26)12-7-11(25)16-10(24)5-9(6-13(16)35-12)34-23-20(29)18(27)19(28)21(36-23)22(30)31/h3-7,18-21,23-24,26-29H,1-2H3,(H,30,31)/t18-,19-,20+,21-,23+/m0/s1" "InChIKey=HJWFFBNADKDQPV-KHYDEXNFSA-N" "molecular formula=C23H22O13" "total exact mass=506.10604076399994" "SMILES=C1(=CC(=C2C(=C1)OC(=CC2=O)C3=CC(=C(C(=C3)OC)O)OC)O)OC4OC(C(C(C4O)O)O)C(O)=O"
Num Peaks: 26
 99 2.602603; 
 113 6.606607; 
 117 1.001001; 
 227 1.101101; 
 242 1.001001; 
 243 1.401401; 
 268 0.700701; 
 270 1.901902; 
 271 63.463463; 
 272 11.011011; 
 273 0.400400; 
 285 9.009009; 
 286 0.300300; 
 297 0.700701; 
 299 65.365365; 
 300 16.216216; 
 301 0.500501; 
 313 15.715716; 
 314 48.348348; 
 315 8.808809; 
 316 0.300300; 
 327 0.300300; 
 328 4.104104; 
 329 100.000000; 
 330 20.520521; 
 331 1.501502; 


Name: 7-GlcA tricin
SYNON: $:00in-source
DB#: MetaboBASE1247
InChIKey: HJWFFBNADKDQPV-KHYDEXNFSA-N
Precursor_type: [2M-H]-
Spectrum_type: MS2
PrecursorMZ: 1011.205
Instrument_type: LC-ESI-TOF
Instrument: impact HD
Ion_mode: N
Collision_energy: 56.6718
InChIKey: HJWFFBNADKDQPV-KHYDEXNFSA-N
Formula: C23H22O13
MW: 506
ExactMass: 506.106040764
Comments: "license=License CC-BY-NC-SA 4.0 International" "author=Plant Biology, The Noble Foundation, Ardmore, OK, US/Dennis Fine, Daniel Wherritt, and Lloyd Sumner" "instrument type=LC-ESI-TOF" "instrument=impact HD" "ionization=ESI" "ionization mode=negative" "ms level=MS2" "precursor m/z=1011.205" "collision energy=56.6718" "collision energy 2=94.4529" "peak width=0.016" "date=2015-04-28 00:51:35+02:00" "column=Waters Acquity BEH C18 1.7um x 2.1 x 150 mm" "retention time=426.6" "raw data file=C:\Data\Noble-Bruker MS libr eval complex mix\Data\Noble data\31Mar15_extended gradient\A17_A-Rt mix Noble27Apr15\2015Apr_A17AR 1-1mix Bremen_2-B,2_05_1980.d" "precursor type=[2M-H]-" "mass accuracy=0.19231708712799384" "mass error=1.9447200008926302E-4" "SMILES=c1(cc(c2c(c1)oc(cc2=O)c1cc(c(c(c1)OC)O)OC)O)O[C@@H]1O[C@@H]([C@H]([C@@H]([C@H]1O)O)O)C(=O)O" "InChI=InChI=1S/C23H22O13/c1-32-14-3-8(4-15(33-2)17(14)26)12-7-11(25)16-10(24)5-9(6-13(16)35-12)34-23-20(29)18(27)19(28)21(36-23)22(30)31/h3-7,18-21,23-24,26-29H,1-2H3,(H,30,31)/t18-,19-,20+,21-,23+/m0/s1" "InChIKey=HJWFFBNADKDQPV-KHYDEXNFSA-N" "molecular formula=C23H22O13" "total exact mass=506.106040764" "SMILES=C1(=CC(=C2C(=C1)OC(=CC2=O)C3=CC(=C(C(=C3)OC)O)OC)O)OC4OC(C(C(C4O)O)O)C(O)=O"
Num Peaks: 33
 99 1.101101; 
 103 0.400400; 
 103 0.100100; 
 113 10.310310; 
 115 0.400400; 
 117 0.500501; 
 129 0.200200; 
 175 3.503504; 
 176 0.100100; 
 270 0.300300; 
 271 0.200200; 
 271 5.905906; 
 272 0.800801; 
 285 3.703704; 
 299 23.323323; 
 300 5.305305; 
 301 0.200200; 
 313 11.311311; 
 314 36.436436; 
 315 6.706707; 
 327 0.400400; 
 328 13.413413; 
 329 100.000000; 
 330 16.416416; 
 331 1.601602; 
 331 2.102102; 
 341 0.700701; 
 371 0.700701; 
 401 0.200200; 
 443 0.600601; 
 504 0.300300; 
 505 9.409409; 
 506 2.802803; 


Name: 7-GlcA tricin
SYNON: $:00in-source
DB#: MetaboBASE1248
InChIKey: HJWFFBNADKDQPV-KHYDEXNFSA-N
Instrument_type: LC-ESI-TOF
Instrument: impact HD
Ion_mode: N
InChIKey: HJWFFBNADKDQPV-KHYDEXNFSA-N
Formula: C23H22O13
MW: 506
ExactMass: 506.10604076399994
Comments: "license=License CC-BY-NC-SA 4.0 International" "author=Plant Biology, The Noble Foundation, Ardmore, OK, US/Dennis Fine, Daniel Wherritt, and Lloyd Sumner" "instrument type=LC-ESI-TOF" "instrument=impact HD" "ionization=ESI" "ionization mode=negative" "peak width=0.014" "date=2015-04-28 00:51:35+02:00" "column=Waters Acquity BEH C18 1.7um x 2.1 x 150 mm" "retention time=426.6" "raw data file=C:\Data\Noble-Bruker MS libr eval complex mix\Data\Noble data\31Mar15_extended gradient\A17_A-Rt mix Noble27Apr15\2015Apr_A17AR 1-1mix Bremen_2-B,2_05_1980.d" "SMILES=c1(cc(c2c(c1)oc(cc2=O)c1cc(c(c(c1)OC)O)OC)O)O[C@@H]1O[C@@H]([C@H]([C@@H]([C@H]1O)O)O)C(=O)O" "InChI=InChI=1S/C23H22O13/c1-32-14-3-8(4-15(33-2)17(14)26)12-7-11(25)16-10(24)5-9(6-13(16)35-12)34-23-20(29)18(27)19(28)21(36-23)22(30)31/h3-7,18-21,23-24,26-29H,1-2H3,(H,30,31)/t18-,19-,20+,21-,23+/m0/s1" "InChIKey=HJWFFBNADKDQPV-KHYDEXNFSA-N" "molecular formula=C23H22O13" "total exact mass=506.10604076399994" "SMILES=C1(=CC(=C2C(=C1)OC(=CC2=O)C3=CC(=C(C(=C3)OC)O)OC)O)OC4OC(C(C(C4O)O)O)C(O)=O"
Num Peaks: 53
 271 0.900901; 
 313 2.302302; 
 313 0.200200; 
 314 0.200200; 
 328 3.203203; 
 329 26.326326; 
 330 4.904905; 
 331 0.300300; 
 331 0.200200; 
 489 4.704705; 
 490 0.400400; 
 503 2.602603; 
 504 7.107107; 
 504 0.900901; 
 505 0.100100; 
 505 100.000000; 
 505 0.100100; 
 506 29.529530; 
 507 6.806807; 
 508 0.300300; 
 508 0.300300; 
 527 4.504505; 
 528 0.400400; 
 549 2.102102; 
 583 2.402402; 
 584 0.200200; 
 588 0.400400; 
 589 1.801802; 
 590 0.200200; 
 605 10.810811; 
 606 3.803804; 
 607 1.701702; 
 608 0.200200; 
 650 2.602603; 
 651 0.500501; 
 967 1.001001; 
 968 0.200200; 
 995 5.005005; 
 996 2.502503; 
 997 1.001001; 
 1010 12.212212; 
 1010 0.200200; 
 1011 76.476476; 
 1011 0.100100; 
 1012 42.142142; 
 1013 16.716717; 
 1014 5.105105; 
 1015 0.800801; 
 1033 6.006006; 
 1034 3.103103; 
 1035 0.800801; 
 1064 1.901902; 
 1065 0.900901; 


Name: 3-Glc(1-2)Glc(1-2)Glc-28-Api(1-3)Xyl(1-4)[Api(1-3)]Rha(1-2)Ara Zanhic acid
SYNON: $:00in-source
DB#: MetaboBASE1249
InChIKey: VNHLGJLOJBJFGV-OMOYKTNYSA-N
Instrument_type: LC-ESI-TOF
Instrument: impact HD
Ion_mode: N
InChIKey: VNHLGJLOJBJFGV-OMOYKTNYSA-N
Formula: C74H118O42
MW: 1678
ExactMass: 1678.7097678159998
Comments: "license=License CC-BY-NC-SA 4.0 International" "author=Plant Biology, The Noble Foundation, Ardmore, OK, US/Dennis Fine, Daniel Wherritt, and Lloyd Sumner" "instrument type=LC-ESI-TOF" "instrument=impact HD" "ionization=ESI" "ionization mode=negative" "peak width=0.019" "date=2015-01-15 20:34:31+01:00" "column=Waters Acquity BEH C18 1.7um x 2.1 x 150 mm" "retention time=660.6" "raw data file=C:\Data\Noble-Bruker MS libr eval complex mix\2015Jan15 A-17 aerial MSMS_1-F,4_01_1569.d" "Last Auto-Curation=1505110313269" "SMILES=[C@H]1([C@@H]([C@@](C2[C@](C1)(C1[C@@](CC2)([C@]2(C(=CC1)[C@H]1[C@@]([C@@H](C2)O)(CCC(C1)(C)C)C(=O)O[C@H]1[C@@H]([C@H]([C@H](CO1)O)O)O[C@H]1[C@@H]([C@@H]([C@H]([C@@H](O1)C)O[C@H]1[C@@H]([C@H]([C@@H](CO1)O)O[C@@H]1OC[C@@]([C@H]1O)(CO)O)O)O[C@@H]1OC[C@]([C@H]1O)(O)CO)O)C)C)C)(C)C(=O)O)O[C@@H]1O[C@@H]([C@H]([C@@H]([C@H]1O[C@@H]1O[C@@H]([C@H]([C@@H]([C@H]1O[C@@H]1O[C@@H]([C@H]([C@@H]([C@H]1O)O)O)CO)O)O)CO)O)O)CO)O" "InChI=InChI=1S/C74H118O42/c1-26-48(109-57-46(92)49(31(82)21-101-57)110-63-54(94)72(99,22-78)24-103-63)50(111-64-55(95)73(100,23-79)25-104-64)47(93)59(105-26)112-51-38(84)30(81)20-102-60(51)116-66(98)74-13-12-67(2,3)14-28(74)27-8-9-35-68(4)15-29(80)56(71(7,65(96)97)36(68)10-11-69(35,5)70(27,6)16-37(74)83)115-62-53(44(90)41(87)34(19-77)108-62)114-61-52(43(89)40(86)33(18-76)107-61)113-58-45(91)42(88)39(85)32(17-75)106-58/h8,26,28-64,75-95,99-100H,9-25H2,1-7H3,(H,96,97)/t26-,28-,29-,30-,31+,32+,33+,34+,35?,36?,37+,38-,39+,40+,41+,42-,43-,44-,45+,46+,47+,48-,49-,50-,51+,52+,53+,54-,55-,56-,57-,58-,59-,60-,61-,62-,63-,64-,68+,69+,70+,71-,72+,73+,74+/m0/s1" "InChIKey=VNHLGJLOJBJFGV-OMOYKTNYSA-N" "molecular formula=C74H118O42" "total exact mass=1678.7097678159998" "SMILES=[H]OC(=O)C1(C([H])([H])[H])C([H])(OC2([H])OC([H])(C([H])([H])O[H])C([H])(O[H])C([H])(O[H])C2([H])OC3([H])OC([H])(C([H])([H])O[H])C([H])(O[H])C([H])(O[H])C3([H])OC4([H])OC([H])(C([H])([H])O[H])C([H])(O[H])C([H])(O[H])C4([H])O[H])C([H])(O[H])C([H])([H])C5(C([H])([H])[H])C1([H])C([H])([H])C([H])([H])C6(C([H])([H])[H])C5([H])C([H])([H])C([H])=C7C8([H])C([H])([H])C(C([H])([H])[H])(C([H])([H])[H])C([H])([H])C([H])([H])C8(C(=O)OC9([H])OC([H])([H])C([H])(O[H])C([H])(O[H])C9([H])OC%10([H])OC([H])(C([H])([H])[H])C([H])(OC%11([H])OC([H])([H])C([H])(O[H])C([H])(OC%12([H])OC([H])([H])C(O[H])(C([H])([H])O[H])C%12([H])O[H])C%11([H])O[H])C([H])(OC%13([H])OC([H])([H])C(O[H])(C([H])([H])O[H])C%13([H])O[H])C%10([H])O[H])C([H])(O[H])C([H])([H])C76C([H])([H])[H]"
Num Peaks: 30
 477 0.400400; 
 477 1.101101; 
 477 0.800801; 
 557 0.800801; 
 721 2.902903; 
 721 1.801802; 
 722 1.901902; 
 722 0.600601; 
 838 15.715716; 
 838 12.612613; 
 839 7.007007; 
 839 2.402402; 
 1537 3.203203; 
 1538 6.106106; 
 1538 5.005005; 
 1539 2.702703; 
 1539 0.600601; 
 1677 0.500501; 
 1677 100.000000; 
 1678 1.701702; 
 1678 81.081081; 
 1679 0.400400; 
 1679 46.946947; 
 1680 16.316316; 
 1681 4.804805; 
 1745 12.012012; 
 1746 0.400400; 
 1746 8.308308; 
 1747 4.004004; 
 1748 0.700701; 


Name: 3-Glc(1-2)Glc(1-2)Glc-28-Api(1-3)Xyl(1-4)[Api(1-3)]Rha(1-2)Ara Zanhic acid
SYNON: $:00in-source
DB#: MetaboBASE1250
InChIKey: VNHLGJLOJBJFGV-OMOYKTNYSA-N
Spectrum_type: MS2
PrecursorMZ: 1677.698
Instrument_type: LC-ESI-TOF
Instrument: impact HD
Ion_mode: N
Collision_energy: 105.924
InChIKey: VNHLGJLOJBJFGV-OMOYKTNYSA-N
Formula: C74H118O42
MW: 1678
ExactMass: 1678.7097678159998
Comments: "license=License CC-BY-NC-SA 4.0 International" "author=Plant Biology, The Noble Foundation, Ardmore, OK, US/Dennis Fine, Daniel Wherritt, and Lloyd Sumner" "instrument type=LC-ESI-TOF" "instrument=impact HD" "ionization=ESI" "ionization mode=negative" "ms level=MS2" "precursor m/z=1677.698" "collision energy=105.924" "peak width=0.018" "date=2015-01-15 20:34:31+01:00" "column=Waters Acquity BEH C18 1.7um x 2.1 x 150 mm" "retention time=660.6" "raw data file=C:\Data\Noble-Bruker MS libr eval complex mix\2015Jan15 A-17 aerial MSMS_1-F,4_01_1569.d" "Last Auto-Curation=1505111025769" "SMILES=[C@H]1([C@@H]([C@@](C2[C@](C1)(C1[C@@](CC2)([C@]2(C(=CC1)[C@H]1[C@@]([C@@H](C2)O)(CCC(C1)(C)C)C(=O)O[C@H]1[C@@H]([C@H]([C@H](CO1)O)O)O[C@H]1[C@@H]([C@@H]([C@H]([C@@H](O1)C)O[C@H]1[C@@H]([C@H]([C@@H](CO1)O)O[C@@H]1OC[C@@]([C@H]1O)(CO)O)O)O[C@@H]1OC[C@]([C@H]1O)(O)CO)O)C)C)C)(C)C(=O)O)O[C@@H]1O[C@@H]([C@H]([C@@H]([C@H]1O[C@@H]1O[C@@H]([C@H]([C@@H]([C@H]1O[C@@H]1O[C@@H]([C@H]([C@@H]([C@H]1O)O)O)CO)O)O)CO)O)O)CO)O" "InChI=InChI=1S/C74H118O42/c1-26-48(109-57-46(92)49(31(82)21-101-57)110-63-54(94)72(99,22-78)24-103-63)50(111-64-55(95)73(100,23-79)25-104-64)47(93)59(105-26)112-51-38(84)30(81)20-102-60(51)116-66(98)74-13-12-67(2,3)14-28(74)27-8-9-35-68(4)15-29(80)56(71(7,65(96)97)36(68)10-11-69(35,5)70(27,6)16-37(74)83)115-62-53(44(90)41(87)34(19-77)108-62)114-61-52(43(89)40(86)33(18-76)107-61)113-58-45(91)42(88)39(85)32(17-75)106-58/h8,26,28-64,75-95,99-100H,9-25H2,1-7H3,(H,96,97)/t26-,28-,29-,30-,31+,32+,33+,34+,35?,36?,37+,38-,39+,40+,41+,42-,43-,44-,45+,46+,47+,48-,49-,50-,51+,52+,53+,54-,55-,56-,57-,58-,59-,60-,61-,62-,63-,64-,68+,69+,70+,71-,72+,73+,74+/m0/s1" "InChIKey=VNHLGJLOJBJFGV-OMOYKTNYSA-N" "molecular formula=C74H118O42" "total exact mass=1678.7097678159998" "SMILES=[H]OC(=O)C1(C([H])([H])[H])C([H])(OC2([H])OC([H])(C([H])([H])O[H])C([H])(O[H])C([H])(O[H])C2([H])OC3([H])OC([H])(C([H])([H])O[H])C([H])(O[H])C([H])(O[H])C3([H])OC4([H])OC([H])(C([H])([H])O[H])C([H])(O[H])C([H])(O[H])C4([H])O[H])C([H])(O[H])C([H])([H])C5(C([H])([H])[H])C1([H])C([H])([H])C([H])([H])C6(C([H])([H])[H])C5([H])C([H])([H])C([H])=C7C8([H])C([H])([H])C(C([H])([H])[H])(C([H])([H])[H])C([H])([H])C([H])([H])C8(C(=O)OC9([H])OC([H])([H])C([H])(O[H])C([H])(O[H])C9([H])OC%10([H])OC([H])(C([H])([H])[H])C([H])(OC%11([H])OC([H])([H])C([H])(O[H])C([H])(OC%12([H])OC([H])([H])C(O[H])(C([H])([H])O[H])C%12([H])O[H])C%11([H])O[H])C([H])(OC%13([H])OC([H])([H])C(O[H])(C([H])([H])O[H])C%13([H])O[H])C%10([H])O[H])C([H])(O[H])C([H])([H])C76C([H])([H])[H]"
Num Peaks: 27
 113 1.101101; 
 149 1.401401; 
 221 6.706707; 
 263 9.709710; 
 337 9.109109; 
 383 33.433433; 
 384 2.202202; 
 409 3.103103; 
 455 22.822823; 
 456 4.804805; 
 469 43.443443; 
 470 6.306306; 
 541 21.521522; 
 542 2.302302; 
 601 100.000000; 
 602 23.623624; 
 603 1.801802; 
 673 14.114114; 
 674 4.704705; 
 1003 12.312312; 
 1004 3.903904; 
 1129 9.709710; 
 1677 91.891892; 
 1678 1.901902; 
 1678 71.671672; 
 1679 33.333333; 
 1680 8.608609; 


Name: 3-((3'-Malonyl)GlcA)-28-Xyl(1-4)Rha(1-2)Ara Medicagenic acid
SYNON: $:00in-source
DB#: MetaboBASE1251
InChIKey: IPLMQKWUDWDMPO-USYHJYQFSA-N
Instrument_type: LC-ESI-TOF
Instrument: impact HD
Ion_mode: N
InChIKey: IPLMQKWUDWDMPO-USYHJYQFSA-N
Formula: C55H82O27
MW: 1174
ExactMass: 1174.5043473639998
Comments: "license=License CC-BY-NC-SA 4.0 International" "author=Plant Biology, The Noble Foundation, Ardmore, OK, US/Dennis Fine, Daniel Wherritt, and Lloyd Sumner" "instrument type=LC-ESI-TOF" "instrument=impact HD" "ionization=ESI" "ionization mode=negative" "peak width=0.022" "date=2014-12-08 16:36:29+01:00" "column=Waters Acquity BEH C18 1.7um x 2.1 x 150 mm" "retention time=837.6" "raw data file=C:\Data\2014Dec08_A17_aerial_msms_1-B,1_01_1378.d" "Last Auto-Curation=1505111493479" "SMILES=[C@H]1([C@@H]([C@@](C2[C@](C1)(C1[C@@](CC2)([C@]2(C(=CC1)[C@H]1[C@@](CC2)(CCC(C1)(C)C)C(=O)O[C@H]1[C@@H]([C@H]([C@H](CO1)O)O)O[C@H]1[C@@H]([C@@H]([C@H]([C@@H](O1)C)O[C@H]1[C@@H]([C@H]([C@@H](CO1)O)O)O)O)O)C)C)C)(C)C(=O)O)O[C@@H]1O[C@@H]([C@H]([C@@H]([C@H]1O)OC(=O)CC(=O)O)O)C(=O)O)O" "InChI=InChI=1S/C55H82O27/c1-21-38(78-44-34(65)31(62)25(57)19-74-44)33(64)35(66)45(76-21)80-41-32(63)26(58)20-75-47(41)82-49(73)55-14-12-50(2,3)17-23(55)22-8-9-27-51(4)18-24(56)42(54(7,48(71)72)28(51)10-11-53(27,6)52(22,5)13-15-55)81-46-37(68)39(77-30(61)16-29(59)60)36(67)40(79-46)43(69)70/h8,21,23-28,31-42,44-47,56-58,62-68H,9-20H2,1-7H3,(H,59,60)(H,69,70)(H,71,72)/t21-,23-,24-,25+,26-,27?,28?,31-,32-,33-,34+,35+,36-,37+,38-,39-,40-,41+,42-,44-,45-,46-,47-,51+,52+,53+,54-,55-/m0/s1" "InChIKey=IPLMQKWUDWDMPO-USYHJYQFSA-N" "molecular formula=C55H82O27" "total exact mass=1174.5043473639998" "SMILES=[H]OC(=O)C([H])([H])C(=O)OC1([H])C([H])(O[H])C([H])(OC([H])(C(=O)O[H])C1([H])O[H])OC2([H])C([H])(O[H])C([H])([H])C3(C([H])([H])[H])C([H])(C([H])([H])C([H])([H])C4(C([H])([H])[H])C3([H])C([H])([H])C([H])=C5C6([H])C([H])([H])C(C([H])([H])[H])(C([H])([H])[H])C([H])([H])C([H])([H])C6(C(=O)OC7([H])OC([H])([H])C([H])(O[H])C([H])(O[H])C7([H])OC8([H])OC([H])(C([H])([H])[H])C([H])(OC9([H])OC([H])([H])C([H])(O[H])C([H])(O[H])C9([H])O[H])C([H])(O[H])C8([H])O[H])C([H])([H])C([H])([H])C54C([H])([H])[H])C2(C(=O)O[H])C([H])([H])[H]"
Num Peaks: 26
 564 15.315315; 
 564 10.710711; 
 565 5.405405; 
 565 1.901902; 
 815 3.903904; 
 816 1.701702; 
 1109 4.004004; 
 1110 0.300300; 
 1173 100.000000; 
 1173 0.500501; 
 1173 0.400400; 
 1173 0.300300; 
 1174 61.861862; 
 1174 0.400400; 
 1174 0.300300; 
 1175 0.300300; 
 1175 24.424424; 
 1176 7.507508; 
 1177 0.400400; 
 1195 9.909910; 
 1195 0.600601; 
 1196 6.106106; 
 1197 0.600601; 
 1217 2.002002; 
 1217 0.400400; 
 1218 0.400400; 


Name: 3-((3'-Malonyl)GlcA)-28-Xyl(1-4)Rha(1-2)Ara Medicagenic acid
SYNON: $:00in-source
DB#: MetaboBASE1252
InChIKey: IPLMQKWUDWDMPO-USYHJYQFSA-N
Spectrum_type: MS2
PrecursorMZ: 1173.492
Instrument_type: LC-ESI-TOF
Instrument: impact HD
Ion_mode: N
Collision_energy: 62.7562
InChIKey: IPLMQKWUDWDMPO-USYHJYQFSA-N
Formula: C55H82O27
MW: 1174
ExactMass: 1174.5043473639998
Comments: "license=License CC-BY-NC-SA 4.0 International" "author=Plant Biology, The Noble Foundation, Ardmore, OK, US/Dennis Fine, Daniel Wherritt, and Lloyd Sumner" "instrument type=LC-ESI-TOF" "instrument=impact HD" "ionization=ESI" "ionization mode=negative" "ms level=MS2" "precursor m/z=1173.492" "collision energy=62.7562" "collision energy 2=104.594" "peak width=0.024" "date=2014-12-08 16:36:29+01:00" "column=Waters Acquity BEH C18 1.7um x 2.1 x 150 mm" "retention time=837.6" "raw data file=C:\Data\2014Dec08_A17_aerial_msms_1-B,1_01_1378.d" "Last Auto-Curation=1505110315712" "SMILES=[C@H]1([C@@H]([C@@](C2[C@](C1)(C1[C@@](CC2)([C@]2(C(=CC1)[C@H]1[C@@](CC2)(CCC(C1)(C)C)C(=O)O[C@H]1[C@@H]([C@H]([C@H](CO1)O)O)O[C@H]1[C@@H]([C@@H]([C@H]([C@@H](O1)C)O[C@H]1[C@@H]([C@H]([C@@H](CO1)O)O)O)O)O)C)C)C)(C)C(=O)O)O[C@@H]1O[C@@H]([C@H]([C@@H]([C@H]1O)OC(=O)CC(=O)O)O)C(=O)O)O" "InChI=InChI=1S/C55H82O27/c1-21-38(78-44-34(65)31(62)25(57)19-74-44)33(64)35(66)45(76-21)80-41-32(63)26(58)20-75-47(41)82-49(73)55-14-12-50(2,3)17-23(55)22-8-9-27-51(4)18-24(56)42(54(7,48(71)72)28(51)10-11-53(27,6)52(22,5)13-15-55)81-46-37(68)39(77-30(61)16-29(59)60)36(67)40(79-46)43(69)70/h8,21,23-28,31-42,44-47,56-58,62-68H,9-20H2,1-7H3,(H,59,60)(H,69,70)(H,71,72)/t21-,23-,24-,25+,26-,27?,28?,31-,32-,33-,34+,35+,36-,37+,38-,39-,40-,41+,42-,44-,45-,46-,47-,51+,52+,53+,54-,55-/m0/s1" "InChIKey=IPLMQKWUDWDMPO-USYHJYQFSA-N" "molecular formula=C55H82O27" "total exact mass=1174.5043473639998" "SMILES=[H]OC(=O)C([H])([H])C(=O)OC1([H])C([H])(O[H])C([H])(OC([H])(C(=O)O[H])C1([H])O[H])OC2([H])C([H])(O[H])C([H])([H])C3(C([H])([H])[H])C([H])(C([H])([H])C([H])([H])C4(C([H])([H])[H])C3([H])C([H])([H])C([H])=C5C6([H])C([H])([H])C(C([H])([H])[H])(C([H])([H])[H])C([H])([H])C([H])([H])C6(C(=O)OC7([H])OC([H])([H])C([H])(O[H])C([H])(O[H])C7([H])OC8([H])OC([H])(C([H])([H])[H])C([H])(OC9([H])OC([H])([H])C([H])(O[H])C([H])(O[H])C9([H])O[H])C([H])(O[H])C8([H])O[H])C([H])([H])C([H])([H])C54C([H])([H])[H])C2(C(=O)O[H])C([H])([H])[H]"
Num Peaks: 250
 99 0.500501; 
 113 0.800801; 
 113 100.000000; 
 114 5.005005; 
 115 0.500501; 
 115 1.501502; 
 116 1.001001; 
 131 4.404404; 
 175 51.051051; 
 176 0.800801; 
 176 1.901902; 
 179 0.500501; 
 193 2.802803; 
 193 1.501502; 
 193 1.301301; 
 215 0.500501; 
 215 0.600601; 
 217 0.500501; 
 218 0.500501; 
 219 0.600601; 
 219 0.600601; 
 220 0.500501; 
 220 0.500501; 
 221 0.500501; 
 232 0.500501; 
 232 0.800801; 
 232 0.500501; 
 233 0.500501; 
 234 0.500501; 
 235 40.440440; 
 235 0.500501; 
 235 0.500501; 
 236 2.502503; 
 260 0.500501; 
 266 0.500501; 
 270 0.500501; 
 272 0.500501; 
 273 0.600601; 
 281 0.700701; 
 292 0.500501; 
 292 0.500501; 
 297 0.500501; 
 298 0.500501; 
 307 0.500501; 
 310 0.500501; 
 310 0.500501; 
 316 0.500501; 
 318 0.500501; 
 320 0.500501; 
 321 0.500501; 
 321 0.500501; 
 322 0.500501; 
 322 0.600601; 
 322 0.500501; 
 323 0.700701; 
 324 0.700701; 
 324 0.600601; 
 324 0.500501; 
 324 0.700701; 
 325 0.500501; 
 325 0.500501; 
 326 0.500501; 
 326 0.500501; 
 326 0.500501; 
 326 0.500501; 
 328 0.600601; 
 329 0.500501; 
 329 0.700701; 
 329 0.500501; 
 329 1.101101; 
 329 0.500501; 
 331 0.600601; 
 331 0.500501; 
 331 0.500501; 
 331 0.500501; 
 332 0.500501; 
 332 0.500501; 
 333 0.500501; 
 333 0.600601; 
 333 0.500501; 
 333 0.500501; 
 333 0.500501; 
 334 0.500501; 
 336 0.500501; 
 336 0.500501; 
 337 1.101101; 
 337 0.600601; 
 342 0.500501; 
 344 0.600601; 
 354 0.500501; 
 373 0.600601; 
 409 0.600601; 
 439 12.912913; 
 440 3.903904; 
 476 0.600601; 
 477 0.600601; 
 480 0.500501; 
 483 0.600601; 
 501 3.003003; 
 502 1.001001; 
 502 0.600601; 
 520 0.500501; 
 532 0.500501; 
 547 0.700701; 
 580 0.500501; 
 590 0.500501; 
 597 0.500501; 
 668 0.500501; 
 680 0.500501; 
 682 0.500501; 
 714 0.500501; 
 719 0.600601; 
 719 0.600601; 
 732 0.500501; 
 742 0.500501; 
 765 0.500501; 
 766 0.500501; 
 767 0.500501; 
 772 0.500501; 
 789 0.600601; 
 810 0.900901; 
 818 0.500501; 
 824 0.500501; 
 841 0.500501; 
 847 0.500501; 
 850 0.500501; 
 854 0.500501; 
 890 0.500501; 
 903 0.500501; 
 905 0.500501; 
 908 0.600601; 
 911 3.903904; 
 912 1.501502; 
 914 0.500501; 
 915 0.500501; 
 923 0.500501; 
 926 0.500501; 
 949 0.500501; 
 983 0.500501; 
 988 0.500501; 
 1021 0.500501; 
 1025 4.004004; 
 1026 0.500501; 
 1026 1.401401; 
 1038 0.600601; 
 1039 0.700701; 
 1044 0.500501; 
 1052 0.500501; 
 1064 0.500501; 
 1082 0.600601; 
 1087 12.812813; 
 1088 5.605606; 
 1089 1.401401; 
 1095 0.500501; 
 1097 0.500501; 
 1129 0.600601; 
 1129 98.398398; 
 1129 0.600601; 
 1130 0.900901; 
 1130 54.454454; 
 1131 16.416416; 
 1131 1.001001; 
 1131 0.600601; 
 1132 2.502503; 
 1132 1.201201; 
 1149 0.600601; 
 1162 0.500501; 
 1168 0.500501; 
 1175 0.500501; 
 1177 0.800801; 
 1191 0.500501; 
 1207 0.500501; 
 1208 0.500501; 
 1214 0.500501; 
 1225 0.500501; 
 1226 0.500501; 
 1230 0.500501; 
 1236 0.500501; 
 1242 0.500501; 
 1260 0.500501; 
 1261 0.500501; 
 1274 0.500501; 
 1279 0.500501; 
 1280 0.500501; 
 1282 0.500501; 
 1294 0.500501; 
 1317 0.500501; 
 1321 0.500501; 
 1329 0.500501; 
 1346 0.500501; 
 1349 0.500501; 
 1366 0.500501; 
 1375 0.500501; 
 1383 0.500501; 
 1389 0.500501; 
 1406 0.500501; 
 1426 0.500501; 
 1427 0.500501; 
 1433 0.500501; 
 1443 0.500501; 
 1445 0.500501; 
 1455 0.600601; 
 1458 0.500501; 
 1465 0.500501; 
 1465 0.500501; 
 1465 0.500501; 
 1470 0.500501; 
 1470 0.500501; 
 1503 0.500501; 
 1508 0.500501; 
 1565 0.500501; 
 1571 0.500501; 
 1574 0.500501; 
 1576 0.500501; 
 1577 0.500501; 
 1588 0.500501; 
 1596 0.500501; 
 1598 0.500501; 
 1616 0.500501; 
 1618 0.500501; 
 1619 0.500501; 
 1651 0.500501; 
 1654 0.500501; 
 1690 0.500501; 
 1699 0.500501; 
 1715 0.500501; 
 1742 0.500501; 
 1754 0.500501; 
 1754 0.600601; 
 1757 0.500501; 
 1768 0.500501; 
 1769 0.500501; 
 1782 0.500501; 
 1783 0.500501; 
 1786 0.500501; 
 1790 0.500501; 
 1803 0.500501; 
 1803 0.500501; 
 1808 0.500501; 
 1814 0.700701; 
 1843 0.500501; 
 1899 0.500501; 
 1904 0.500501; 
 1906 0.500501; 
 1913 0.500501; 
 1917 0.500501; 
 1926 0.500501; 
 1940 0.500501; 
 1968 0.500501; 
 1970 0.500501; 


Name: 4'-O-GlcA-7-O-GlcA Apigenin
SYNON: $:00in-source
DB#: MetaboBASE1253
InChIKey: QBUOTXXACHDTNW-MWBUVXCNSA-N
Instrument_type: LC-ESI-TOF
Instrument: impact HD
Ion_mode: N
InChIKey: QBUOTXXACHDTNW-MWBUVXCNSA-N
Formula: C27H26O17
MW: 622
ExactMass: 622.116999372
Comments: "license=License CC-BY-NC-SA 4.0 International" "author=Plant Biology, The Noble Foundation, Ardmore, OK, US/Dennis Fine, Daniel Wherritt, and Lloyd Sumner" "instrument type=LC-ESI-TOF" "instrument=impact HD" "ionization=ESI" "ionization mode=negative" "peak width=0.024" "date=2014-11-20 08:02:12+01:00" "column=Waters Acquity BEH C18 1.7um x 2.1 x 150 mm" "retention time=228.6" "raw data file=C:\Data\2014Nov12_A-17 aerial root MS MSMS\A-17 aeial better  MSMS_1-A,2_01_1297.d" "SMILES=c1(cc(c2c(c1)oc(cc2=O)c1ccc(cc1)O[C@@H]1O[C@@H]([C@H]([C@@H]([C@H]1O)O)O)C(=O)O)O)O[C@@H]1O[C@@H]([C@H]([C@@H]([C@H]1O)O)O)C(=O)O" "InChI=InChI=1S/C27H26O17/c28-11-5-10(41-27-21(35)17(31)19(33)23(44-27)25(38)39)6-14-15(11)12(29)7-13(42-14)8-1-3-9(4-2-8)40-26-20(34)16(30)18(32)22(43-26)24(36)37/h1-7,16-23,26-28,30-35H,(H,36,37)(H,38,39)/t16-,17-,18-,19-,20+,21+,22-,23-,26+,27+/m0/s1" "InChIKey=QBUOTXXACHDTNW-MWBUVXCNSA-N" "molecular formula=C27H26O17" "total exact mass=622.116999372" "SMILES=C1(=CC(=C2C(=C1)OC(=CC2=O)C3=CC=C(C=C3)OC4OC(C(C(C4O)O)O)C(O)=O)O)OC5OC(C(C(C5O)O)O)C(O)=O"
Num Peaks: 16
 269 22.222222; 
 270 3.803804; 
 433 5.105105; 
 433 1.201201; 
 445 3.303303; 
 479 12.212212; 
 480 3.103103; 
 621 100.000000; 
 622 30.230230; 
 623 8.208208; 
 643 32.432432; 
 644 9.809810; 
 645 2.502503; 
 1243 6.106106; 
 1244 3.903904; 
 1245 1.201201; 


Name: 4'-O-GlcA-7-O-GlcA Apigenin
SYNON: $:00in-source
DB#: MetaboBASE1254
InChIKey: QBUOTXXACHDTNW-MWBUVXCNSA-N
Precursor_type: [M-H]-
Spectrum_type: MS2
PrecursorMZ: 621.109
Instrument_type: LC-ESI-TOF
Instrument: impact HD
Ion_mode: N
Collision_energy: 42.0417
InChIKey: QBUOTXXACHDTNW-MWBUVXCNSA-N
Formula: C27H26O17
MW: 622
ExactMass: 622.116999372
Comments: "license=License CC-BY-NC-SA 4.0 International" "author=Plant Biology, The Noble Foundation, Ardmore, OK, US/Dennis Fine, Daniel Wherritt, and Lloyd Sumner" "instrument type=LC-ESI-TOF" "instrument=impact HD" "ionization=ESI" "ionization mode=negative" "ms level=MS2" "precursor m/z=621.109" "collision energy=42.0417" "collision energy 2=70.0695" "peak width=0.028" "date=2014-11-20 08:02:12+01:00" "column=Waters Acquity BEH C18 1.7um x 2.1 x 150 mm" "retention time=228.6" "raw data file=C:\Data\2014Nov12_A-17 aerial root MS MSMS\A-17 aeial better  MSMS_1-A,2_01_1297.d" "precursor type=[M-H]-" "mass accuracy=1.1646458188899103" "mass error=-7.233719999248933E-4" "SMILES=c1(cc(c2c(c1)oc(cc2=O)c1ccc(cc1)O[C@@H]1O[C@@H]([C@H]([C@@H]([C@H]1O)O)O)C(=O)O)O)O[C@@H]1O[C@@H]([C@H]([C@@H]([C@H]1O)O)O)C(=O)O" "InChI=InChI=1S/C27H26O17/c28-11-5-10(41-27-21(35)17(31)19(33)23(44-27)25(38)39)6-14-15(11)12(29)7-13(42-14)8-1-3-9(4-2-8)40-26-20(34)16(30)18(32)22(43-26)24(36)37/h1-7,16-23,26-28,30-35H,(H,36,37)(H,38,39)/t16-,17-,18-,19-,20+,21+,22-,23-,26+,27+/m0/s1" "InChIKey=QBUOTXXACHDTNW-MWBUVXCNSA-N" "molecular formula=C27H26O17" "total exact mass=622.116999372" "SMILES=C1(=CC(=C2C(=C1)OC(=CC2=O)C3=CC=C(C=C3)OC4OC(C(C(C4O)O)O)C(O)=O)O)OC5OC(C(C(C5O)O)O)C(O)=O"
Num Peaks: 250
 99 1.101101; 
 101 0.100100; 
 102 0.700701; 
 103 0.100100; 
 107 0.200200; 
 113 7.007007; 
 114 0.200200; 
 115 0.200200; 
 117 1.301301; 
 133 0.100100; 
 150 0.200200; 
 157 0.100100; 
 175 0.100100; 
 175 1.001001; 
 225 0.200200; 
 225 1.001001; 
 225 0.100100; 
 227 0.500501; 
 227 0.200200; 
 228 0.200200; 
 255 0.500501; 
 268 0.200200; 
 269 100.000000; 
 269 0.100100; 
 270 15.415415; 
 271 0.200200; 
 271 1.901902; 
 297 0.200200; 
 311 0.100100; 
 311 0.800801; 
 312 0.100100; 
 323 0.100100; 
 341 0.100100; 
 353 0.100100; 
 445 0.900901; 
 524 0.100100; 
 555 0.100100; 
 655 0.200200; 
 751 0.200200; 
 765 0.200200; 
 770 0.100100; 
 779 0.100100; 
 818 0.100100; 
 836 0.100100; 
 842 0.200200; 
 842 0.200200; 
 848 0.200200; 
 863 0.100100; 
 887 0.200200; 
 891 0.100100; 
 896 0.200200; 
 902 0.100100; 
 921 0.100100; 
 982 0.100100; 
 984 0.200200; 
 1004 0.100100; 
 1009 0.100100; 
 1009 0.200200; 
 1024 0.100100; 
 1040 0.200200; 
 1043 0.200200; 
 1047 0.100100; 
 1072 0.200200; 
 1082 0.100100; 
 1084 0.200200; 
 1097 0.100100; 
 1100 0.100100; 
 1113 0.100100; 
 1116 0.200200; 
 1120 0.100100; 
 1133 0.200200; 
 1145 0.100100; 
 1145 0.200200; 
 1149 0.200200; 
 1149 0.200200; 
 1151 0.100100; 
 1154 0.300300; 
 1156 0.200200; 
 1169 0.200200; 
 1172 0.100100; 
 1182 0.100100; 
 1192 0.100100; 
 1200 0.100100; 
 1203 0.200200; 
 1222 0.100100; 
 1228 0.100100; 
 1232 0.100100; 
 1234 0.100100; 
 1246 0.100100; 
 1248 0.100100; 
 1251 0.100100; 
 1253 0.100100; 
 1265 0.200200; 
 1265 0.200200; 
 1266 0.100100; 
 1268 0.200200; 
 1271 0.200200; 
 1278 0.100100; 
 1279 0.100100; 
 1287 0.300300; 
 1304 0.100100; 
 1306 0.100100; 
 1333 0.100100; 
 1335 0.100100; 
 1360 0.100100; 
 1366 0.200200; 
 1385 0.100100; 
 1385 0.100100; 
 1415 0.100100; 
 1415 0.100100; 
 1415 0.100100; 
 1418 0.100100; 
 1423 0.100100; 
 1424 0.100100; 
 1425 0.100100; 
 1428 0.100100; 
 1430 0.200200; 
 1436 0.100100; 
 1447 0.100100; 
 1455 0.100100; 
 1459 0.200200; 
 1461 0.100100; 
 1471 0.100100; 
 1472 0.100100; 
 1478 0.200200; 
 1489 0.200200; 
 1493 0.200200; 
 1499 0.100100; 
 1500 0.100100; 
 1505 0.100100; 
 1511 0.100100; 
 1511 0.100100; 
 1514 0.200200; 
 1514 0.100100; 
 1519 0.100100; 
 1519 0.200200; 
 1534 0.200200; 
 1539 0.100100; 
 1543 0.100100; 
 1543 0.100100; 
 1546 0.100100; 
 1547 0.200200; 
 1550 0.200200; 
 1555 0.100100; 
 1555 0.100100; 
 1558 0.100100; 
 1558 0.200200; 
 1560 0.100100; 
 1573 0.100100; 
 1577 0.100100; 
 1579 0.100100; 
 1583 0.300300; 
 1583 0.100100; 
 1590 0.100100; 
 1591 0.200200; 
 1598 0.200200; 
 1604 0.100100; 
 1607 0.200200; 
 1608 0.200200; 
 1611 0.300300; 
 1611 0.100100; 
 1620 0.100100; 
 1621 0.100100; 
 1627 0.100100; 
 1634 0.100100; 
 1640 0.200200; 
 1641 0.100100; 
 1644 0.200200; 
 1647 0.100100; 
 1649 0.200200; 
 1652 0.200200; 
 1653 0.100100; 
 1667 0.200200; 
 1676 0.200200; 
 1676 0.100100; 
 1682 0.200200; 
 1683 0.200200; 
 1685 0.200200; 
 1693 0.100100; 
 1718 0.200200; 
 1718 0.100100; 
 1719 0.100100; 
 1719 0.100100; 
 1728 0.100100; 
 1729 0.200200; 
 1731 0.100100; 
 1733 0.200200; 
 1740 0.200200; 
 1745 0.200200; 
 1748 0.100100; 
 1749 0.100100; 
 1751 0.100100; 
 1751 0.200200; 
 1757 0.100100; 
 1758 0.100100; 
 1764 0.100100; 
 1770 0.100100; 
 1776 0.100100; 
 1777 0.100100; 
 1781 0.100100; 
 1782 0.100100; 
 1785 0.100100; 
 1787 0.200200; 
 1789 0.200200; 
 1792 0.200200; 
 1806 0.100100; 
 1807 0.200200; 
 1812 0.100100; 
 1814 0.100100; 
 1815 0.100100; 
 1819 0.100100; 
 1822 0.100100; 
 1827 0.200200; 
 1828 0.200200; 
 1832 0.100100; 
 1832 0.100100; 
 1858 0.100100; 
 1859 0.100100; 
 1863 0.100100; 
 1864 0.100100; 
 1869 0.100100; 
 1870 0.100100; 
 1872 0.200200; 
 1875 0.100100; 
 1876 0.200200; 
 1877 0.300300; 
 1879 0.200200; 
 1886 0.100100; 
 1886 0.300300; 
 1896 0.200200; 
 1900 0.100100; 
 1903 0.200200; 
 1905 0.100100; 
 1911 0.200200; 
 1917 0.100100; 
 1918 0.100100; 
 1937 0.100100; 
 1937 0.200200; 
 1939 0.100100; 
 1942 0.100100; 
 1945 0.100100; 
 1950 0.100100; 
 1961 0.300300; 
 1963 0.100100; 
 1971 0.200200; 
 1975 0.100100; 
 1981 0.100100; 
 1982 0.200200; 
 1989 0.200200; 
 1996 0.200200; 

